NAME : mamut-paris-n171-k8-hyb
COMMENT : Mamut2026 fastest metric; city paris; No of trucks: 8 (lower bound, fleet not fixed); 3-decimal seconds/meters; ENU ref in mamut-paris-n171-k8-hyb.vrp.json
TYPE : CVRP
DIMENSION : 172
EDGE_WEIGHT_TYPE : EXPLICIT
EDGE_WEIGHT_FORMAT : FULL_MATRIX
CAPACITY : 184
EDGE_WEIGHT_SECTION
0.000 234.886 266.123 198.054 250.577 263.425 303.363 184.158 237.492 253.311 203.034 229.810 210.425 73.264 233.027 158.916 365.100 216.357 195.799 313.325 235.066 186.086 293.424 282.639 80.997 437.910 281.720 267.973 74.688 397.361 227.942 201.321 13.179 238.949 192.372 186.967 282.179 267.602 189.921 109.749 69.478 203.087 90.789 187.501 295.239 258.067 94.737 138.032 411.463 179.318 436.155 289.574 163.305 100.729 450.168 380.290 171.235 300.806 147.232 282.767 233.384 60.984 214.680 70.486 343.665 106.120 405.545 138.346 81.681 286.123 260.143 129.380 245.981 255.430 125.843 447.141 117.205 176.729 288.165 272.944 215.027 93.772 182.263 49.811 254.226 98.743 414.944 76.828 259.840 295.211 391.922 450.088 428.176 533.624 135.853 494.681 494.832 299.557 106.219 330.363 300.234 493.330 155.038 455.316 299.282 319.708 283.220 497.197 130.006 225.461 356.886 417.562 374.658 342.606 212.240 394.751 236.423 220.702 181.817 268.788 404.672 322.214 191.230 253.707 195.823 493.007 365.991 380.366 215.940 270.884 309.445 438.758 255.850 365.181 442.695 428.817 292.654 199.963 107.350 446.988 278.242 284.582 411.920 432.085 285.267 268.845 222.702 190.102 508.184 238.286 292.425 408.820 394.430 372.193 167.538 511.929 509.169 442.269 348.666 453.196 320.681 215.986 362.858 58.893 376.348 261.883 271.177 394.126 362.038 366.845 303.361 329.410
205.134 0.000 411.924 299.253 111.331 397.865 429.167 101.833 271.176 133.874 328.838 331.009 71.179 199.069 148.479 104.512 490.904 363.655 321.603 134.914 332.372 339.532 113.136 143.393 206.801 385.155 325.078 128.727 200.492 440.719 329.141 334.420 218.313 336.255 293.571 312.771 210.627 184.987 187.037 164.553 274.611 93.444 280.111 313.305 385.440 383.871 237.248 143.183 454.821 353.350 303.419 379.775 313.168 226.533 392.500 292.371 272.434 426.610 273.037 316.411 359.189 178.294 116.035 196.290 211.590 165.331 347.877 273.277 286.815 329.481 405.944 147.985 371.785 291.581 286.308 388.471 243.009 71.496 400.252 316.302 340.831 219.577 106.377 254.944 269.975 224.547 505.145 281.961 303.198 407.298 435.279 493.445 518.377 567.308 237.052 620.485 406.504 160.311 162.129 456.167 426.038 583.531 302.336 498.674 143.864 353.392 373.421 587.398 255.810 268.819 426.738 487.414 418.015 432.807 338.045 438.108 348.510 368.000 307.621 358.989 448.029 159.910 73.650 307.759 207.000 404.679 409.349 450.218 133.325 314.242 435.249 483.919 262.548 408.539 354.367 519.018 308.402 133.221 208.549 572.792 368.443 180.737 455.277 349.410 411.071 414.645 385.192 102.007 598.385 155.671 418.229 499.021 437.788 217.937 220.675 356.855 552.526 485.627 392.024 395.528 446.485 363.284 483.595 264.027 466.549 352.084 238.512 484.327 452.239 410.203 166.925 473.925
266.681 411.329 0.000 358.556 453.610 78.941 322.733 329.184 487.797 476.153 226.115 427.558 413.458 333.745 338.481 312.440 401.130 66.598 311.480 458.350 432.813 184.479 446.949 482.072 341.478 455.241 226.858 467.407 282.055 361.722 361.678 126.798 273.395 436.697 352.874 302.648 385.082 505.740 288.535 306.772 253.506 356.611 241.092 303.182 485.247 373.748 318.811 263.713 375.825 160.360 516.842 487.322 313.609 322.159 501.810 460.977 346.379 180.322 184.987 533.072 256.465 321.465 359.706 330.967 477.671 344.759 457.187 166.772 251.265 211.386 74.849 368.018 217.673 500.454 187.854 446.010 377.686 330.253 189.126 181.251 314.007 354.253 420.902 267.920 281.514 332.103 458.258 260.856 232.335 196.172 313.965 414.449 616.410 783.929 340.927 514.052 575.519 498.990 344.858 446.044 392.084 537.713 109.186 408.526 478.906 570.013 480.968 602.431 281.700 161.982 264.565 325.241 339.019 540.354 308.585 359.112 137.384 41.552 257.375 466.536 369.033 456.220 394.922 161.386 434.461 573.694 330.353 288.044 454.078 243.379 393.670 346.436 506.155 328.294 523.382 626.565 276.772 305.417 312.424 466.359 475.989 429.608 376.281 511.469 127.308 2.721 143.298 349.414 615.026 476.424 408.107 515.662 350.907 493.275 242.074 613.049 473.530 406.630 305.412 504.838 337.623 36.836 431.149 242.922 564.582 459.630 521.482 500.968 478.382 331.207 509.204 144.927
251.671 309.329 358.557 0.000 256.572 299.802 281.537 322.986 246.936 234.493 178.310 99.634 284.868 169.187 373.307 281.017 233.657 289.211 121.941 395.348 104.890 292.019 373.569 357.081 243.987 603.791 412.333 334.791 172.857 527.974 87.046 236.356 238.492 108.773 46.467 118.056 435.455 248.784 355.802 246.268 251.222 312.218 196.721 119.014 165.063 126.624 209.613 303.914 542.077 280.045 537.579 159.398 229.778 200.837 616.050 526.531 65.699 328.547 174.973 216.130 211.559 226.866 341.775 233.475 449.136 207.387 571.427 244.278 261.186 393.318 366.076 201.482 273.721 172.530 231.776 612.142 280.194 265.506 394.098 379.498 97.896 256.762 194.568 231.555 420.108 210.781 284.768 255.143 390.454 401.144 512.219 580.701 298.001 484.417 132.768 467.225 640.664 373.999 227.346 198.920 168.792 363.155 260.971 585.930 373.724 310.758 153.045 367.021 180.628 332.015 462.819 523.495 505.271 212.430 172.502 525.364 342.356 293.557 203.644 138.612 535.285 420.343 244.290 359.640 274.674 638.839 496.605 486.298 197.122 401.498 178.002 544.691 249.400 495.795 588.527 298.642 434.891 354.374 104.264 360.954 148.066 411.677 542.533 583.570 313.007 361.278 287.128 277.256 378.008 219.468 160.983 278.644 525.043 446.636 322.894 591.015 639.782 572.882 479.279 619.078 298.855 288.841 231.416 240.638 246.172 131.707 264.727 263.950 231.862 497.459 315.666 375.861
260.078 141.880 472.222 298.513 0.000 435.322 466.624 191.691 223.486 22.543 366.295 294.044 117.419 236.020 241.463 149.722 463.625 422.456 337.398 225.408 294.336 397.756 206.120 155.200 244.259 414.369 414.936 90.121 237.949 530.577 336.507 371.877 257.238 298.219 300.937 328.566 303.611 106.804 276.895 202.010 313.537 180.923 317.568 329.100 347.404 393.805 274.706 207.480 544.679 406.098 335.698 341.739 350.625 263.990 421.714 324.649 283.437 464.067 310.494 242.740 396.646 215.751 209.019 233.747 247.254 192.650 377.091 342.389 325.740 419.339 466.242 130.131 409.242 253.545 344.532 420.750 280.466 134.211 480.349 406.160 356.626 257.034 88.523 293.870 359.833 262.004 467.109 320.887 393.056 487.395 525.137 583.303 480.341 514.774 248.056 657.942 438.783 148.920 199.586 466.101 435.972 545.496 361.137 588.532 171.843 305.702 335.386 549.362 293.267 358.677 516.596 577.272 507.873 394.771 359.483 527.966 428.607 426.801 345.078 320.953 537.887 252.894 88.700 397.617 210.834 436.958 499.207 540.076 80.347 404.100 445.183 573.777 184.365 498.397 386.646 480.983 398.260 223.079 219.552 590.922 330.407 273.721 545.135 381.689 448.528 474.944 422.649 147.216 560.349 67.983 428.163 460.985 527.646 244.755 310.533 389.134 642.384 575.485 481.882 424.742 483.942 422.085 445.560 302.953 428.513 314.048 160.329 446.291 414.203 500.061 148.296 511.382
300.710 448.621 67.005 298.397 453.369 0.000 266.285 366.476 427.638 431.291 165.956 367.399 445.422 308.261 373.127 349.732 344.682 126.261 251.321 495.642 372.655 212.313 484.240 517.635 323.281 457.162 228.779 502.970 221.896 363.643 301.520 133.678 287.531 376.538 292.715 242.490 411.734 445.582 315.187 344.064 275.345 393.903 234.218 243.023 425.088 313.589 258.652 301.005 377.746 177.366 543.494 427.163 254.459 262.000 523.668 487.629 286.220 130.637 124.829 472.913 196.307 340.735 396.998 312.770 504.323 341.116 479.046 204.064 273.105 213.307 82.840 364.376 138.731 440.295 200.445 447.931 351.598 367.545 189.210 190.180 253.848 336.056 391.365 280.594 308.166 271.944 401.809 282.695 256.539 196.256 315.886 416.370 558.026 723.770 280.768 457.603 602.171 534.553 341.216 385.886 331.925 481.265 146.478 410.447 516.198 509.854 420.809 545.982 221.541 188.634 266.486 327.162 340.940 480.195 248.427 361.033 137.468 101.214 197.217 406.377 370.954 482.872 426.227 170.314 430.819 600.346 332.274 289.965 393.920 270.031 333.511 348.357 445.996 330.215 550.034 566.406 301.020 340.063 252.265 409.910 415.831 466.900 378.202 533.327 48.642 69.726 171.132 386.706 558.578 416.265 347.948 459.214 352.828 519.927 279.366 639.701 475.451 408.551 307.334 526.696 283.603 96.499 374.700 264.761 506.197 399.472 461.323 444.520 421.933 333.128 512.463 110.713
333.946 503.118 324.554 283.992 486.605 265.799 0.000 483.023 406.469 464.526 106.897 278.134 478.657 341.496 492.320 455.459 116.208 255.209 239.789 589.137 256.873 299.313 567.358 550.871 356.517 633.554 413.488 536.205 255.132 540.155 300.529 202.354 320.767 255.491 298.461 252.748 541.472 450.153 449.214 393.373 329.491 493.296 269.740 213.527 228.529 199.145 291.888 417.552 554.258 246.042 687.141 277.246 302.796 295.236 672.109 631.276 306.828 253.051 193.505 342.146 127.048 373.971 513.545 346.005 642.529 374.352 627.487 317.297 334.204 393.584 340.390 397.612 238.630 360.712 269.121 624.323 384.833 446.585 386.815 379.764 194.789 369.292 424.601 313.829 451.814 305.180 179.101 328.161 402.635 393.860 512.486 592.882 337.254 602.265 314.004 191.319 745.818 567.789 374.451 290.969 146.995 252.792 278.465 598.111 567.514 436.774 270.892 302.736 254.777 332.281 463.085 523.761 517.452 330.278 236.328 537.545 335.072 259.554 209.374 264.628 547.466 614.132 459.462 359.906 464.055 743.993 508.785 486.564 427.156 413.678 149.017 544.957 385.446 507.976 693.681 390.767 447.071 459.256 285.501 143.626 265.914 583.447 554.714 681.768 261.567 327.276 253.126 458.334 335.870 449.501 134.936 236.506 537.224 640.425 395.912 783.348 651.963 585.063 491.330 675.137 40.674 254.839 151.992 322.912 285.425 230.297 400.773 221.812 199.225 509.639 545.699 300.078
152.078 92.545 348.808 289.380 147.272 347.607 419.294 0.000 318.218 169.815 318.965 321.136 103.066 189.196 89.038 58.922 481.031 300.539 311.730 151.172 326.392 278.705 128.165 163.288 196.929 348.469 261.962 148.623 190.620 377.603 319.268 316.601 165.257 330.275 283.698 302.899 151.186 232.028 123.921 115.186 221.556 48.252 233.291 303.432 386.565 373.998 227.376 90.127 391.705 300.294 301.318 380.901 303.295 216.661 355.814 281.634 262.561 416.738 263.164 363.452 349.316 157.864 57.506 186.418 186.490 159.226 311.192 210.161 233.759 266.365 342.828 153.603 361.912 338.622 233.252 351.785 233.137 29.800 337.136 253.186 330.959 209.704 136.593 201.889 206.859 214.674 506.270 228.906 240.082 344.182 372.163 430.329 519.503 614.350 227.180 610.613 396.176 180.206 157.702 446.294 416.166 584.657 239.220 435.558 160.122 400.434 374.547 588.523 245.938 205.703 363.622 424.298 354.899 433.932 328.172 374.992 285.394 304.884 297.749 360.115 384.913 165.040 108.405 244.643 202.573 394.351 346.233 387.101 180.366 251.126 425.376 420.803 309.590 345.423 344.038 520.144 245.286 70.105 198.676 562.920 369.568 127.408 392.161 333.428 395.974 351.529 333.101 64.991 599.510 202.712 408.357 500.146 374.672 234.195 157.559 354.755 489.410 422.511 328.908 358.842 436.612 300.168 478.790 210.972 467.674 353.209 285.553 485.452 453.364 347.087 219.427 413.592
279.031 287.596 473.090 240.519 213.652 414.335 428.522 332.628 0.000 191.109 337.288 205.325 263.135 188.411 382.949 290.659 370.748 403.745 284.676 373.614 205.616 406.552 351.836 335.348 263.211 594.517 465.511 285.094 256.902 581.152 278.513 350.890 276.191 209.500 242.943 275.844 445.097 157.295 373.712 264.177 332.490 321.860 311.255 276.378 247.981 307.280 293.658 321.823 595.255 394.578 515.846 240.430 344.311 282.943 601.862 504.798 225.809 443.080 289.506 142.120 367.639 244.775 351.417 252.700 427.403 225.296 557.240 358.812 344.693 469.914 480.610 211.124 388.255 164.826 346.310 600.898 299.419 275.148 508.632 456.735 278.551 275.986 204.210 312.822 438.018 280.956 367.452 339.839 443.632 515.677 575.713 633.879 380.919 389.903 190.427 604.316 618.931 343.893 245.256 379.576 349.447 445.839 375.505 639.108 351.991 174.876 234.077 449.705 295.162 409.252 567.171 627.848 558.449 293.462 306.761 578.542 456.890 408.090 318.178 232.234 588.463 398.610 234.415 448.193 292.583 617.106 549.783 590.651 158.536 454.675 358.658 624.352 130.163 548.973 566.794 379.674 476.445 364.016 161.924 498.045 229.098 419.437 595.711 561.837 427.541 475.812 401.662 286.898 471.629 187.417 341.638 372.266 578.221 424.903 351.329 569.282 692.960 626.060 532.457 604.890 445.840 403.375 347.582 321.905 329.090 225.328 145.490 357.572 314.546 550.637 294.012 490.395
282.622 164.423 494.766 278.802 22.543 447.346 470.627 214.234 200.943 0.000 370.298 273.678 139.962 216.309 264.006 172.265 443.259 436.755 317.686 247.951 273.970 420.299 228.663 177.744 266.802 436.913 437.479 112.664 260.492 553.120 316.796 383.900 279.781 277.853 281.226 308.854 326.154 84.260 299.438 224.554 336.080 203.466 340.112 309.388 327.038 374.093 297.249 230.023 567.223 427.589 358.241 321.373 373.168 286.534 444.258 347.193 263.726 476.091 322.517 220.196 400.649 238.294 231.563 256.291 269.798 185.974 399.635 364.932 348.284 441.882 488.785 123.456 421.265 233.179 367.076 443.293 303.010 156.754 502.893 428.703 336.915 279.577 111.066 316.413 382.376 284.547 446.743 343.430 415.599 509.938 547.681 605.847 459.975 492.231 228.344 661.946 461.326 171.464 222.129 446.389 416.260 525.129 383.680 611.076 194.386 283.159 315.019 528.995 315.810 381.220 539.139 599.816 530.417 374.405 339.772 550.510 451.150 441.101 351.188 300.587 560.431 275.437 111.243 420.160 226.542 459.501 521.750 562.619 57.803 426.643 425.471 596.320 161.822 520.941 409.189 460.616 420.804 245.622 199.841 570.556 310.041 296.264 567.679 404.232 460.551 497.487 434.672 169.760 539.983 45.440 408.452 440.619 550.189 267.298 333.077 411.677 664.928 598.028 504.425 447.286 487.945 436.385 425.193 325.496 408.147 293.682 137.786 425.925 393.837 522.604 170.840 523.405
274.457 443.629 265.065 212.208 427.116 206.310 144.688 423.534 401.385 405.037 0.000 245.876 419.168 282.007 432.831 395.969 223.086 195.720 168.005 529.647 251.131 239.823 507.869 491.381 297.027 574.065 353.998 476.716 195.642 480.666 228.745 142.865 261.278 255.015 226.677 180.964 481.983 419.328 389.724 333.883 270.001 433.807 210.250 141.743 294.321 182.823 232.399 358.062 494.768 186.553 627.652 305.640 243.307 235.747 612.620 571.787 235.044 235.055 134.015 362.372 53.127 314.482 454.056 286.516 583.040 314.863 567.997 257.807 274.715 334.094 280.900 338.122 179.141 318.772 209.631 564.833 325.344 387.095 334.875 320.275 123.005 309.802 365.112 254.340 392.324 245.690 280.213 268.672 343.145 341.920 452.996 533.392 427.259 630.659 254.515 336.007 686.329 508.299 314.962 264.362 165.969 359.669 218.976 538.621 508.024 456.999 299.286 424.386 195.288 272.792 403.595 464.272 457.963 358.672 164.544 478.055 283.133 200.065 149.884 284.854 487.976 554.643 399.973 300.416 404.565 684.504 449.296 427.075 367.666 354.189 167.555 485.467 405.671 448.486 634.192 444.883 387.582 399.767 226.011 288.314 294.307 523.957 495.224 622.279 219.516 267.786 193.636 398.845 436.981 390.012 189.532 337.618 477.735 580.936 336.423 723.858 592.473 525.574 431.840 615.648 162.007 195.349 253.104 263.423 375.430 277.949 420.998 322.924 300.337 450.150 486.210 282.370
311.594 366.312 418.479 105.496 313.555 359.724 266.164 393.679 224.758 291.476 203.211 0.000 341.851 239.880 444.000 351.710 210.599 349.134 146.842 452.330 53.339 351.941 430.552 414.064 314.680 669.770 472.256 374.611 232.779 587.897 162.448 296.279 298.415 44.529 145.029 147.197 506.148 273.578 426.495 316.960 311.144 382.911 256.644 160.614 94.377 135.103 269.536 374.607 601.999 339.967 594.562 114.114 289.700 260.759 680.578 583.514 164.261 388.469 234.895 170.846 236.460 297.559 412.468 304.168 506.119 278.080 635.956 304.201 321.108 453.240 425.998 272.175 333.643 141.554 291.698 672.064 350.887 336.199 454.021 439.420 122.797 327.455 265.261 291.477 490.801 270.703 214.083 315.065 450.376 461.066 572.142 640.623 227.315 439.132 203.461 444.167 697.647 430.982 298.039 223.821 177.271 292.469 320.893 645.852 430.707 265.473 107.760 296.335 240.550 391.937 522.741 583.417 565.193 167.145 221.127 585.286 402.278 353.479 263.567 93.328 595.207 477.326 313.131 419.562 345.367 695.822 556.527 546.221 254.105 461.420 187.036 604.613 214.145 555.717 645.510 253.357 494.813 425.067 174.957 337.896 102.781 482.370 602.455 640.553 372.930 421.200 347.050 347.949 307.322 276.451 169.462 207.959 584.966 503.619 382.816 647.998 699.704 632.805 539.202 683.606 283.482 348.763 192.533 300.560 175.486 84.540 229.472 193.265 161.177 557.381 372.728 435.784
257.559 139.361 469.703 334.190 74.205 432.803 464.104 177.810 297.692 96.748 363.776 365.210 0.000 234.006 224.456 147.203 525.842 419.937 356.541 175.005 365.502 395.237 189.113 136.684 241.739 395.853 401.055 97.151 235.430 516.696 364.079 369.358 254.719 369.385 328.509 347.709 286.604 181.009 263.014 199.491 311.018 169.421 315.049 348.243 418.570 418.808 272.186 204.961 530.799 403.579 317.182 412.905 348.105 261.471 403.198 306.134 307.372 461.548 307.974 316.945 394.126 213.232 192.012 231.228 228.739 200.268 358.576 339.870 323.221 405.458 463.723 182.923 406.723 324.711 342.013 402.234 277.947 131.692 476.230 392.279 375.769 254.514 141.315 291.350 345.952 259.485 538.275 318.368 379.175 483.275 511.257 569.423 551.507 588.979 271.990 655.423 420.267 153.602 197.067 491.105 460.976 616.661 358.618 574.652 153.327 379.907 406.551 620.528 290.748 344.796 502.715 563.392 493.993 465.937 372.982 514.086 424.487 424.282 342.559 392.119 524.007 200.000 108.588 383.736 241.938 418.442 485.326 526.195 154.552 390.219 470.187 559.896 258.570 484.517 368.130 552.149 384.380 209.198 243.487 607.730 401.573 220.827 531.255 363.173 446.009 472.424 420.129 144.697 631.515 142.188 453.167 532.151 513.765 226.239 296.653 370.618 628.504 561.604 468.001 406.226 481.422 419.566 516.725 300.433 499.679 385.214 234.534 517.457 485.369 486.180 201.862 508.863
118.610 242.038 351.435 138.913 223.939 293.854 318.996 233.672 178.352 201.861 218.667 170.670 217.577 0.000 284.934 194.378 333.132 283.264 166.055 328.057 175.925 271.397 306.278 289.791 102.790 489.816 333.627 275.125 96.481 449.268 168.802 230.409 115.770 179.809 133.232 157.223 334.086 216.152 241.827 132.292 172.069 232.216 176.100 157.757 236.098 226.099 133.237 189.939 463.370 264.630 470.288 230.434 209.156 122.522 502.074 432.197 112.095 322.599 169.025 223.626 249.018 112.891 261.773 92.279 381.845 99.543 457.452 223.657 184.272 338.030 345.455 100.387 267.774 196.290 211.155 499.048 138.998 185.504 373.477 324.851 185.284 115.565 153.271 152.401 306.133 120.535 355.804 179.418 311.747 380.522 443.828 501.994 369.036 474.484 76.713 510.315 546.739 306.708 113.371 298.395 268.266 434.190 240.350 507.223 306.433 260.568 224.080 438.056 151.799 277.368 435.287 495.963 426.564 283.466 188.141 446.657 321.735 287.609 199.557 209.648 456.578 353.052 198.382 316.308 166.830 544.914 417.898 458.766 164.490 322.791 277.477 492.468 196.709 417.088 494.601 369.677 344.560 251.870 48.210 460.429 219.101 331.675 463.826 483.991 307.060 354.156 281.180 197.254 449.044 186.836 260.458 349.680 446.336 379.345 219.445 523.724 561.075 494.176 400.573 505.103 336.314 282.893 330.890 161.484 317.207 202.743 212.037 334.986 302.898 418.752 274.369 369.914
209.630 166.579 330.253 372.551 221.305 341.416 463.125 120.264 397.712 243.848 362.796 404.307 177.099 272.366 0.000 142.092 527.104 294.348 357.803 142.468 409.562 290.223 203.427 212.951 280.099 287.950 243.407 222.656 273.790 359.048 402.439 310.410 222.809 413.446 366.869 348.972 71.278 311.523 109.459 198.357 260.024 116.141 247.610 349.505 469.735 420.071 304.368 171.674 373.150 314.613 277.110 464.071 320.127 299.831 300.208 230.330 345.732 441.403 296.666 442.947 393.147 241.034 58.686 269.588 162.283 242.397 255.585 221.679 257.783 247.810 324.273 236.773 395.415 418.117 247.571 297.181 316.307 112.970 318.581 234.631 377.032 292.874 219.763 259.441 173.956 297.845 584.232 267.374 221.527 325.627 353.608 411.774 602.673 693.844 310.350 654.443 344.872 254.239 240.872 492.367 462.239 663.688 250.738 417.003 195.972 479.928 457.717 671.693 308.034 187.148 345.067 405.743 336.344 517.103 374.245 356.437 266.839 298.693 343.822 443.285 366.358 140.832 191.575 226.088 285.743 343.047 327.678 368.546 259.861 232.571 471.449 402.248 389.084 326.868 292.735 603.314 212.383 64.018 281.847 606.750 452.738 103.200 373.606 282.125 389.783 332.974 326.910 148.161 682.681 282.206 454.430 583.317 356.117 210.773 169.077 330.547 470.855 403.956 310.353 303.236 480.443 293.978 524.863 249.440 550.844 436.380 365.048 568.623 536.535 328.532 293.460 406.008
133.810 116.401 342.674 268.479 141.170 339.976 398.393 79.072 292.295 163.713 298.064 300.235 101.018 168.295 129.393 0.000 460.130 292.908 290.829 181.112 305.491 268.208 158.641 173.232 176.028 388.825 302.317 158.566 169.718 417.958 298.367 303.646 146.989 309.374 262.797 281.997 191.541 206.105 164.276 92.457 203.288 68.304 215.023 282.531 365.664 353.097 206.475 71.859 432.060 282.026 341.674 359.999 282.394 195.759 396.170 321.989 241.660 395.837 242.263 337.529 328.415 136.963 97.861 165.517 226.846 134.980 351.547 211.707 215.491 306.720 336.694 127.680 341.011 312.699 214.984 392.141 212.236 21.592 349.668 293.541 310.058 188.803 110.670 183.621 247.214 193.773 485.369 210.638 280.437 356.713 412.519 470.685 498.601 588.427 206.278 589.712 436.531 190.149 131.779 425.393 395.264 563.756 231.589 475.913 189.874 374.510 353.646 567.622 225.036 246.058 403.977 464.654 395.255 413.031 307.271 415.348 297.925 297.253 276.847 339.213 425.269 205.395 82.482 284.998 176.650 434.706 386.588 427.457 154.443 291.481 404.475 461.158 283.666 385.779 384.394 499.243 285.642 110.460 177.775 542.019 348.667 167.763 432.517 373.784 380.297 345.396 325.410 39.068 578.609 176.789 387.456 479.245 415.027 262.786 191.623 395.110 529.766 462.866 369.263 399.198 415.711 292.537 457.889 192.704 446.773 332.308 259.630 464.551 432.463 387.442 196.763 405.961
373.015 522.064 404.350 235.544 466.952 345.595 116.395 521.696 350.661 444.409 186.693 222.326 497.603 368.441 540.645 482.403 0.000 335.005 208.263 608.083 201.065 379.109 586.304 555.183 383.461 713.350 493.284 490.104 294.201 619.951 252.081 282.150 359.836 199.683 250.012 208.618 589.797 394.345 497.539 420.317 372.566 520.241 318.065 222.036 172.401 143.337 330.957 465.877 634.054 325.838 735.680 221.118 351.121 322.181 743.449 687.908 258.379 332.834 273.301 286.338 206.844 400.916 549.798 372.950 647.237 401.297 698.826 365.622 382.530 473.380 420.186 414.217 318.426 304.904 348.917 704.119 419.669 473.529 466.610 459.560 184.218 396.236 407.303 352.898 531.609 332.124 89.965 376.486 482.430 473.656 592.281 672.678 281.126 546.137 320.933 263.726 802.450 548.903 401.396 235.161 91.187 136.583 358.261 677.907 571.826 380.966 214.764 201.301 301.972 412.077 542.881 603.557 597.248 274.150 269.674 617.341 414.868 339.350 289.169 208.820 627.262 633.078 457.025 439.702 487.409 800.625 588.581 566.360 409.858 493.474 103.853 624.753 329.637 587.772 750.313 334.639 526.867 507.581 292.429 127.297 209.786 619.700 634.510 739.703 341.363 407.072 332.921 485.279 279.742 432.203 79.128 180.378 617.020 644.737 444.238 789.116 731.759 664.859 571.125 746.477 133.713 334.635 74.937 361.981 229.297 174.169 344.965 165.684 122.171 589.435 528.401 379.861
210.226 354.874 99.746 291.958 397.155 91.206 259.845 272.729 421.199 419.698 159.516 360.960 357.003 277.290 282.026 255.985 338.242 0.000 244.882 401.895 366.215 117.881 390.494 425.617 285.023 413.843 193.777 410.952 215.456 320.444 295.080 60.200 216.186 370.098 286.276 236.050 331.178 439.142 238.920 250.317 196.298 300.156 183.884 236.584 418.648 307.150 252.213 207.258 334.547 93.761 467.430 420.724 248.019 255.561 452.398 411.565 279.781 192.586 118.389 466.474 189.867 265.010 303.251 274.512 428.259 288.304 407.776 109.564 194.057 173.873 88.000 311.563 166.803 433.855 127.656 404.612 321.231 273.798 174.653 160.053 247.408 297.798 364.447 210.712 232.103 265.505 395.370 203.648 182.924 181.699 292.775 373.171 551.586 717.331 274.329 451.164 526.107 442.535 288.403 379.446 325.486 474.826 59.774 378.400 422.451 503.415 414.370 539.543 215.102 112.570 243.374 304.050 297.741 473.755 241.987 317.834 122.911 48.483 190.777 399.938 327.755 406.809 338.467 140.195 378.006 524.282 289.075 266.853 387.480 193.967 327.072 325.246 439.556 288.265 473.970 559.967 227.360 248.962 245.825 403.471 409.391 373.153 335.003 462.057 139.573 102.468 76.700 292.959 552.138 409.826 341.509 452.774 317.513 443.863 185.619 563.637 432.252 365.352 271.619 455.427 277.163 43.767 368.261 185.713 499.757 393.032 454.884 438.080 415.494 289.929 452.748 157.191
236.675 393.723 321.453 111.344 345.107 262.698 201.077 385.356 301.112 323.029 97.849 145.012 369.262 232.101 404.305 346.063 198.235 252.108 0.000 479.741 150.267 277.022 457.963 441.475 247.121 594.851 397.337 423.327 157.861 512.978 127.881 199.253 223.496 154.151 125.813 72.278 453.457 337.320 361.199 283.977 236.226 383.901 181.725 65.146 202.701 91.202 194.617 329.537 527.080 242.941 607.433 204.776 214.781 185.840 607.109 551.568 134.180 291.443 159.976 261.508 131.098 264.576 413.458 236.610 533.529 264.957 562.486 229.282 246.189 378.321 337.288 288.216 235.529 217.908 216.779 597.145 283.329 337.189 379.102 364.501 22.141 259.896 283.104 216.558 421.152 195.784 255.363 240.146 375.457 386.147 497.223 565.704 335.638 529.794 184.592 392.395 666.110 458.393 265.056 163.498 114.940 334.818 245.974 570.933 458.118 356.135 198.422 367.404 165.631 317.018 447.822 508.499 490.275 257.808 144.411 510.367 327.359 256.453 188.648 183.990 520.288 504.737 332.825 344.643 354.659 664.285 481.608 471.302 285.658 386.501 117.617 529.694 304.807 480.798 613.973 344.019 419.894 371.241 156.089 325.532 193.443 483.360 527.537 603.363 275.904 324.174 250.024 348.939 370.930 308.004 125.561 271.566 510.047 531.030 307.898 675.409 624.786 557.886 464.283 610.137 218.395 251.737 195.994 225.641 283.810 177.084 320.134 256.872 235.192 482.462 404.202 338.758
314.481 209.041 480.016 419.569 185.756 491.180 549.483 204.098 379.874 208.299 449.154 451.326 141.549 319.385 178.515 218.691 598.656 444.111 441.919 0.000 452.132 444.087 252.436 88.359 327.118 278.349 377.459 112.980 320.809 488.813 449.457 454.737 327.660 456.016 413.887 433.088 227.081 283.496 277.809 274.955 383.959 183.180 395.694 433.621 482.434 504.187 357.565 252.530 502.915 462.697 196.613 476.770 433.484 346.850 285.694 185.565 392.751 546.927 393.353 364.902 479.505 298.611 143.239 316.607 108.170 285.647 241.071 375.543 396.162 370.035 474.036 268.302 492.101 411.898 395.655 281.665 363.326 189.569 468.345 384.394 461.148 339.893 226.694 364.291 298.894 344.863 602.140 391.308 365.787 475.390 483.373 541.539 615.372 636.937 357.369 740.802 299.698 144.564 282.445 576.484 546.355 680.526 404.602 497.931 60.072 432.351 470.416 684.392 376.127 336.911 476.960 537.636 466.109 529.801 458.361 486.202 416.603 448.457 427.938 455.984 496.123 83.689 193.967 375.852 327.317 297.874 457.443 500.439 253.641 367.198 555.566 532.013 306.528 456.633 247.561 616.013 326.315 219.986 328.865 693.109 465.437 104.517 503.371 242.604 531.388 482.738 476.674 224.760 695.379 253.739 538.546 596.016 485.881 111.131 322.941 250.050 600.620 533.720 443.654 288.722 566.801 443.741 580.590 373.374 563.543 449.078 284.943 581.322 549.233 458.297 287.241 555.771
335.656 380.579 442.541 119.763 327.822 383.786 302.831 407.946 239.025 305.743 227.273 36.666 356.118 254.147 458.267 365.977 247.265 373.196 170.904 466.597 0.000 376.003 444.819 428.331 328.946 687.500 496.318 403.186 256.841 611.959 186.510 320.341 322.477 81.196 159.296 171.259 520.415 287.845 440.762 331.227 335.206 397.178 280.706 184.676 131.044 171.770 293.598 388.874 626.061 364.029 608.829 142.689 313.762 284.821 694.845 597.781 178.528 412.531 258.957 199.421 260.522 311.826 426.735 318.435 520.386 292.347 650.223 328.263 345.170 477.302 450.060 286.442 357.705 155.821 315.760 693.881 365.154 350.466 478.082 463.482 146.859 341.722 279.528 315.539 505.068 294.765 250.749 339.127 474.438 485.128 596.204 664.685 263.981 467.707 217.728 480.833 711.914 445.249 312.306 247.883 213.937 329.135 344.955 669.914 444.974 294.048 136.335 333.002 264.612 415.999 546.803 607.479 589.255 195.721 245.189 609.348 426.340 377.541 287.628 121.903 619.269 491.593 327.398 443.624 359.633 710.089 580.589 570.283 268.372 485.482 223.702 628.675 242.720 579.779 659.777 281.932 518.875 439.334 189.224 374.562 131.356 496.637 626.517 654.820 396.992 445.262 371.112 362.216 343.989 290.718 206.128 244.625 609.027 517.886 406.878 662.265 723.766 656.867 563.264 697.873 320.149 372.825 229.199 324.622 212.153 114.997 258.047 229.931 197.843 581.443 386.995 459.846
192.882 354.734 120.938 292.844 397.015 98.661 267.301 272.589 422.085 419.558 166.972 361.846 356.863 266.146 281.886 255.845 345.698 51.593 245.768 401.755 367.101 0.000 390.353 425.477 273.879 429.938 209.872 410.811 196.299 336.539 295.966 67.656 179.703 370.985 287.162 236.937 331.038 440.029 238.780 250.177 158.602 300.016 135.576 237.470 419.535 308.036 233.055 207.118 350.642 68.094 483.525 421.610 208.092 236.459 468.494 427.660 280.667 200.042 125.845 467.360 197.323 253.866 303.111 263.368 432.096 288.164 423.871 106.006 156.361 189.968 136.774 311.423 174.259 434.742 75.393 420.707 310.087 273.658 190.748 176.148 254.864 286.654 364.307 173.016 248.198 246.402 402.825 165.952 199.019 197.794 308.870 389.266 552.473 718.217 275.215 458.619 542.202 442.395 288.263 380.333 332.941 482.281 74.850 394.495 422.311 504.301 415.256 546.999 196.000 128.665 259.469 320.145 313.836 474.642 249.443 333.929 139.006 55.939 198.233 400.824 343.850 410.645 338.327 156.290 377.866 540.377 305.170 282.949 388.367 210.063 334.527 341.341 440.443 304.360 490.065 560.853 243.456 248.822 246.712 410.926 410.278 373.013 351.098 478.152 147.028 123.660 84.155 292.819 559.594 410.712 342.395 460.230 333.608 459.958 185.478 579.732 448.347 381.447 287.714 471.522 284.619 51.223 375.716 148.017 500.644 393.919 455.770 445.536 422.950 306.024 452.608 164.647
215.894 143.071 424.758 329.595 171.546 422.060 459.509 126.699 331.392 194.089 359.180 361.351 131.395 229.411 177.020 103.856 521.246 374.992 351.945 201.698 366.607 350.292 0.000 203.608 237.144 436.452 349.944 188.943 230.835 465.585 359.483 364.763 229.073 370.490 323.913 343.114 239.168 245.202 211.903 176.369 285.372 115.931 297.108 343.647 426.780 414.213 267.591 153.944 479.688 364.111 370.203 421.115 343.510 256.876 443.797 359.154 302.776 456.953 303.379 376.626 389.531 208.636 145.489 226.633 274.473 195.673 399.174 293.792 297.576 354.347 418.778 188.372 402.127 351.796 297.069 439.768 273.352 82.257 425.119 341.168 371.174 249.919 166.592 265.705 294.841 254.889 546.485 292.722 328.065 432.164 460.146 518.312 559.718 627.524 267.395 650.828 473.288 220.526 192.471 486.509 456.381 624.872 313.673 523.541 210.648 413.607 414.762 628.738 286.152 293.685 451.604 512.281 442.882 474.147 368.387 462.975 373.376 379.338 337.963 400.329 472.896 226.693 133.866 332.626 237.342 471.463 434.216 475.084 193.540 339.108 465.591 508.785 322.763 433.406 421.151 560.359 333.269 158.087 238.891 603.135 409.783 215.390 480.144 416.194 441.414 427.480 407.494 101.351 639.725 215.886 448.572 540.361 462.654 284.720 245.542 423.639 577.393 510.493 416.890 446.825 476.827 374.622 519.005 274.788 507.889 393.424 298.727 525.667 493.579 435.069 227.140 488.046
277.465 142.072 484.256 401.282 177.214 483.055 531.196 174.164 373.206 199.757 430.867 433.038 133.008 301.098 209.300 181.524 592.933 435.986 423.632 109.461 434.401 411.863 185.467 0.000 308.831 359.702 397.409 109.890 302.521 513.050 431.170 436.449 290.644 438.284 395.600 414.800 271.448 280.406 259.368 237.940 346.943 165.775 358.678 415.334 479.344 485.900 339.278 215.514 527.153 425.681 277.966 473.680 415.197 328.563 367.047 266.918 374.463 528.640 375.066 361.812 461.218 280.323 174.024 298.320 186.136 267.360 322.424 345.609 359.146 401.812 478.276 250.015 473.814 393.610 358.639 363.018 345.039 143.828 472.584 388.634 442.861 321.606 208.406 327.276 342.307 326.576 599.050 354.293 375.530 479.629 507.611 565.777 612.282 633.847 339.082 722.515 381.051 141.474 264.158 558.196 528.068 677.436 374.668 571.006 118.411 429.261 467.326 681.302 357.839 341.150 499.070 559.746 490.347 526.711 440.074 510.440 420.842 440.332 409.650 452.894 520.361 134.456 175.680 380.091 309.029 379.226 481.681 522.549 235.354 386.574 537.278 556.251 303.438 480.871 328.914 612.923 380.734 205.552 310.578 674.822 462.347 155.283 527.609 323.957 513.100 486.977 468.549 179.019 692.289 245.197 520.259 592.925 510.119 192.483 293.007 331.402 624.858 557.958 464.355 370.075 548.514 435.616 577.500 336.359 560.453 445.988 281.853 578.231 546.143 482.535 268.954 549.040
133.710 309.197 309.849 223.081 324.887 252.268 283.570 300.830 311.803 327.622 183.241 292.083 284.736 147.575 352.093 261.537 345.307 241.678 176.006 395.215 297.339 229.812 373.437 356.949 0.000 547.641 350.126 342.284 54.895 465.768 226.204 188.823 120.531 301.222 217.399 167.174 401.245 341.913 308.986 199.451 133.260 299.375 134.514 167.708 349.772 238.274 91.651 257.097 479.870 223.044 537.447 351.847 167.571 80.936 559.899 499.355 210.904 281.013 127.440 357.077 213.592 180.050 328.932 124.219 449.004 180.431 515.276 182.071 145.463 331.111 303.869 203.690 226.188 329.741 169.569 549.935 70.447 252.663 331.891 317.291 195.234 39.520 256.574 113.593 373.292 111.258 402.434 140.610 328.247 338.937 450.013 518.494 482.710 607.935 205.169 474.888 613.897 373.867 180.530 310.570 280.441 481.890 198.764 523.723 373.592 394.018 345.494 514.475 110.213 269.808 400.612 461.288 443.064 404.879 192.448 463.157 280.149 246.024 162.024 331.061 473.078 420.211 265.541 297.433 270.133 612.072 434.398 424.091 290.251 339.291 289.652 482.484 330.160 433.588 561.760 491.091 372.684 319.029 176.665 427.195 340.515 398.834 480.326 551.150 265.474 312.570 239.595 264.413 518.001 312.596 272.632 418.638 462.836 446.504 260.687 590.883 577.575 510.675 417.072 562.927 300.888 241.308 343.065 122.676 430.881 324.156 345.487 403.944 382.264 435.252 377.672 328.328
415.071 429.925 411.934 606.925 401.828 447.327 634.749 390.846 595.947 424.372 534.420 638.681 357.622 482.136 302.171 405.439 713.146 419.041 562.147 309.300 643.937 436.494 466.774 310.277 489.868 0.000 270.243 329.053 483.559 359.004 612.345 435.104 428.250 647.820 601.243 553.316 293.932 499.569 324.810 444.476 464.368 379.488 451.955 553.849 698.507 624.415 509.809 401.416 373.107 468.665 225.788 692.843 524.471 509.600 133.584 189.074 580.106 512.360 493.072 580.975 564.771 469.855 329.987 479.357 250.686 482.462 120.201 405.238 462.128 269.739 423.667 484.375 541.706 627.971 430.814 9.231 526.076 376.317 379.417 289.174 581.376 502.644 442.766 464.882 201.183 507.614 770.273 471.718 265.490 386.463 330.950 411.405 831.445 848.641 544.724 826.067 284.465 339.163 482.561 696.712 666.583 849.729 396.808 272.035 252.540 648.424 686.489 900.465 512.379 309.210 313.983 389.439 335.976 745.874 578.589 356.394 342.109 423.387 548.166 672.056 366.315 280.687 410.040 317.754 543.390 282.640 330.442 352.242 469.714 266.901 675.794 379.590 522.601 304.210 232.328 832.086 228.604 343.263 516.221 778.374 681.510 288.412 358.350 207.851 495.694 414.655 451.603 411.508 904.143 469.812 658.774 804.779 339.917 249.686 349.756 350.477 470.487 403.587 336.437 136.612 652.067 418.671 729.207 453.784 779.616 665.151 501.016 790.085 765.306 319.401 503.314 476.966
255.630 361.347 216.399 437.997 416.073 251.792 444.711 289.702 486.922 438.617 344.382 479.240 371.867 322.694 260.153 303.476 523.108 229.003 390.922 402.621 484.495 253.597 396.966 428.379 330.427 285.714 0.000 417.424 324.117 189.626 441.120 245.066 268.809 488.378 432.316 382.090 298.760 497.276 202.212 297.808 293.143 317.053 280.729 382.624 544.668 453.190 350.367 254.748 203.728 278.627 383.987 539.004 353.246 350.158 354.027 344.833 420.664 321.139 303.255 532.196 374.733 310.414 306.507 319.916 368.787 335.794 309.404 222.341 290.902 74.204 228.133 359.054 351.668 504.860 247.917 276.483 366.635 298.601 193.291 93.640 410.151 343.202 405.394 305.440 158.183 348.172 580.235 300.492 82.088 200.337 184.186 242.352 677.606 783.054 385.283 636.029 442.664 449.008 335.893 525.486 495.357 659.691 206.770 247.581 395.579 569.137 532.650 724.408 341.153 113.676 144.519 212.746 166.922 592.035 407.364 187.015 146.575 233.348 375.643 518.218 196.936 369.898 377.206 122.219 425.497 440.839 158.256 175.549 445.614 96.093 504.568 232.826 503.654 157.446 390.527 678.247 133.743 227.089 356.779 588.336 527.671 360.597 204.184 366.050 300.159 219.121 261.565 333.792 732.917 467.960 487.549 633.554 186.694 377.066 166.859 496.839 301.433 234.534 150.311 357.055 462.029 228.633 553.126 282.558 625.777 511.312 518.981 618.860 597.180 159.110 488.229 285.743
239.646 112.473 451.789 316.277 82.463 414.890 446.191 144.565 275.532 105.006 345.862 348.033 38.257 216.093 191.211 129.289 494.313 402.023 338.627 135.287 347.790 377.323 155.868 65.079 223.826 324.248 367.810 0.000 217.516 483.451 346.165 351.444 236.805 351.673 310.595 329.795 253.359 179.153 229.769 181.577 293.104 136.176 297.136 330.329 378.092 400.895 254.273 185.915 497.553 385.666 245.577 372.427 330.192 243.557 331.593 234.528 289.458 443.635 290.061 260.560 376.213 195.318 158.767 213.315 157.133 182.355 286.970 316.010 305.308 372.213 445.809 165.009 388.809 308.605 324.100 330.629 260.034 113.778 442.984 359.034 357.856 236.601 123.401 273.437 312.707 241.571 497.797 300.454 345.930 450.030 478.012 536.178 511.029 532.594 254.076 637.509 348.662 58.799 179.153 473.191 443.062 576.183 340.704 541.406 81.722 328.008 366.073 580.050 272.834 311.551 469.470 530.147 460.748 425.459 355.069 480.841 391.242 406.369 324.645 351.641 490.762 165.696 90.675 350.491 224.024 346.837 452.081 492.950 150.349 356.974 452.273 526.651 202.185 451.272 296.524 511.670 351.135 175.953 225.573 589.817 361.095 186.524 498.010 291.568 428.095 454.511 402.216 126.784 591.037 150.447 435.254 491.673 480.520 154.634 263.408 299.013 595.259 528.359 434.756 334.621 463.509 401.653 476.247 282.520 459.201 344.736 180.601 476.979 444.891 452.935 183.949 490.949
78.814 285.513 275.010 199.398 301.204 228.585 259.886 262.973 288.119 303.938 159.558 268.400 261.053 123.892 311.842 237.730 321.623 217.995 152.322 371.532 273.656 194.973 349.753 333.266 138.912 512.802 315.288 318.600 0.000 430.929 202.521 165.140 65.635 277.539 193.716 143.491 360.994 318.229 268.735 175.768 78.365 275.691 99.676 144.024 326.089 214.590 36.756 216.846 445.031 188.206 513.763 328.164 143.887 57.253 525.060 459.104 187.221 257.330 103.756 333.394 189.908 139.799 293.495 128.401 422.479 156.747 480.437 147.233 90.568 296.272 269.030 180.007 202.505 306.057 134.730 515.096 129.702 228.980 297.053 282.452 171.551 151.687 232.890 58.698 333.041 87.575 378.751 85.715 293.408 304.098 415.174 483.655 459.027 584.251 181.485 451.205 573.646 350.184 156.847 286.887 256.758 458.207 163.925 488.884 349.909 370.335 321.810 490.792 86.530 234.969 365.773 426.450 408.226 381.196 168.764 428.318 245.310 222.340 138.341 307.378 438.239 396.527 241.858 262.594 246.450 571.821 399.559 389.253 266.567 304.452 265.969 447.645 306.477 398.749 521.509 467.407 337.845 278.778 152.982 403.512 316.832 363.396 445.487 510.899 241.791 277.732 215.911 240.729 494.318 288.913 248.949 394.954 427.998 422.820 225.848 567.200 542.737 475.837 382.234 528.088 277.204 217.624 319.382 67.781 407.198 300.473 321.804 380.260 358.580 400.413 353.988 304.645
368.231 473.948 339.337 550.599 528.675 374.729 564.453 402.303 599.523 551.218 464.124 591.841 484.468 435.295 372.754 416.077 642.850 348.746 503.523 515.222 597.096 366.198 509.568 540.661 443.028 359.620 186.022 530.026 436.719 0.000 553.721 364.808 381.410 600.980 544.917 494.691 411.361 609.877 314.814 410.409 405.744 429.654 393.330 495.225 657.269 565.791 462.968 367.350 22.342 398.369 496.269 651.605 465.847 462.760 426.379 457.115 533.266 438.835 422.776 644.797 494.475 423.015 419.109 432.517 481.069 448.395 415.036 334.943 403.503 200.369 351.070 471.655 471.411 617.461 360.518 355.350 479.236 411.203 305.526 219.805 522.752 455.803 517.995 418.042 270.465 460.773 699.978 413.094 194.689 312.938 105.250 97.233 790.207 895.655 497.884 755.772 554.946 561.609 448.494 638.087 607.958 779.434 326.512 163.885 507.861 681.739 645.251 841.993 453.754 239.841 161.042 156.048 134.982 704.637 519.965 48.358 269.512 353.091 489.541 630.819 15.550 482.499 489.808 245.156 538.098 553.121 174.735 118.851 558.215 208.694 617.169 105.310 616.255 100.216 502.809 790.848 246.025 339.690 469.381 708.079 640.272 473.199 47.954 478.332 423.096 342.058 381.308 446.394 845.519 580.561 600.150 746.155 97.121 489.348 279.460 609.121 145.203 78.303 262.912 429.407 581.771 348.375 670.582 395.159 738.378 623.913 631.582 731.461 709.781 86.378 600.830 403.442
228.744 379.619 335.629 101.012 326.862 276.874 235.783 377.425 290.780 304.784 132.556 134.680 355.158 224.170 396.374 338.132 187.903 266.284 63.992 465.638 139.935 269.091 443.859 427.372 239.190 586.920 389.406 405.082 149.930 505.047 0.000 213.429 215.565 143.819 107.567 64.347 445.526 319.075 353.268 276.046 228.295 375.970 173.794 77.765 192.369 80.870 186.686 321.606 519.149 257.117 599.502 194.444 206.850 177.909 599.178 543.637 115.934 305.619 152.045 251.176 165.805 256.645 405.527 228.679 519.426 257.026 554.555 221.351 238.258 370.390 343.148 271.772 250.794 207.576 208.848 589.214 275.398 329.258 371.171 356.570 52.142 251.965 264.858 208.627 413.221 187.853 245.031 232.215 367.526 378.216 489.292 557.773 325.306 519.463 176.661 421.471 658.179 444.290 257.125 153.166 123.038 324.487 238.043 563.002 444.015 345.803 188.090 357.072 157.700 309.087 439.891 500.568 482.344 247.476 138.277 502.436 319.428 270.629 180.717 173.658 512.357 490.633 314.580 336.712 344.964 656.354 473.677 463.371 267.413 378.570 132.248 521.763 294.475 472.867 606.042 333.687 411.963 363.310 148.158 315.200 183.112 475.429 519.606 595.432 290.080 338.350 264.200 341.008 360.598 289.758 115.229 261.234 502.116 516.926 299.967 661.305 616.855 549.955 456.352 602.206 253.101 265.913 185.662 217.710 273.478 166.753 309.802 246.540 224.860 474.531 385.956 352.934
224.223 371.188 122.200 241.884 396.856 99.923 209.772 289.043 371.126 374.778 109.443 310.886 373.317 251.748 298.340 272.299 288.169 52.855 194.809 418.209 316.142 96.959 406.807 441.931 266.768 431.200 211.134 427.265 165.383 337.801 245.007 0.000 211.044 320.025 236.202 185.977 347.492 389.069 255.233 266.631 189.943 316.470 166.917 186.511 368.575 257.077 202.140 223.571 351.904 43.688 484.787 370.650 197.946 205.487 469.755 428.922 229.707 171.555 68.316 416.400 139.794 281.324 319.565 256.257 445.616 284.604 425.133 125.877 187.702 191.230 138.036 307.863 116.730 383.782 93.283 421.969 295.085 290.112 192.010 177.410 197.335 279.543 334.853 204.357 249.460 215.431 345.297 197.293 200.281 199.056 310.132 390.528 501.513 667.258 224.256 401.091 543.464 458.848 284.703 329.373 275.413 424.752 76.111 395.757 438.765 453.342 364.297 489.470 165.029 129.927 260.731 321.407 315.098 423.682 191.914 335.191 140.268 57.200 140.704 349.864 345.112 424.166 354.781 157.552 374.306 541.639 306.432 284.210 337.407 211.324 276.999 342.603 389.483 305.622 491.327 509.894 244.717 265.276 195.752 353.398 359.318 389.466 352.360 479.414 148.290 124.922 50.772 309.273 502.065 359.753 291.435 402.701 334.870 461.220 201.932 580.994 449.609 382.709 288.976 472.783 227.090 52.485 318.188 179.358 449.684 342.959 404.810 388.007 365.421 307.285 455.951 165.909
13.179 248.065 252.944 211.233 263.756 250.246 295.366 197.337 250.671 266.490 195.037 242.989 223.604 86.443 246.206 172.095 357.103 203.178 187.802 326.504 248.245 172.907 306.603 295.818 94.176 451.089 293.222 281.152 76.014 408.863 238.000 188.142 0.000 252.128 205.551 178.971 295.358 280.781 203.100 122.928 56.299 216.266 77.610 179.504 308.418 250.070 81.558 151.211 422.965 166.139 449.334 302.753 150.126 102.055 463.347 393.469 184.414 292.810 139.236 295.946 225.388 74.163 227.860 83.665 356.844 119.299 418.724 125.166 68.502 274.206 246.964 142.559 237.985 268.609 112.664 460.320 130.384 189.908 274.986 260.386 207.031 106.951 195.442 36.631 267.405 111.922 414.231 63.649 271.342 282.032 393.108 461.589 441.355 546.803 149.032 486.685 508.011 312.736 119.398 322.367 292.238 493.687 141.859 466.818 312.461 332.887 296.399 510.376 122.484 212.903 343.707 404.383 386.159 355.785 204.244 406.252 223.244 207.523 173.821 281.967 416.173 335.393 204.409 240.528 209.002 506.186 377.493 367.187 229.119 282.386 301.449 425.579 269.029 376.683 455.874 441.996 305.833 213.142 120.529 438.992 291.421 297.761 423.421 445.264 277.271 255.666 209.523 203.281 521.363 251.465 284.429 421.999 405.931 385.372 180.717 525.108 520.670 453.771 360.168 466.375 312.684 202.807 354.862 45.714 389.527 275.062 284.356 407.305 375.217 378.347 316.540 316.231
331.691 367.881 438.576 108.378 315.124 379.821 245.154 396.561 207.675 293.045 223.308 64.271 343.420 242.762 446.882 354.592 189.588 369.231 166.939 453.900 31.954 372.038 432.121 412.197 317.562 671.366 492.353 347.118 252.876 607.994 182.545 316.376 318.512 0.000 147.911 167.294 509.030 251.359 429.377 319.843 331.241 385.793 276.741 180.711 73.367 133.616 289.633 377.489 622.096 360.064 592.694 86.620 309.797 280.856 678.711 581.646 167.143 408.566 254.992 143.353 256.557 300.441 415.350 307.050 504.251 280.962 634.088 324.298 341.205 473.337 446.095 275.057 353.740 143.123 311.795 677.746 353.769 339.081 474.117 459.517 142.894 330.337 268.143 311.574 493.683 290.800 193.072 335.162 470.473 481.163 592.239 660.720 206.304 411.639 206.343 423.156 695.779 405.917 300.921 225.440 175.784 271.458 340.990 665.949 428.840 237.980 80.267 275.324 260.647 412.034 542.838 603.514 585.290 139.652 241.224 605.383 422.375 373.576 283.664 65.834 615.304 478.895 314.701 439.659 348.249 693.955 576.624 566.318 255.675 481.517 185.549 624.710 186.652 575.814 643.642 225.864 514.910 427.949 177.839 316.885 75.288 485.252 622.552 638.685 393.027 441.297 367.147 350.831 286.312 278.020 167.975 186.948 605.063 501.751 402.913 646.131 719.801 652.902 559.299 681.739 262.472 368.860 171.522 320.657 154.476 40.011 201.979 172.254 140.166 577.478 374.298 455.881
248.868 313.066 355.753 24.511 260.309 296.998 296.453 326.723 250.674 238.231 193.225 117.211 288.605 172.924 377.044 284.754 248.572 286.408 124.084 399.085 122.466 289.215 377.306 360.819 247.724 607.044 409.530 338.529 170.053 525.171 84.242 233.553 235.689 126.350 0.000 115.252 439.192 252.522 359.540 250.005 248.418 315.955 193.918 116.210 182.640 141.539 206.810 307.651 539.273 277.241 541.316 176.975 226.974 198.033 619.302 530.268 62.896 325.743 172.169 233.707 226.475 230.603 345.512 237.213 452.873 211.124 574.679 241.475 258.382 390.514 363.272 205.219 270.917 190.107 228.972 609.338 283.932 269.243 391.295 376.694 112.811 260.499 198.305 228.751 423.845 207.977 302.345 252.339 387.650 398.340 509.416 577.897 315.577 501.994 136.505 482.140 644.401 377.737 231.084 213.836 183.707 380.731 258.167 583.126 377.462 328.334 170.621 384.597 177.824 329.211 460.015 520.691 502.467 230.007 169.698 522.560 339.552 290.753 200.841 156.189 532.481 424.080 248.027 356.836 278.411 642.576 493.801 483.495 200.860 398.694 192.918 541.887 253.137 492.991 592.264 316.218 432.087 358.111 108.002 375.869 165.643 415.414 539.729 587.307 310.204 358.474 284.324 280.993 395.585 223.205 175.898 296.221 522.240 450.373 320.090 594.752 636.978 570.079 476.476 622.330 313.771 286.037 246.331 237.834 263.748 149.284 268.464 281.527 249.439 494.655 319.403 373.058
247.068 404.115 331.846 121.737 355.500 273.091 211.469 395.749 311.505 333.422 108.242 155.404 379.655 242.494 414.698 356.456 208.628 262.500 10.393 490.134 160.660 287.415 468.355 451.868 257.514 605.244 407.730 433.720 168.253 523.371 138.274 209.645 233.889 164.543 136.205 0.000 463.850 347.713 371.591 294.370 246.618 394.293 192.118 75.539 213.093 101.595 205.010 339.930 537.473 253.334 617.825 215.169 225.174 196.233 617.502 561.961 144.572 301.836 170.369 271.901 141.491 274.968 423.851 247.003 543.922 275.349 572.879 239.674 256.582 388.714 347.681 298.609 245.922 228.300 227.172 607.538 293.722 347.582 389.494 374.894 32.534 270.289 293.496 226.951 431.545 206.177 265.755 250.539 385.850 396.540 507.616 576.097 346.031 540.187 194.985 402.788 676.503 468.786 275.449 173.891 125.332 345.211 256.367 581.326 468.511 366.528 208.815 377.797 176.024 327.411 458.215 518.891 500.667 268.200 154.804 520.760 337.752 266.846 199.040 194.383 530.681 515.129 343.218 355.036 365.052 674.678 492.001 481.695 296.051 396.894 128.010 540.087 315.200 491.191 624.365 354.412 430.287 381.634 166.482 335.925 203.836 493.752 537.929 613.755 286.296 334.567 260.417 359.331 381.322 318.396 135.954 281.959 520.439 541.423 318.290 685.802 635.178 568.279 474.676 620.530 228.787 262.130 206.386 236.034 294.202 187.477 330.527 267.265 245.585 492.855 414.594 349.150
238.147 182.714 359.804 388.686 237.440 370.968 491.642 136.399 413.847 259.984 391.313 420.442 193.234 288.501 38.682 158.227 555.621 323.900 386.320 158.603 425.697 318.740 219.562 229.086 296.234 275.427 272.958 238.791 289.925 388.599 418.574 339.962 251.326 429.581 383.004 377.488 0.000 327.658 137.976 214.492 288.541 132.276 276.127 378.022 485.870 448.588 326.681 187.809 402.702 343.130 273.672 480.206 348.644 315.966 287.685 217.807 361.867 470.955 325.183 459.082 421.663 257.169 74.821 285.723 178.418 258.532 243.062 250.195 286.300 277.361 353.824 252.908 423.931 434.252 276.088 284.658 332.442 129.105 348.133 264.182 405.549 309.009 235.898 287.958 203.507 313.980 605.576 295.891 251.079 355.178 383.160 441.326 618.808 709.979 326.485 682.960 332.349 270.374 257.007 520.884 490.755 683.962 279.254 446.555 212.107 496.063 473.852 687.828 336.551 216.699 374.619 435.295 365.896 533.238 402.762 385.989 296.391 328.245 372.338 459.420 395.910 156.967 207.710 255.640 301.879 330.524 357.230 398.098 275.996 262.123 499.966 431.800 405.219 356.420 280.212 619.449 241.935 80.153 297.982 635.267 468.873 119.335 403.158 269.602 419.335 362.526 356.462 164.296 698.816 298.341 482.947 599.452 385.668 226.908 197.593 346.682 500.407 433.507 339.904 290.713 508.960 323.529 553.379 277.956 566.979 452.515 381.183 584.758 552.670 358.084 309.595 435.559
265.014 179.340 477.158 258.214 72.608 426.758 450.039 224.372 157.704 50.065 349.710 250.745 154.879 195.721 274.693 182.403 413.638 416.167 297.098 265.358 251.036 402.692 243.580 215.442 249.195 474.611 441.423 150.363 242.885 557.064 296.208 363.312 262.174 254.920 260.638 288.266 336.840 0.000 309.576 229.563 318.473 213.604 322.504 288.800 297.417 352.700 279.642 240.161 571.166 407.001 395.939 291.752 355.561 268.926 481.956 384.891 243.138 455.503 301.929 179.885 380.061 220.687 243.161 238.683 307.496 165.386 437.333 347.325 330.676 445.826 471.178 102.868 400.677 210.246 349.468 480.991 285.402 166.892 485.285 432.647 316.327 261.970 95.954 298.806 392.514 266.940 417.122 325.823 419.543 492.331 551.624 609.790 430.354 451.919 207.756 641.358 499.025 209.162 204.302 424.996 394.867 495.508 366.073 615.019 232.085 239.920 285.398 499.374 298.203 385.164 543.083 603.759 534.361 344.784 319.184 554.453 433.543 420.513 330.600 270.966 564.374 290.353 126.159 424.104 205.954 497.200 525.694 566.563 17.492 430.587 404.078 600.264 121.510 524.884 446.887 430.995 430.941 255.759 179.253 540.935 280.420 311.181 571.622 441.930 439.963 479.880 414.084 178.642 510.362 46.373 387.059 410.998 554.133 304.997 327.241 449.376 668.871 601.972 508.369 484.984 467.357 415.797 395.572 307.889 378.526 264.061 94.547 396.304 364.216 526.548 185.756 502.817
194.318 190.972 313.779 385.666 245.699 324.942 447.812 119.327 416.645 268.242 347.483 417.422 201.493 261.382 89.778 157.349 511.791 277.874 342.490 232.246 422.678 274.910 226.592 261.715 269.115 345.220 226.933 247.050 262.805 342.574 392.688 293.936 207.497 426.561 379.984 333.659 138.930 330.455 0.000 213.613 244.711 146.679 232.298 334.192 482.851 404.758 289.055 165.229 356.676 299.301 343.466 477.186 304.814 288.846 357.479 287.601 358.847 424.929 281.353 461.879 377.834 249.101 136.133 258.603 252.061 255.512 312.856 206.366 242.471 231.336 307.799 252.030 380.102 437.049 232.259 354.452 305.322 128.227 302.107 218.157 361.719 281.890 235.020 244.128 171.830 286.860 568.919 252.061 205.053 309.153 337.134 395.300 615.788 712.777 323.465 639.130 402.143 278.633 255.611 477.055 446.926 648.375 235.425 400.529 258.549 498.860 470.833 680.960 292.722 170.674 328.593 389.269 319.871 530.218 358.932 339.963 250.365 282.219 328.509 456.400 349.884 230.610 206.832 209.614 301.000 400.318 311.204 352.073 278.793 216.097 456.137 385.774 408.016 310.394 350.006 616.430 210.257 56.714 294.962 591.438 465.854 192.978 357.132 339.395 373.309 316.500 310.436 163.418 684.486 301.139 439.117 585.122 339.643 300.551 153.764 420.325 454.381 387.482 293.879 360.507 465.130 277.504 509.550 234.127 563.960 449.495 383.980 570.428 548.748 312.058 317.854 389.534
131.919 199.216 340.783 213.515 214.906 312.128 343.429 146.755 248.758 230.552 243.100 245.271 174.755 113.331 208.808 107.461 405.166 291.016 235.865 264.441 250.527 266.317 241.970 246.968 121.064 461.237 305.047 232.303 114.755 420.688 243.403 248.683 134.044 254.410 207.833 227.034 270.956 244.843 213.248 0.000 190.342 151.632 194.374 227.567 310.700 298.133 151.511 113.735 434.791 280.135 421.089 305.036 227.430 140.796 473.495 401.404 186.696 340.873 187.299 293.993 273.451 84.311 177.277 110.553 306.261 83.362 428.872 210.949 202.546 309.450 334.803 106.621 286.047 269.163 213.093 470.468 157.272 125.274 348.910 296.271 255.094 133.839 159.505 170.675 277.554 138.809 430.406 197.692 283.168 355.955 415.249 473.415 443.638 544.890 151.315 534.748 515.946 263.886 83.461 370.429 340.301 508.792 229.698 478.644 263.611 330.974 298.682 512.658 170.073 248.788 406.707 467.384 397.985 358.067 252.307 418.078 297.168 295.362 221.884 284.250 427.999 284.810 155.560 287.729 173.064 514.121 389.319 430.187 193.182 294.211 349.511 463.888 251.221 388.509 463.809 444.279 315.981 189.875 122.811 487.055 293.703 247.178 435.247 453.199 325.334 343.504 299.454 144.435 523.645 215.527 332.492 424.281 417.757 336.523 190.865 474.525 532.496 465.596 371.993 476.523 360.747 290.646 402.925 179.758 391.809 277.344 266.549 409.587 377.499 390.173 270.500 388.188
140.134 317.430 266.149 189.795 333.121 218.982 250.283 304.098 319.036 322.688 149.954 258.797 292.969 155.808 313.395 269.771 312.020 208.392 142.719 403.449 264.052 186.112 381.670 365.183 170.829 503.941 306.427 350.517 61.319 422.068 192.917 155.537 126.955 267.936 184.113 133.888 362.547 336.979 270.289 207.685 0.000 307.608 90.815 134.421 316.486 204.987 98.076 238.627 436.170 179.345 516.523 318.561 123.871 109.548 516.199 460.658 177.618 247.727 94.153 364.311 180.305 188.283 334.620 160.318 457.237 188.664 471.576 138.372 128.235 287.411 260.169 211.924 192.901 331.693 125.869 506.235 191.021 260.897 288.191 273.591 161.948 183.604 264.807 65.911 330.242 119.492 369.148 9.060 284.547 295.237 406.313 474.794 449.423 615.168 172.166 441.602 575.200 382.101 188.763 277.283 247.155 448.604 155.064 480.023 381.826 401.252 312.207 481.189 89.807 226.108 356.912 417.588 399.364 371.593 159.161 419.457 236.449 212.737 128.737 297.775 429.378 428.444 273.774 253.733 278.367 573.375 390.698 380.392 285.317 295.591 256.365 438.784 337.394 389.888 523.063 457.804 328.984 280.331 143.663 393.909 307.228 404.522 436.626 512.452 232.188 268.871 206.308 272.646 484.715 307.663 239.346 385.351 419.137 454.737 216.987 599.116 533.875 466.976 373.373 519.227 267.601 208.021 309.779 74.994 397.595 290.870 352.721 370.657 348.977 391.552 385.905 295.041
161.610 106.759 370.474 292.998 161.485 367.776 422.912 72.415 316.390 184.028 322.584 324.755 117.279 192.814 111.748 65.669 484.650 320.708 315.348 141.528 330.010 296.008 142.378 168.250 200.547 370.267 295.660 162.836 194.238 411.301 322.887 328.166 174.789 333.894 287.317 306.517 173.896 230.201 157.619 122.085 231.088 0.000 242.823 307.051 390.183 377.616 230.994 99.659 425.403 309.826 310.826 384.519 306.913 220.279 377.612 299.778 266.180 420.356 266.782 361.625 352.934 164.763 79.304 190.036 208.289 159.076 332.990 239.507 243.291 300.063 364.494 151.776 365.531 336.795 242.784 373.584 236.755 27.973 370.834 286.884 334.577 213.322 134.766 211.421 240.557 218.293 509.889 238.438 273.780 377.880 405.861 464.027 523.121 612.522 230.798 614.231 413.911 194.419 155.875 449.913 419.784 588.275 259.389 469.256 151.271 398.606 378.165 592.141 249.556 239.401 397.320 457.996 388.598 437.551 331.790 408.690 319.092 325.053 301.367 363.733 418.611 166.523 106.578 278.341 200.746 412.086 379.931 420.800 178.539 284.824 428.995 454.501 307.762 379.121 361.774 523.762 278.984 103.803 202.295 566.538 373.186 149.206 425.859 355.226 404.817 373.195 353.210 63.164 603.129 200.885 411.975 503.765 408.370 225.343 191.257 364.262 523.109 456.209 362.606 380.641 440.230 320.337 482.408 220.504 471.292 356.828 283.726 489.071 456.983 380.785 220.859 433.761
200.064 369.236 253.951 217.739 372.711 195.196 236.826 303.064 346.981 350.633 136.497 286.741 344.775 207.614 312.361 286.320 315.223 184.606 170.664 432.230 291.997 152.696 420.828 416.988 222.634 502.907 305.392 402.323 121.249 421.034 220.862 131.751 186.885 295.880 212.057 161.832 361.513 364.924 269.254 259.490 149.532 330.491 0.000 162.366 344.430 232.932 158.006 237.592 435.136 141.877 515.488 346.505 110.021 161.354 515.165 459.624 205.562 223.941 70.368 392.255 166.848 240.089 333.586 212.123 462.570 240.470 470.542 137.337 154.245 286.377 259.135 263.730 169.116 359.637 107.599 505.201 250.951 304.133 287.157 272.557 189.892 235.409 310.707 163.945 329.208 171.298 372.351 148.202 283.513 294.203 405.279 473.760 477.368 643.113 200.111 428.145 574.166 433.906 240.569 305.228 275.099 451.806 154.030 478.989 433.631 429.196 340.152 509.133 120.895 225.074 355.878 416.554 398.330 399.537 187.105 418.423 235.415 188.952 140.408 325.719 428.344 441.119 325.580 252.699 330.173 572.341 389.664 379.357 313.262 294.557 284.310 437.750 365.338 388.854 522.028 485.749 327.950 279.297 171.607 380.452 335.173 403.487 435.592 511.418 208.402 256.673 182.523 323.294 512.659 335.608 267.290 413.295 418.102 491.922 215.953 611.695 532.841 465.941 372.338 518.193 254.144 184.236 337.723 145.901 425.539 318.814 380.665 398.601 376.921 390.518 431.805 271.256
188.285 345.333 295.170 120.266 308.803 236.415 210.024 336.966 283.073 286.725 106.797 168.349 320.872 183.711 355.915 297.673 221.572 225.825 52.271 431.351 173.604 228.632 409.573 393.085 198.731 546.461 348.947 378.420 109.471 464.588 102.469 172.970 175.106 177.488 114.585 43.440 405.067 301.016 312.809 235.587 187.836 335.511 133.335 0.000 226.038 114.539 146.227 281.147 478.691 216.658 559.043 228.113 166.391 137.451 558.719 503.178 111.103 265.160 111.586 284.845 140.046 216.186 365.068 188.220 485.140 216.567 514.096 180.892 197.800 329.931 302.690 239.826 210.335 241.245 168.390 548.756 234.939 288.799 330.712 316.112 71.500 211.506 246.799 168.168 372.762 147.394 278.700 191.756 327.067 337.757 448.833 517.315 358.975 553.132 136.203 401.343 617.720 410.003 216.666 186.835 156.707 358.155 197.585 522.544 409.728 365.288 221.759 390.741 117.242 268.629 399.432 460.109 441.885 281.145 83.941 461.978 278.970 230.170 140.258 207.327 471.899 456.347 296.521 296.253 306.269 615.895 433.218 422.912 249.354 338.111 165.917 481.304 301.430 432.409 565.583 367.356 371.504 322.851 107.699 348.869 216.780 434.970 479.147 554.973 249.621 297.892 223.742 300.549 394.267 271.700 148.898 294.903 461.657 482.640 259.508 627.019 576.396 509.496 415.893 561.747 227.342 225.455 219.331 177.251 307.147 200.422 316.757 280.209 258.529 434.072 367.897 312.475
356.588 413.061 463.473 160.887 350.352 404.718 208.571 449.070 234.061 327.809 248.205 105.726 388.600 295.272 499.391 407.101 150.797 394.128 191.836 499.080 84.464 396.935 477.301 438.582 367.034 697.751 517.250 373.503 277.774 632.891 222.301 341.273 343.409 83.082 200.421 192.191 561.539 277.744 481.112 372.352 356.139 438.302 301.638 205.609 0.000 126.910 314.530 429.998 646.993 384.961 619.080 96.475 334.694 305.753 705.096 608.031 219.652 425.010 279.889 169.738 281.454 352.950 467.860 356.523 530.636 333.471 660.473 349.195 366.102 498.234 470.992 327.566 378.638 188.303 336.692 704.132 403.242 391.591 499.015 484.414 167.791 379.809 320.652 336.471 541.065 315.697 147.501 360.059 495.370 506.060 617.136 685.617 134.024 421.493 258.852 384.364 722.165 432.302 353.431 218.733 169.078 225.887 365.887 690.846 455.225 264.365 90.121 229.754 285.544 436.931 567.735 628.412 610.188 149.507 266.121 630.280 447.272 398.473 308.561 88.547 640.201 524.075 359.881 464.556 400.758 720.340 601.521 591.215 295.236 506.414 178.843 649.607 213.037 600.711 670.027 187.536 539.807 480.458 230.349 278.094 85.142 537.761 647.449 665.071 417.924 466.194 392.044 403.340 237.687 323.200 161.269 146.715 629.960 528.137 427.810 672.516 744.699 677.799 584.196 708.124 225.889 393.757 127.631 345.554 82.195 51.608 228.364 132.021 94.595 602.375 419.478 472.037
254.318 403.367 361.203 116.846 350.610 302.448 190.406 402.999 305.312 328.531 145.935 137.316 378.906 249.743 421.948 363.706 134.841 291.857 89.566 489.385 123.483 294.665 467.607 451.119 264.764 612.493 414.979 428.829 175.503 530.620 133.383 239.002 241.139 114.672 131.315 89.921 471.100 342.822 378.841 301.620 253.868 401.543 199.367 103.338 139.306 0.000 212.259 347.179 544.723 282.691 625.075 184.257 232.424 203.483 624.752 569.211 139.682 331.193 177.619 240.989 179.184 282.218 431.101 254.252 543.173 282.599 580.129 246.924 263.832 395.964 368.722 295.519 276.367 223.410 234.422 614.788 300.971 354.832 396.744 382.144 65.520 277.539 288.606 234.201 438.794 213.427 191.968 257.789 393.100 403.790 514.866 583.347 272.244 509.275 202.235 368.408 683.752 468.037 282.698 116.463 68.366 271.424 263.617 588.576 467.762 335.616 177.903 304.009 183.274 334.661 465.465 526.141 507.917 237.289 163.851 528.010 345.002 296.203 206.290 163.471 537.931 514.380 338.327 362.286 368.711 681.928 499.251 488.944 291.160 404.144 71.043 547.337 284.288 498.441 631.615 323.500 437.537 388.884 173.732 262.137 172.924 501.002 545.179 621.005 315.653 363.924 289.774 366.581 307.535 313.506 62.166 208.171 527.689 540.674 325.540 685.053 642.428 575.528 481.925 627.780 207.724 291.487 132.599 243.284 220.415 141.074 299.615 193.477 171.797 500.105 409.704 378.507
156.632 287.413 359.368 250.581 303.104 312.942 344.244 279.047 290.019 305.838 243.915 282.337 262.952 125.791 330.309 239.754 405.981 302.352 236.680 373.432 287.592 279.330 351.653 335.166 140.812 535.191 379.002 320.500 115.569 494.643 280.469 249.497 149.993 291.476 244.899 227.848 379.461 320.129 287.203 177.668 162.722 277.591 184.033 228.382 347.766 298.948 0.000 235.314 508.745 272.563 515.663 342.101 228.245 141.610 547.450 477.572 223.762 341.687 188.114 335.294 274.266 158.266 307.149 130.300 427.220 158.647 502.827 231.590 174.926 380.630 353.388 181.907 286.862 307.957 219.088 544.423 177.019 230.880 381.410 366.810 255.908 153.587 234.790 143.055 351.508 89.475 463.108 170.072 357.122 388.455 489.203 547.369 480.703 586.151 188.380 535.562 592.114 352.083 158.746 371.244 341.115 542.564 248.283 552.598 351.808 372.235 335.747 549.723 170.887 319.327 450.131 510.807 471.940 395.133 253.122 492.032 329.668 306.698 222.698 321.315 501.953 398.427 243.757 346.952 248.350 590.289 463.273 473.610 268.467 368.166 350.326 532.002 308.376 462.463 539.977 481.344 389.936 297.245 159.877 487.869 330.769 377.050 509.201 529.366 326.148 362.089 300.269 242.629 560.711 290.813 333.306 461.347 491.712 424.720 264.820 569.099 606.450 539.551 445.948 550.478 361.562 301.982 403.739 152.138 428.874 314.410 323.704 446.653 414.565 464.127 355.888 389.002
105.713 176.590 314.577 271.982 218.870 311.878 401.896 94.445 307.225 241.414 301.567 303.738 178.719 171.798 156.498 77.701 463.633 264.810 294.332 223.611 308.993 240.111 212.209 247.333 179.530 415.930 266.835 232.667 173.221 382.476 301.870 275.931 118.892 312.877 266.300 285.500 218.646 283.806 173.737 103.842 175.191 121.872 186.926 286.034 369.167 356.600 200.450 0.000 396.579 253.929 368.779 363.502 259.443 199.262 423.275 349.094 245.163 389.556 235.982 352.459 331.918 140.465 124.967 169.019 253.951 141.828 378.652 181.645 187.394 271.238 308.597 165.088 334.730 327.629 186.887 419.246 215.738 95.514 319.605 258.059 313.560 192.306 188.370 155.523 238.042 197.276 488.872 182.540 244.956 326.651 377.037 435.203 502.104 603.357 209.781 593.214 463.636 264.250 141.927 428.896 398.767 567.258 203.492 440.432 244.167 389.440 357.148 571.124 228.539 210.576 368.495 429.172 359.773 416.534 310.774 379.866 267.863 269.156 280.350 342.716 389.787 232.500 160.183 249.517 231.531 461.811 351.107 391.975 232.144 255.999 407.978 425.676 309.688 350.297 411.499 502.745 276.470 124.258 181.278 545.521 352.170 194.868 397.035 400.889 360.245 317.298 297.313 114.675 582.112 254.489 390.958 482.748 379.545 302.442 152.653 422.215 494.284 427.384 333.781 426.303 419.214 264.440 461.391 164.606 450.275 335.811 325.015 468.054 435.966 351.961 274.464 377.864
374.765 480.482 345.871 557.133 535.209 381.263 570.987 408.837 606.057 557.752 470.658 598.375 491.002 441.829 379.288 422.611 649.384 355.280 510.057 521.756 603.630 372.732 516.102 547.195 449.562 357.917 192.556 536.560 443.253 75.583 560.255 371.342 387.944 607.514 551.451 501.225 417.895 616.411 321.348 416.943 412.278 436.188 399.864 501.759 663.803 572.325 469.502 373.884 0.000 404.903 502.803 658.139 472.381 469.294 424.676 463.649 539.800 445.369 429.310 651.331 501.009 429.549 425.643 439.051 487.603 454.929 413.333 341.477 410.037 206.903 357.604 478.189 477.945 623.995 367.052 353.647 485.770 417.737 312.427 226.339 529.286 462.337 524.529 424.576 276.999 467.307 706.512 419.628 201.223 319.472 143.020 143.582 796.741 902.189 504.418 762.306 561.480 568.143 455.029 644.621 614.492 785.968 333.046 162.182 514.395 688.273 651.785 848.527 460.288 246.375 167.576 202.306 148.045 711.171 526.499 94.707 276.046 359.625 496.075 637.353 50.849 489.034 496.342 251.690 544.632 559.655 181.269 165.110 564.749 215.228 623.703 151.659 622.789 116.280 509.343 797.382 252.559 346.224 475.915 714.613 646.806 479.733 31.683 484.866 429.630 348.592 387.842 452.928 852.053 587.095 606.684 752.689 143.470 495.882 285.994 615.655 128.932 62.032 269.446 427.704 588.305 354.909 677.116 401.693 744.912 630.448 638.116 737.995 716.315 117.787 607.364 409.976
200.886 362.738 138.067 300.849 405.019 115.790 281.609 280.594 430.090 427.563 181.280 369.851 364.868 274.151 289.891 263.850 360.006 68.722 253.773 409.760 375.106 73.622 398.358 433.481 281.884 447.067 227.001 418.816 204.304 353.668 303.971 81.964 187.707 378.990 295.167 244.941 339.043 448.033 246.784 258.182 166.606 308.021 143.580 245.475 427.540 316.041 241.060 215.122 367.770 0.000 493.018 429.615 216.097 244.463 485.622 437.154 288.672 217.171 140.153 475.365 211.631 261.871 311.116 271.372 440.100 296.168 440.999 114.011 164.366 207.097 153.902 319.428 188.567 442.747 83.398 437.836 318.091 281.662 207.877 193.277 269.172 294.659 372.311 181.020 265.326 254.407 417.134 173.956 216.147 214.922 325.998 406.395 560.477 726.222 283.220 472.928 551.695 450.399 296.267 388.337 347.250 496.590 91.978 411.623 430.316 512.306 423.261 561.307 204.004 145.794 276.598 337.274 330.965 482.647 263.751 351.058 156.135 73.067 212.541 408.829 360.979 418.649 346.331 173.419 385.871 549.871 322.298 300.077 396.371 227.191 348.836 358.469 448.447 321.489 499.558 568.858 260.584 256.827 254.717 425.235 418.282 381.017 368.227 488.948 164.157 140.788 98.464 300.824 573.902 418.717 350.400 474.538 350.737 469.452 193.483 589.225 465.476 398.576 304.842 488.650 298.927 68.351 390.025 156.022 508.648 401.923 463.775 459.844 437.258 323.152 460.613 181.775
396.818 387.188 478.089 588.671 364.937 489.252 650.312 348.109 559.056 387.480 549.984 620.428 320.730 463.882 273.486 362.702 714.292 442.184 544.991 266.563 625.683 459.636 424.037 267.540 471.615 221.437 355.980 292.162 465.306 467.333 595.189 458.246 409.997 629.567 582.989 536.159 265.247 462.677 296.126 418.966 447.212 336.751 434.798 536.693 661.615 607.259 491.555 378.611 481.435 491.808 0.000 655.951 507.315 491.347 150.523 69.234 561.853 589.239 483.854 544.083 580.334 451.602 287.250 461.104 207.949 459.657 104.507 408.866 444.971 348.556 472.109 447.483 564.849 591.079 434.759 223.830 507.823 333.580 465.154 367.991 564.220 484.390 405.875 446.629 277.415 489.360 771.419 454.562 344.307 472.200 461.893 520.059 794.553 816.118 526.471 841.631 103.085 315.429 459.756 679.555 649.426 850.875 419.951 408.772 228.806 611.532 649.597 863.573 495.222 334.984 455.480 516.156 444.630 708.983 561.433 464.722 414.675 446.529 531.009 635.165 474.643 237.950 373.148 373.924 506.353 101.260 435.963 478.960 432.823 345.719 658.637 510.533 485.709 435.153 50.948 795.194 304.835 314.578 497.968 793.938 644.618 245.675 481.891 61.603 537.619 480.810 474.746 368.771 874.561 432.920 641.618 775.197 464.402 196.383 356.264 179.356 579.141 512.241 422.174 131.614 667.630 441.813 712.050 436.627 742.724 628.260 464.124 760.503 728.415 436.817 466.422 553.844
379.392 408.253 486.278 156.079 345.544 427.523 268.797 444.262 229.253 323.001 271.009 111.972 383.792 290.464 494.583 402.293 211.023 416.932 214.641 494.272 79.656 419.739 472.493 433.774 365.263 692.943 540.054 368.695 300.578 655.695 230.247 364.077 366.213 83.540 195.613 214.996 556.731 272.936 477.079 367.544 378.943 433.494 324.442 228.413 88.257 179.531 337.334 425.190 669.798 407.765 614.272 0.000 357.498 328.558 700.288 603.223 214.844 456.268 302.694 164.930 304.259 348.143 463.052 354.752 525.828 328.663 655.665 371.999 388.907 521.039 493.797 322.758 401.442 183.495 359.497 699.324 401.471 386.783 521.819 507.219 190.595 378.038 315.845 359.276 541.385 338.502 207.728 382.864 518.175 528.865 639.940 708.422 145.866 364.946 254.044 444.591 717.357 427.494 348.623 271.354 221.699 286.114 388.692 713.651 450.417 259.557 47.612 289.980 308.349 459.736 590.540 651.216 632.992 56.750 288.926 653.085 470.077 421.278 331.365 83.507 663.006 519.267 355.073 487.361 395.950 715.532 624.326 614.019 290.428 529.218 231.464 672.411 208.229 623.516 665.220 142.962 562.611 475.650 225.541 338.320 35.771 532.953 670.254 660.263 440.728 488.999 414.849 398.532 312.804 318.392 213.890 221.899 652.764 523.329 450.615 667.708 767.503 700.603 607.000 703.316 286.115 416.562 187.857 368.359 156.317 76.602 223.556 207.205 154.821 625.180 414.670 503.582
240.036 409.208 288.381 237.723 392.695 229.626 260.927 389.113 366.964 370.616 160.598 306.725 384.747 247.586 398.410 361.549 339.324 219.036 190.647 495.227 311.980 243.639 473.448 456.961 262.607 588.956 377.314 442.295 161.222 503.982 240.845 166.180 226.857 315.864 232.041 181.816 447.562 384.907 355.304 299.463 235.581 399.386 175.830 182.349 364.414 252.915 197.978 323.642 518.084 209.869 601.538 366.489 0.000 201.326 601.214 545.673 225.546 258.371 104.797 412.239 190.949 280.061 419.635 252.095 548.619 280.442 556.591 223.387 240.294 357.410 304.216 303.702 203.545 379.621 198.541 588.149 290.923 352.675 358.191 343.591 209.876 275.382 330.691 219.919 415.257 211.270 396.451 234.251 366.461 365.236 476.312 556.708 497.351 663.096 220.094 452.246 660.215 473.879 280.541 325.211 295.083 475.907 240.079 561.937 473.604 449.180 360.135 529.117 160.867 296.107 426.911 487.588 481.278 419.521 187.752 501.371 306.449 223.381 139.381 345.703 511.292 520.222 365.552 323.732 370.145 658.390 472.612 450.391 333.246 377.505 304.293 508.783 385.322 471.802 608.078 505.732 410.898 365.346 191.591 404.553 355.156 489.537 518.540 597.467 242.831 291.102 216.952 364.424 532.643 355.591 287.274 433.279 501.051 546.515 302.002 690.894 615.789 548.890 455.156 604.242 278.245 218.665 357.707 229.002 445.523 338.798 400.649 418.585 396.905 473.466 451.789 305.685
169.468 344.955 345.608 258.840 360.646 288.027 319.328 336.589 347.561 363.380 219.000 327.842 320.495 183.334 387.851 297.296 381.065 277.437 211.764 430.974 333.098 265.570 409.195 392.708 198.345 583.399 385.885 378.043 90.654 501.526 261.963 224.582 156.289 336.981 253.158 202.933 437.003 377.671 344.745 235.210 169.019 335.134 170.273 203.466 385.531 274.032 127.410 292.856 515.629 258.803 573.205 387.606 203.329 0.000 595.657 535.114 246.663 316.772 163.198 392.836 249.350 215.808 364.691 187.843 484.762 216.189 551.035 217.830 181.222 366.870 339.628 239.449 261.947 365.499 205.328 585.694 176.982 288.422 367.650 353.050 230.993 204.250 292.332 149.352 409.051 147.017 438.193 176.369 364.006 374.695 485.771 554.253 518.469 643.693 240.927 510.647 649.656 409.626 216.289 346.329 316.200 517.649 234.523 559.482 409.351 429.777 381.252 550.234 145.972 305.567 436.371 497.047 478.823 440.638 228.206 498.916 315.908 281.782 197.783 366.820 508.837 455.969 301.300 333.192 305.892 647.831 470.157 459.850 326.009 375.049 325.411 518.242 365.919 469.347 597.519 526.849 408.442 354.787 212.424 462.954 376.274 434.592 516.085 586.909 301.233 348.329 275.353 300.172 553.760 348.355 308.391 454.396 498.595 482.263 296.446 626.642 613.334 546.434 452.831 598.686 336.646 277.067 378.824 158.434 466.640 359.915 381.246 439.702 418.022 471.010 413.430 364.087
423.566 435.666 480.439 615.419 407.569 509.770 675.963 396.587 601.688 430.113 575.635 647.176 363.363 490.630 318.351 411.180 739.943 462.702 570.642 315.041 652.431 480.155 472.515 316.018 498.363 140.574 345.667 334.794 492.053 425.582 620.840 478.765 436.745 656.314 609.737 561.810 318.219 505.310 340.990 464.918 472.863 385.229 460.449 562.344 704.248 632.910 518.303 421.858 439.684 512.326 133.400 698.583 532.966 518.094 0.000 142.985 588.601 585.178 509.505 586.716 605.985 478.350 335.728 487.852 256.427 502.904 73.024 434.517 470.622 338.244 492.172 490.116 585.367 633.712 460.410 136.304 534.571 382.058 454.842 357.679 589.871 511.138 448.507 473.376 267.102 516.108 797.070 480.213 333.995 461.888 397.527 477.983 837.186 854.382 553.219 867.282 192.078 344.904 503.003 705.206 675.077 876.526 440.469 338.613 258.281 654.165 692.230 906.206 520.873 355.502 397.190 456.016 402.553 751.615 587.084 422.971 410.614 467.048 556.660 677.797 432.892 286.428 415.781 386.259 549.130 190.253 397.020 418.819 475.455 335.406 684.288 446.167 528.342 370.787 139.940 837.827 294.523 359.442 524.715 819.589 687.251 294.153 424.927 115.464 558.137 483.160 495.264 417.249 912.637 475.553 667.269 813.274 406.494 255.427 391.065 289.123 537.064 470.164 411.862 61.454 693.281 462.332 737.701 462.278 785.357 670.892 506.757 798.580 771.047 385.978 509.055 549.783
331.514 340.887 418.407 523.367 312.790 429.570 585.008 301.807 506.909 335.333 484.680 555.124 268.584 398.578 208.182 316.400 648.988 382.502 479.687 220.262 560.379 399.955 377.735 221.238 406.311 176.456 304.505 240.015 400.002 415.858 529.885 398.565 344.693 564.263 517.686 470.855 199.943 410.530 230.822 356.367 381.908 290.449 369.494 471.389 609.468 541.955 426.252 313.307 429.961 432.126 75.879 603.804 442.011 426.043 136.779 0.000 496.549 529.557 418.550 491.936 515.030 386.298 240.948 395.800 161.647 394.353 83.130 343.562 379.667 297.081 412.427 395.336 505.168 538.932 369.455 185.688 442.519 287.278 406.735 316.517 498.916 419.086 353.728 381.325 225.940 424.056 706.115 389.258 292.833 413.781 410.419 468.585 742.406 759.602 461.167 776.327 147.988 250.125 394.452 614.251 584.122 785.571 360.269 395.292 163.502 559.385 597.450 811.426 429.918 275.302 404.005 464.682 393.155 656.836 496.129 413.248 354.993 386.848 465.705 583.018 423.169 191.648 321.001 314.242 454.351 146.163 384.489 427.485 380.676 294.244 593.333 459.058 433.562 383.679 95.851 743.047 253.361 249.274 432.664 728.634 592.472 199.373 430.417 85.240 477.937 421.128 415.064 322.469 821.682 380.773 576.314 722.319 412.927 150.344 290.960 203.625 527.666 460.766 370.699 139.807 602.326 382.132 646.746 371.323 690.577 576.113 411.978 707.625 676.268 385.342 414.275 494.162
240.243 295.437 347.128 45.729 242.680 288.373 287.828 309.094 233.045 220.602 184.600 138.429 270.976 155.295 359.415 267.125 239.947 277.783 115.459 381.456 143.685 280.590 359.677 343.190 230.095 589.900 400.905 320.900 161.428 516.546 75.617 224.928 227.064 147.568 40.047 106.627 421.563 234.893 341.911 232.376 239.793 298.326 185.293 107.585 203.858 132.914 198.185 290.022 530.648 268.616 523.687 198.194 218.349 189.408 602.158 512.639 0.000 317.118 163.544 254.926 217.850 212.974 327.883 219.584 435.244 193.495 557.535 232.850 249.757 381.889 354.647 187.590 262.292 206.362 220.347 599.131 266.303 251.614 382.670 368.069 104.186 242.870 180.676 220.126 406.216 199.352 297.075 243.714 379.025 389.715 500.791 569.272 336.796 523.212 118.876 473.515 626.772 360.108 213.455 205.211 175.082 376.531 249.542 574.501 359.833 315.261 191.840 405.816 169.199 320.586 451.390 512.066 493.842 251.225 161.073 513.935 330.927 282.128 192.216 177.408 523.856 406.451 230.398 348.211 260.782 624.947 485.176 474.870 183.231 390.069 184.293 533.262 235.508 484.366 574.635 337.437 423.462 340.482 90.373 367.244 186.861 397.785 531.104 569.678 301.579 349.849 275.699 263.364 412.642 205.576 167.273 313.278 513.615 432.744 311.465 577.123 628.353 561.454 467.851 605.186 305.146 277.412 237.706 229.209 284.967 170.502 250.835 298.584 270.657 486.030 301.774 364.433
337.559 499.103 159.471 335.246 490.218 109.404 269.034 416.958 464.488 468.140 202.805 404.248 482.271 345.110 409.483 400.214 347.431 219.699 288.170 546.124 409.504 267.486 534.722 554.484 360.130 473.352 242.086 539.819 258.745 376.951 338.369 170.527 324.380 413.387 329.564 279.339 448.089 482.431 351.542 394.546 312.195 444.385 271.067 279.872 453.986 350.438 295.501 351.487 391.053 214.215 571.625 464.012 291.308 298.849 541.665 523.985 323.069 0.000 161.678 509.762 233.156 377.584 447.480 349.619 540.679 377.965 497.042 280.673 309.954 235.124 171.204 401.225 175.581 477.144 237.294 464.121 388.447 418.027 195.394 225.437 290.697 372.905 428.214 317.443 344.522 308.793 404.558 319.544 269.847 202.440 329.450 429.677 562.711 760.619 317.617 460.352 630.302 571.402 378.065 422.735 368.774 484.014 224.841 424.010 566.680 546.703 457.658 548.731 258.390 224.990 280.049 340.726 354.248 517.044 285.276 374.341 159.285 201.023 234.066 443.226 384.262 519.228 463.076 205.572 467.668 628.477 345.581 303.529 430.769 283.851 370.360 361.921 482.845 343.779 578.165 603.255 321.381 376.418 289.114 412.659 452.680 509.927 391.510 553.688 132.067 162.192 221.299 437.188 561.327 453.115 360.393 461.963 366.391 556.283 316.189 676.056 488.759 421.859 329.151 544.693 283.923 196.307 377.449 301.610 510.882 436.321 498.172 447.269 424.682 346.435 549.312 102.048
175.881 345.054 183.584 173.568 328.540 124.829 168.806 312.333 302.810 306.462 68.477 242.570 320.593 183.432 321.630 295.589 247.203 114.239 126.493 431.072 247.826 138.842 409.294 392.806 198.452 492.584 272.517 378.141 97.067 399.185 176.691 61.384 162.702 251.709 167.886 117.661 370.782 320.753 278.524 235.308 168.645 335.232 111.675 118.195 300.259 188.761 133.823 246.862 413.287 105.072 524.758 302.334 144.731 137.171 524.434 468.893 161.391 153.574 0.000 348.084 98.828 215.906 342.855 187.941 471.840 216.287 479.811 145.751 166.404 252.613 199.419 239.547 98.748 315.466 93.744 483.352 226.769 288.520 253.394 238.794 145.721 211.227 266.536 155.765 310.843 147.115 304.330 170.097 261.664 260.439 371.515 451.911 433.197 598.942 155.940 360.124 583.435 409.724 216.387 261.057 230.928 383.786 137.495 457.140 409.449 385.025 295.981 448.503 96.712 191.311 322.114 382.791 376.482 355.366 123.598 396.574 201.652 118.584 72.388 281.548 406.495 450.389 301.398 218.935 305.990 581.610 367.815 345.594 269.091 272.708 236.032 403.986 321.167 367.005 531.298 441.578 306.101 288.566 127.436 312.431 291.002 412.757 413.743 520.688 138.035 186.305 112.155 300.270 461.099 291.437 223.119 361.735 396.254 482.361 225.223 620.965 510.992 444.093 350.359 527.462 186.124 113.868 277.221 158.060 381.368 274.643 336.494 347.041 324.454 368.669 387.634 200.888
326.113 334.678 520.172 212.805 233.107 461.417 339.435 379.710 116.816 210.564 327.735 169.662 294.515 235.493 430.031 337.741 283.869 450.827 271.366 391.545 137.346 453.634 398.918 321.337 310.293 580.506 512.593 256.258 303.983 628.234 286.972 397.972 323.272 141.229 252.338 271.721 492.178 160.499 420.794 311.259 379.571 368.941 358.337 285.138 167.648 237.221 340.740 368.905 642.337 441.660 501.835 161.983 391.393 330.025 587.851 490.787 271.570 490.162 336.588 0.000 360.984 291.857 398.499 299.782 413.392 272.378 543.229 405.894 391.775 516.996 527.691 258.206 435.337 154.216 393.391 586.887 346.501 322.230 555.714 503.817 247.320 323.068 251.292 359.904 485.099 328.038 287.353 386.921 490.713 562.759 622.795 680.961 300.585 300.197 237.509 517.437 604.920 315.057 292.337 329.044 279.388 365.739 422.586 686.190 337.980 94.627 155.629 369.605 342.243 456.334 614.253 674.930 605.531 215.015 345.651 625.624 503.971 455.172 365.260 141.197 635.545 421.954 281.497 495.274 339.665 603.095 596.864 637.733 177.991 501.757 289.153 671.434 95.792 596.055 552.783 301.226 523.527 411.097 209.005 411.166 150.651 442.782 642.793 547.826 474.623 522.893 448.743 333.979 380.593 206.872 271.579 281.229 625.303 410.892 398.411 555.271 740.042 673.142 579.539 590.879 356.753 450.456 265.803 368.987 248.757 134.292 111.119 266.535 234.447 597.718 341.094 537.477
259.496 428.668 250.105 209.542 412.155 191.350 110.460 408.573 386.424 390.077 32.448 243.210 404.208 267.047 417.870 381.009 188.857 180.759 165.340 514.687 248.465 224.863 492.908 476.421 282.067 559.104 339.038 461.756 180.682 465.705 226.079 127.904 246.317 252.349 224.011 178.299 467.022 404.368 374.764 318.923 255.041 418.846 195.290 139.077 295.413 189.400 217.438 343.102 479.808 171.592 612.691 302.974 228.346 220.786 597.660 556.827 232.378 220.095 119.055 359.706 0.000 299.521 439.095 271.556 568.080 299.902 553.037 242.847 259.755 319.134 265.940 323.162 164.180 316.106 194.671 549.873 310.384 372.135 319.914 305.314 120.340 294.842 350.151 239.380 377.364 230.730 245.985 253.711 328.185 326.960 438.036 518.432 404.138 627.993 239.554 301.779 671.368 493.339 300.002 261.697 198.417 325.441 204.016 523.661 493.064 454.333 296.620 390.158 180.327 257.831 388.635 449.311 443.002 356.006 161.878 463.095 268.172 185.105 134.924 282.188 473.016 539.682 385.013 285.456 389.605 669.544 434.336 412.115 352.706 339.229 198.643 470.507 403.005 433.526 619.231 442.217 372.622 384.806 211.051 254.086 291.642 508.997 480.264 607.318 204.555 252.826 178.676 383.884 402.753 375.051 201.819 303.390 462.774 565.976 321.463 708.898 577.513 510.613 416.880 600.688 127.778 180.389 218.876 248.463 352.309 275.283 418.333 288.695 266.109 435.190 471.249 267.409
110.940 200.636 319.804 212.161 216.326 310.774 342.075 153.910 247.404 229.198 241.746 243.917 176.175 111.977 215.964 114.617 403.812 270.038 234.511 271.596 249.173 245.338 249.125 248.388 119.710 440.258 284.069 233.723 113.401 399.710 242.049 247.329 124.119 253.056 206.479 225.680 278.112 243.489 192.269 52.531 180.418 158.788 192.153 226.213 309.346 296.779 150.157 120.890 413.812 259.156 428.244 303.681 226.076 139.442 452.517 382.639 185.342 339.519 185.945 292.639 272.097 0.000 184.432 109.199 313.416 82.007 407.894 189.971 192.621 288.472 313.824 105.267 284.693 267.809 192.114 449.490 155.918 132.429 327.931 275.293 253.740 132.485 158.150 160.751 256.575 137.455 429.051 187.768 262.189 334.977 394.270 452.436 442.284 543.536 149.961 533.394 497.181 265.306 82.107 369.075 338.947 507.438 208.719 457.665 265.031 329.620 297.328 511.304 168.718 227.810 385.729 446.405 377.006 356.713 250.953 397.099 276.189 274.383 220.529 282.895 407.020 291.966 156.980 266.750 171.710 495.356 368.340 409.208 191.827 273.233 348.157 442.910 249.867 367.530 445.043 442.925 295.002 197.031 121.457 485.701 292.349 254.334 414.268 434.433 323.980 322.526 298.100 151.591 522.291 214.173 331.138 422.927 396.779 337.943 169.887 481.681 511.517 444.618 351.015 455.545 359.393 269.667 401.571 169.834 390.455 275.990 265.194 408.233 376.145 369.194 271.920 383.091
241.544 174.497 383.576 380.469 229.224 394.739 510.383 128.182 405.631 251.767 410.054 412.225 185.018 280.285 67.583 150.011 572.120 347.671 402.819 109.170 417.481 339.452 211.346 184.455 288.018 290.963 296.730 220.143 281.709 412.371 410.357 363.733 254.723 421.364 374.787 393.988 129.730 319.441 158.689 206.275 309.254 124.060 296.840 394.521 477.654 465.087 318.465 179.593 426.473 363.843 243.812 471.989 369.357 307.750 298.308 224.128 353.650 494.726 345.896 450.866 440.405 248.953 0.000 277.507 128.984 250.315 253.686 270.908 307.013 301.133 377.596 244.692 444.644 426.036 296.801 294.279 324.226 120.889 371.904 287.954 422.048 300.793 227.682 291.354 232.408 305.763 597.359 316.603 274.850 378.950 406.931 465.097 610.592 701.763 318.269 701.702 338.670 251.727 248.791 537.383 507.255 675.746 299.967 470.326 167.476 487.847 465.636 679.612 337.027 240.471 398.390 459.066 389.667 525.021 419.261 409.760 320.162 352.016 388.838 451.203 419.681 107.534 199.494 279.411 293.662 336.845 381.001 421.869 267.779 285.894 516.465 455.571 397.003 380.191 286.532 611.233 270.835 99.888 289.765 654.009 460.657 69.902 426.929 275.922 443.106 386.297 380.233 156.080 690.599 290.125 499.446 591.235 409.440 177.475 218.306 297.249 524.178 457.279 363.676 301.336 527.701 347.301 569.879 298.669 558.763 444.298 372.966 576.541 544.453 381.855 301.379 459.331
26.331 261.217 276.435 224.385 276.908 273.737 318.857 210.490 263.823 279.642 218.528 256.141 236.757 99.596 259.358 185.247 380.594 226.669 211.293 339.656 261.397 196.398 319.755 308.970 107.328 464.241 308.051 294.305 99.505 423.692 254.273 211.633 23.491 265.280 218.703 202.462 308.510 293.933 216.252 136.080 79.790 229.418 101.100 202.995 321.570 273.561 105.049 164.363 437.795 189.630 462.486 315.905 173.617 125.546 476.499 406.621 197.566 316.301 162.727 309.098 248.879 87.315 241.012 0.000 369.996 132.451 431.876 148.657 91.993 297.697 270.455 155.711 261.475 281.761 136.155 473.472 101.653 203.060 298.477 283.877 230.522 120.104 208.594 60.122 280.558 125.074 437.722 87.140 286.171 305.523 416.599 476.419 454.507 559.955 162.184 510.176 521.163 325.888 132.551 345.857 315.729 517.178 165.350 481.648 325.613 346.039 309.552 523.528 145.975 236.394 367.198 427.874 400.989 368.937 227.735 421.082 246.735 231.014 197.312 295.119 431.003 348.545 217.562 264.019 222.154 519.338 392.322 390.677 242.271 297.215 324.939 449.070 282.181 391.513 469.026 455.149 318.985 226.294 133.681 462.483 304.573 310.913 438.251 458.416 300.762 279.156 233.014 216.433 534.515 264.617 307.920 435.151 420.761 398.525 193.869 538.260 535.500 468.600 374.997 479.527 336.175 226.298 378.353 69.205 402.679 288.214 297.508 420.457 388.369 393.176 329.692 339.722
268.053 196.750 430.736 402.722 251.477 441.900 532.636 157.671 427.884 274.020 432.307 434.478 207.270 302.538 132.088 172.264 594.373 394.832 425.072 81.062 439.734 397.659 233.598 160.255 310.271 259.176 343.890 188.765 303.961 459.531 432.610 410.894 281.232 443.617 397.040 416.240 177.801 341.694 231.382 228.528 337.531 146.313 349.266 416.774 499.907 487.340 340.718 206.102 473.634 416.269 191.864 494.242 416.637 330.003 266.521 180.816 375.903 530.080 376.506 440.687 462.658 271.206 96.812 299.760 0.000 272.568 221.899 329.115 349.734 348.293 424.756 266.945 475.254 448.288 349.227 262.492 346.479 143.142 419.065 335.114 444.301 323.046 249.935 317.864 274.439 328.016 619.612 344.881 322.011 426.110 454.092 512.258 632.845 712.722 340.521 723.955 294.949 220.349 271.044 559.636 529.508 697.999 358.174 478.758 135.858 508.136 487.889 701.865 359.279 287.631 445.551 506.227 436.828 547.274 441.514 456.921 367.323 399.177 411.090 473.456 466.842 47.512 221.747 326.572 315.915 293.124 428.162 469.030 290.032 333.055 538.718 502.732 382.313 427.352 242.812 633.486 307.142 173.558 312.018 676.262 482.910 55.237 474.090 237.855 490.267 433.458 427.394 178.333 712.852 312.378 521.699 613.488 456.600 125.527 276.513 245.300 571.339 504.439 410.836 269.549 549.954 394.461 592.132 326.947 581.016 466.551 360.728 598.794 566.706 429.016 323.632 506.491
151.916 194.301 364.060 193.832 209.991 327.160 358.461 195.247 229.075 199.185 258.132 225.588 169.840 119.596 245.568 153.278 388.050 314.293 220.973 280.319 230.844 289.594 258.540 242.053 136.096 484.514 328.324 227.388 129.787 443.965 223.720 263.715 149.076 234.727 188.150 212.142 307.715 213.476 236.525 119.353 205.375 184.479 209.406 212.675 291.017 281.017 166.543 184.636 458.068 297.936 422.550 285.352 242.462 155.828 496.772 411.502 167.013 355.905 202.331 274.310 288.483 107.588 214.036 125.585 334.107 0.000 452.149 234.226 217.578 332.727 358.080 75.254 301.079 249.480 236.370 493.745 172.304 137.767 372.187 319.548 240.202 148.871 128.137 185.707 300.831 153.841 410.722 212.724 306.445 379.232 438.526 496.692 423.954 525.207 131.631 549.780 525.636 258.971 65.634 353.313 323.185 489.108 252.975 501.921 258.696 311.291 278.998 492.975 185.105 272.065 429.984 490.661 421.262 338.384 243.059 441.355 320.445 318.639 236.916 264.566 451.276 305.314 150.645 311.006 122.509 523.811 412.596 453.464 161.814 317.488 332.395 487.165 231.538 411.786 473.498 424.596 339.258 226.634 103.128 502.087 274.020 283.937 458.524 468.541 340.366 366.781 314.486 149.517 503.962 184.160 315.376 404.598 441.034 331.608 214.143 475.987 555.773 488.873 395.270 499.800 375.779 313.923 385.809 194.790 372.126 257.661 246.865 389.904 357.816 413.450 249.235 403.220
371.261 383.361 428.134 563.114 355.264 457.465 623.658 344.282 549.383 377.808 523.330 594.871 311.058 438.325 266.046 358.875 687.638 410.397 518.337 262.736 600.126 427.850 420.210 263.713 446.058 122.078 293.363 282.489 439.749 404.716 568.535 426.460 384.440 604.010 557.432 509.505 265.606 453.005 288.685 412.613 420.558 332.924 408.144 510.039 651.943 580.605 465.998 369.553 418.818 460.021 113.977 646.279 480.661 465.790 69.850 107.885 536.296 532.873 457.200 534.411 553.680 426.045 283.423 435.547 204.122 450.599 0.000 382.212 418.317 285.939 439.867 437.811 533.063 581.407 408.105 119.323 482.266 329.753 402.537 305.374 537.566 458.833 396.203 421.071 214.797 463.803 744.765 427.908 281.690 409.583 387.277 457.442 784.881 802.077 500.914 814.977 172.654 292.599 450.698 652.901 622.772 824.221 388.164 328.363 205.976 601.860 639.925 853.901 468.568 303.197 386.940 445.766 382.012 699.310 534.779 402.105 358.309 414.743 504.355 625.493 412.026 234.123 363.476 333.954 496.826 170.829 373.346 408.570 423.150 283.101 631.983 435.917 476.037 360.537 120.516 785.522 242.218 307.137 472.410 767.284 634.946 241.848 414.677 96.040 505.832 430.855 442.959 364.944 860.332 423.248 614.964 760.969 396.244 203.122 338.760 269.288 516.523 449.624 359.557 72.878 640.976 410.027 685.396 409.973 733.052 618.587 454.452 746.275 718.742 374.200 456.750 497.478
148.125 292.772 165.653 277.162 335.053 162.955 317.090 210.627 379.416 357.596 216.761 346.164 294.902 215.189 219.925 193.884 395.487 115.887 230.086 339.794 351.419 94.053 328.392 363.515 222.922 410.113 201.073 348.850 170.004 316.714 280.284 131.949 152.196 355.303 271.480 221.255 269.077 387.684 176.818 188.216 132.307 238.055 119.893 221.788 403.853 292.354 206.760 145.156 330.816 144.887 423.052 405.928 192.410 218.233 422.728 367.187 264.985 264.336 150.631 424.691 247.112 202.908 241.150 212.410 370.134 226.202 378.106 0.000 130.066 182.057 159.673 249.462 238.552 397.354 88.374 400.881 259.129 211.696 182.838 168.237 249.315 235.697 302.345 146.721 228.372 228.177 452.614 139.657 179.193 189.883 300.959 369.440 536.790 675.548 259.533 508.408 481.729 380.433 226.301 364.650 334.522 532.070 54.568 374.669 360.349 461.632 399.574 568.556 180.317 120.754 251.558 312.235 294.011 458.960 246.528 314.103 131.095 120.232 216.104 385.142 324.024 348.683 276.365 148.379 315.905 479.904 285.344 275.038 336.022 190.237 343.732 333.430 394.062 284.534 429.592 545.171 223.630 186.861 231.030 460.715 394.595 311.051 331.272 418.982 211.322 168.375 148.449 230.858 572.082 358.368 326.713 472.718 313.783 399.485 123.517 519.259 428.521 361.622 268.019 425.757 334.408 115.516 397.146 121.723 484.962 378.237 409.389 458.024 436.344 286.198 390.647 228.940
74.155 309.041 228.378 255.496 324.732 225.680 315.984 249.858 311.647 327.466 215.655 303.965 284.580 147.419 259.155 233.071 377.721 178.612 208.420 379.024 309.220 153.912 367.579 356.794 155.152 449.701 268.656 342.128 123.576 384.297 258.618 189.733 60.976 313.104 249.814 199.589 308.307 341.757 216.049 183.904 85.879 277.242 98.228 200.122 369.393 270.688 142.534 184.387 398.399 167.730 462.283 363.729 170.744 163.031 461.959 406.418 243.319 303.357 149.783 356.922 246.006 135.139 280.380 144.641 409.365 180.275 417.336 100.601 0.000 249.640 222.398 203.535 248.532 329.585 100.688 458.932 191.360 250.883 250.420 235.820 227.649 167.927 256.418 97.607 276.002 172.897 434.849 93.229 246.776 257.466 368.542 437.023 502.331 607.779 210.008 507.303 520.960 373.711 180.374 342.985 312.856 514.305 117.293 442.252 373.436 393.863 357.375 546.890 152.064 188.337 319.141 379.817 361.593 416.761 224.862 381.686 198.678 182.957 194.439 342.943 391.607 387.914 265.385 215.962 269.978 519.135 352.927 342.621 290.095 257.820 322.067 401.013 330.004 352.117 468.823 502.972 291.213 226.091 181.505 459.610 352.396 350.282 398.855 458.213 274.047 231.100 211.114 264.257 550.416 312.441 305.047 451.052 381.365 438.716 162.748 558.490 496.104 429.205 335.602 464.987 333.302 178.242 375.480 75.294 450.502 336.038 345.332 436.358 414.678 353.781 377.516 291.665
252.121 357.838 174.086 421.180 412.565 209.478 406.116 286.193 483.413 435.108 305.787 475.731 368.359 319.185 256.644 299.967 484.513 190.408 374.104 399.112 480.986 236.779 393.458 417.958 326.918 279.465 51.794 413.916 314.022 187.539 424.302 206.471 265.300 484.870 415.498 365.272 295.251 493.767 198.704 294.299 276.325 313.545 263.911 365.806 541.160 436.372 346.859 251.240 201.642 240.032 373.567 535.495 336.428 346.650 345.971 334.413 409.003 278.825 264.660 528.688 336.138 306.905 302.999 316.407 358.367 332.286 301.348 205.524 274.084 0.000 185.819 355.545 313.074 501.351 231.099 270.234 363.126 295.093 153.306 55.045 393.333 339.693 401.886 290.738 147.762 344.664 541.640 283.675 80.002 160.351 182.100 240.266 674.097 779.545 381.774 597.435 432.244 445.499 332.385 508.668 471.757 621.096 168.175 245.495 385.159 565.629 529.141 685.814 324.335 75.081 138.815 199.491 164.836 588.527 388.258 184.929 104.261 194.754 337.048 514.709 194.850 366.390 373.698 79.905 421.988 430.419 156.170 162.294 442.106 94.006 473.343 220.686 500.145 155.360 380.107 674.738 123.323 223.580 353.271 549.742 524.163 357.089 202.098 355.630 257.845 176.807 222.971 330.284 698.409 464.451 470.731 599.045 184.608 366.645 163.351 486.419 299.347 232.447 129.636 348.999 423.434 190.038 514.531 265.740 622.269 507.804 515.473 584.351 561.765 157.024 484.720 243.430
246.750 391.398 66.664 340.452 433.678 90.571 308.340 309.253 469.694 456.222 208.011 409.454 393.527 313.814 318.550 292.509 386.737 48.495 293.377 438.419 414.710 166.375 427.017 462.141 321.547 435.310 206.926 447.475 263.951 341.791 343.575 108.695 253.463 418.593 334.771 284.545 365.150 486.309 268.603 286.841 233.575 336.680 221.161 285.079 467.143 355.645 300.708 243.781 355.893 142.256 496.910 469.219 293.678 304.056 481.879 441.046 328.276 191.952 166.884 514.968 238.362 301.534 339.775 311.036 457.740 324.827 437.256 146.841 231.334 191.454 0.000 348.087 215.298 482.350 167.922 426.079 357.755 310.322 169.195 161.320 295.903 334.322 400.970 247.988 261.583 313.999 443.865 240.925 212.404 176.241 294.034 394.518 600.081 765.826 322.824 499.659 555.588 479.058 324.926 427.941 373.981 523.321 89.255 388.594 458.975 551.910 462.865 588.038 263.597 142.050 244.633 305.310 319.088 522.250 290.482 339.181 117.453 52.590 239.272 448.433 349.102 436.289 374.991 141.454 414.530 553.763 310.421 268.113 434.647 223.448 375.567 326.505 488.051 308.363 503.450 608.462 256.841 285.486 294.320 451.966 457.886 409.676 356.350 491.538 138.938 69.386 125.195 329.483 600.633 456.993 390.004 501.269 330.975 473.344 222.142 593.117 453.599 386.699 285.481 484.907 325.658 47.874 416.756 222.990 548.252 441.527 503.379 486.575 463.989 311.275 489.272 156.557
167.258 168.477 379.401 197.957 138.319 342.502 373.803 181.301 224.412 123.931 273.474 229.713 144.017 123.721 231.622 139.332 392.175 329.635 225.098 254.496 234.969 304.935 232.717 216.230 151.438 475.399 343.666 201.564 145.128 459.307 227.845 279.056 164.417 238.852 192.275 216.267 293.770 138.222 251.867 142.332 220.716 170.533 224.748 216.800 295.142 285.142 181.885 197.090 473.409 313.277 396.727 289.477 257.804 171.169 482.744 385.679 171.138 371.247 217.673 269.647 303.825 122.930 200.090 140.926 308.284 62.519 438.121 249.568 232.919 348.069 373.421 0.000 316.421 244.817 251.711 481.779 187.645 123.821 387.528 334.890 244.327 164.213 52.883 201.049 316.172 169.183 414.847 228.066 321.786 394.574 453.867 512.033 428.079 520.544 135.756 565.121 499.812 233.148 101.435 357.438 327.310 493.233 268.316 517.262 232.873 306.628 283.124 497.100 200.446 287.407 445.326 506.002 436.604 342.509 247.184 456.696 335.786 333.980 252.257 268.691 466.617 279.491 102.605 326.347 103.086 497.988 427.937 468.806 86.560 332.830 336.520 502.507 215.784 427.127 447.675 428.721 354.600 212.689 107.253 517.428 278.145 269.992 473.866 442.718 355.707 382.123 329.828 135.571 508.087 108.906 319.501 408.723 456.376 305.785 229.484 450.164 571.115 504.215 410.612 485.772 391.121 329.265 389.934 210.132 376.251 261.786 191.747 394.029 361.941 428.791 173.981 418.561
277.616 446.788 200.984 275.303 430.275 133.980 243.190 395.939 404.544 408.196 142.862 344.305 422.327 285.166 405.237 379.196 321.587 163.439 228.227 525.106 349.560 207.543 511.028 494.541 300.187 541.784 321.718 479.875 198.802 448.385 278.425 110.584 264.437 353.444 269.621 219.396 454.389 422.487 362.130 337.043 252.251 423.367 211.124 219.929 401.994 290.495 235.558 330.468 462.488 154.272 595.371 404.069 231.365 238.906 580.339 539.506 263.126 162.725 101.735 449.819 173.212 317.641 426.462 289.675 555.446 318.022 535.717 229.357 250.011 301.814 216.820 341.282 0.000 417.201 177.351 532.553 328.503 390.255 292.890 287.994 230.754 312.962 368.271 257.499 360.043 248.850 378.715 259.601 310.864 299.935 419.566 501.112 534.931 700.676 257.674 434.509 654.048 511.458 318.121 362.791 308.831 458.171 186.695 506.341 511.183 486.760 397.715 522.888 198.447 240.511 370.165 430.842 425.682 457.101 225.332 445.775 241.148 167.784 174.122 383.283 455.696 533.995 403.132 268.136 407.725 652.223 417.015 393.645 370.825 321.908 310.417 452.037 422.902 416.206 601.911 543.312 355.301 372.173 229.171 386.816 392.736 496.363 462.944 589.998 147.185 203.706 161.355 402.004 535.483 393.171 324.854 436.120 445.454 571.804 308.829 691.578 560.193 493.293 399.560 583.367 260.508 163.069 351.606 241.667 483.103 376.378 438.229 421.426 398.839 417.869 489.369 210.039
308.998 317.284 467.693 158.418 264.526 408.938 358.171 362.316 175.730 242.448 286.665 133.024 292.823 218.379 412.636 320.346 302.605 398.348 230.297 403.302 133.316 401.155 381.523 365.036 293.178 624.205 495.199 342.746 281.994 610.840 238.530 345.493 306.158 137.199 197.952 230.652 474.784 224.550 403.400 293.865 360.359 351.547 305.858 244.069 186.384 234.979 318.750 351.511 624.942 389.181 545.533 180.719 338.914 309.973 631.550 534.485 194.963 437.683 284.109 140.350 319.915 274.463 381.105 282.667 457.090 254.984 586.927 353.415 370.322 499.602 475.212 240.811 382.858 0.000 340.912 630.585 329.386 304.836 503.235 486.423 206.251 305.953 233.898 340.691 467.705 310.924 306.089 364.279 473.319 510.280 605.400 663.567 319.322 440.546 185.030 536.173 648.619 381.954 274.943 307.276 277.147 384.476 370.107 668.795 381.679 234.977 174.366 388.342 289.764 438.940 571.955 632.632 588.137 233.751 301.364 608.230 451.492 402.693 312.781 159.933 618.151 428.297 264.103 468.776 322.271 646.794 579.470 595.435 205.077 484.363 286.358 653.827 183.649 578.660 596.481 319.963 506.133 393.703 156.526 429.902 169.387 449.125 625.399 591.524 422.144 470.414 396.264 316.585 399.329 227.423 269.338 299.965 607.909 454.591 381.017 598.970 722.648 655.748 562.145 634.578 375.489 397.977 284.540 349.774 267.493 153.028 198.976 285.271 253.183 580.324 323.700 484.998
155.554 335.558 183.089 230.932 377.839 160.811 228.716 253.414 360.173 363.825 128.387 299.934 337.688 220.807 262.711 236.670 307.113 113.743 183.856 382.580 305.189 79.095 371.178 406.301 235.827 453.256 254.886 391.636 134.442 370.527 234.054 90.279 142.375 309.073 225.250 175.025 311.863 378.116 219.604 231.002 109.725 280.841 73.663 175.558 357.623 246.124 171.198 187.942 384.630 68.276 465.838 359.698 146.180 174.546 465.515 409.974 218.755 215.832 62.258 405.448 158.738 216.538 283.936 225.316 412.920 253.663 420.892 86.831 107.485 235.870 192.091 276.922 161.006 372.830 0.000 454.695 264.144 254.482 236.651 222.051 203.085 248.602 323.900 124.139 279.557 184.490 364.241 117.075 233.006 243.696 354.772 423.254 490.560 656.305 213.303 420.035 524.515 423.219 253.762 318.420 288.292 443.697 95.787 428.483 403.136 442.389 353.344 508.414 134.087 174.568 305.371 366.048 347.824 412.730 183.508 367.917 184.909 118.089 132.298 338.912 377.838 391.469 319.151 202.192 343.365 522.691 339.157 328.851 326.455 244.050 295.943 387.243 378.531 338.348 472.378 498.941 277.443 229.647 184.800 372.342 348.366 353.837 385.086 461.768 200.292 185.810 111.660 273.644 521.009 348.800 280.483 421.645 367.596 442.271 166.303 562.045 482.335 415.435 321.832 468.543 246.034 113.373 337.132 99.141 438.732 332.007 393.858 406.951 384.365 340.011 433.433 226.797
405.840 426.381 402.703 597.694 404.129 438.095 625.518 387.302 598.248 426.672 525.189 629.450 359.923 472.904 292.940 401.895 703.915 409.810 552.916 305.756 634.705 427.262 463.229 306.732 480.637 9.231 261.011 331.354 474.328 354.734 603.114 425.872 419.019 638.589 592.012 544.085 284.700 501.869 315.579 435.244 455.137 375.943 442.723 544.618 694.879 615.184 500.578 392.185 368.837 459.434 231.947 689.214 515.240 500.369 129.314 198.305 570.875 503.129 483.840 583.276 555.539 460.624 326.442 470.126 247.141 473.231 117.970 396.007 452.896 260.507 414.436 486.675 532.475 630.271 421.583 0.000 516.845 372.773 370.186 279.943 572.145 493.412 445.067 455.651 191.952 498.383 761.042 462.487 256.259 377.231 326.680 407.135 827.816 855.311 535.493 816.836 290.624 348.394 473.330 687.480 657.352 840.498 387.577 267.765 261.772 650.725 682.860 891.386 503.147 299.979 304.752 385.169 331.706 742.246 569.358 352.124 332.878 414.155 538.935 668.428 362.045 277.143 412.341 308.522 545.546 288.799 323.920 347.972 472.015 257.670 666.562 375.320 524.902 299.940 238.487 828.457 219.373 334.031 506.990 769.143 677.882 284.867 354.080 214.010 486.462 405.424 442.372 407.964 894.912 472.112 649.543 795.548 335.647 255.419 340.525 359.708 466.216 399.317 327.206 132.342 642.836 409.439 719.976 444.553 775.987 661.523 503.317 780.854 759.174 315.131 505.615 467.735
125.177 348.987 349.640 262.872 364.678 292.059 323.360 309.336 351.593 367.412 223.032 331.874 324.526 187.366 358.205 284.093 385.097 281.469 215.796 435.006 337.130 269.602 413.227 396.740 70.447 563.087 389.917 382.074 94.686 505.558 265.994 228.614 111.998 341.013 257.190 206.965 407.357 381.703 315.098 234.926 159.487 328.264 174.305 207.498 389.563 278.064 131.442 263.209 519.661 262.835 561.332 391.638 207.361 120.727 575.345 505.468 250.695 320.804 167.230 396.868 253.382 186.162 339.858 151.540 468.842 220.221 530.722 221.862 171.691 370.902 343.660 243.481 265.979 369.531 209.360 572.318 0.000 292.454 371.682 357.082 235.025 76.352 296.364 139.820 379.404 151.049 442.225 166.837 368.038 378.727 489.803 558.285 522.501 647.725 244.959 514.679 620.009 413.658 220.321 350.361 320.232 521.681 238.555 563.514 413.383 433.809 385.284 554.266 150.004 309.599 440.403 501.079 482.855 444.670 232.238 502.948 319.940 285.814 201.815 370.852 512.869 447.392 305.332 337.224 309.924 618.185 474.188 463.882 330.041 379.081 329.443 522.274 369.951 473.379 567.872 530.881 412.474 325.141 216.456 466.986 380.306 409.760 520.117 557.262 305.265 352.361 279.385 304.203 557.792 352.387 312.423 458.428 502.627 486.294 292.716 630.673 617.366 550.466 456.863 578.373 340.678 281.098 382.856 148.903 470.672 363.947 385.278 443.734 422.054 475.042 417.462 368.119
146.675 101.429 355.539 266.276 138.543 352.841 396.190 57.480 289.668 161.087 295.862 298.033 98.392 166.092 107.801 38.947 457.928 305.773 288.627 159.520 303.288 281.073 137.049 170.605 173.825 367.232 280.725 155.940 167.516 396.366 296.165 301.444 159.854 307.172 260.595 279.795 169.949 203.479 142.684 107.150 216.153 46.712 227.888 280.329 363.461 350.894 204.272 84.724 410.468 294.891 320.081 357.797 280.192 193.557 374.577 300.397 239.458 393.634 240.060 334.903 326.212 145.318 76.269 163.314 205.253 132.354 329.955 224.572 228.356 285.128 349.559 125.054 338.809 310.073 227.849 370.548 210.033 0.000 355.899 271.949 307.855 186.600 108.044 196.485 225.622 191.571 483.167 223.503 258.845 362.945 390.926 449.092 496.399 585.800 204.076 587.509 414.939 187.523 129.153 423.191 393.062 561.553 244.454 454.321 169.006 371.884 351.443 565.419 222.834 224.466 382.385 443.061 373.662 410.829 305.068 393.755 304.157 310.118 274.645 337.011 403.676 183.803 79.856 263.406 174.024 413.114 364.996 405.864 151.817 269.889 402.273 439.566 281.040 364.186 362.801 497.040 264.049 88.868 175.573 539.816 346.464 146.171 410.924 352.191 378.095 358.260 338.275 36.442 576.407 174.163 385.253 477.043 393.434 243.079 176.322 373.517 508.173 441.274 347.671 377.605 413.509 305.402 455.686 205.568 444.570 330.106 257.004 462.349 430.261 365.850 194.137 418.826
385.022 517.350 214.267 526.896 571.950 249.660 461.417 445.705 616.313 594.493 395.189 595.898 527.870 452.086 416.156 430.781 539.814 274.495 479.820 558.624 601.153 342.495 552.969 584.261 459.819 441.597 210.330 573.427 419.738 274.649 530.018 312.187 398.201 605.037 521.214 470.988 454.763 624.581 358.215 425.113 382.041 473.056 369.627 471.522 646.370 542.088 456.494 382.053 288.751 345.748 539.869 655.662 442.144 467.967 509.909 500.715 514.719 306.417 354.061 661.588 425.539 439.805 462.510 449.307 524.670 463.099 465.286 311.240 379.800 211.134 226.000 486.359 367.964 634.251 336.815 432.365 496.026 448.593 0.000 218.986 483.081 472.594 539.242 396.455 314.065 477.564 596.942 389.391 238.091 98.338 205.951 322.145 755.094 912.445 509.267 652.736 598.546 605.011 463.198 614.384 561.158 676.397 273.891 301.771 551.461 698.529 649.308 741.115 430.051 240.767 187.594 217.226 246.715 708.694 477.659 272.038 189.852 255.818 426.449 634.876 281.959 525.901 513.262 201.827 552.802 596.721 243.279 180.030 572.919 252.096 562.744 238.422 630.959 220.280 546.409 794.905 289.625 383.092 480.764 605.043 644.329 516.600 283.977 521.932 298.027 216.988 328.687 467.755 753.710 595.265 552.776 654.346 242.892 532.948 322.862 652.721 381.226 314.326 305.161 512.937 476.307 251.103 569.833 371.456 703.266 627.970 646.286 639.652 617.066 232.148 627.544 271.023
235.657 341.374 150.511 387.321 396.100 185.904 372.257 269.728 466.948 418.644 271.928 456.323 351.894 302.721 240.180 283.503 450.654 156.549 340.245 382.648 461.578 202.920 376.993 412.117 310.454 297.097 69.426 397.451 280.163 205.171 390.443 172.612 248.836 465.462 381.639 331.413 278.786 477.303 182.239 277.835 242.466 297.080 230.052 331.947 514.012 402.513 316.919 234.775 219.273 206.173 391.198 516.087 302.569 328.392 363.603 352.044 375.144 261.662 230.801 512.223 302.279 290.440 286.534 299.942 371.376 315.821 318.980 171.665 240.225 49.522 144.531 339.081 279.215 484.887 197.240 287.865 346.661 278.628 138.840 0.000 359.474 323.229 385.421 256.880 165.394 328.199 507.782 249.816 97.633 145.885 187.780 257.898 646.949 763.080 365.310 563.576 449.875 429.034 315.920 474.809 437.898 587.237 134.316 263.126 402.791 549.164 509.733 651.955 290.476 58.616 138.380 199.056 182.468 569.119 354.399 202.561 87.098 160.895 303.189 495.301 212.482 349.925 357.233 35.860 405.524 448.051 173.801 161.859 425.641 111.638 439.484 220.251 483.681 172.992 397.738 655.330 140.954 207.115 336.806 515.883 504.754 340.624 219.730 373.261 234.271 153.233 189.112 313.819 664.550 447.987 436.872 565.186 202.240 384.277 146.886 504.050 316.979 250.079 147.268 366.631 389.575 156.179 480.673 231.881 595.120 488.395 499.008 550.492 527.906 174.655 468.256 226.266
222.356 375.723 320.266 89.203 322.966 261.511 199.890 371.037 278.971 300.887 96.663 122.870 351.262 217.781 389.986 331.744 176.094 250.921 45.000 461.742 128.126 262.703 439.963 423.476 232.802 580.532 383.017 401.186 143.541 498.659 105.740 198.066 209.177 132.009 103.671 57.959 439.138 315.178 346.879 269.658 221.906 369.581 167.406 71.376 180.559 69.061 180.298 315.218 512.761 241.754 593.113 182.634 200.462 171.521 592.790 537.249 112.038 290.256 145.657 239.367 129.912 250.256 399.139 222.291 515.530 250.637 548.167 214.962 231.870 364.002 336.102 267.876 234.342 195.766 202.460 582.826 269.010 322.870 364.782 350.182 0.000 245.577 260.962 202.239 406.833 181.465 233.221 225.827 361.138 371.828 482.904 551.385 313.497 507.653 170.273 391.208 651.791 440.393 250.736 141.357 111.228 312.677 231.655 556.614 440.118 333.994 176.281 345.262 151.312 302.699 433.503 494.179 475.955 235.666 131.889 496.048 313.040 255.266 174.328 161.848 505.969 486.737 310.684 330.324 340.340 649.966 467.289 456.983 263.517 372.182 116.430 515.375 282.666 466.479 599.653 321.878 405.575 356.922 141.770 303.391 171.302 469.040 513.217 589.043 274.717 322.988 248.838 334.619 348.788 285.862 103.419 249.425 495.727 513.030 293.578 657.409 610.466 543.566 449.963 595.818 217.208 250.551 173.852 211.322 261.668 154.943 297.993 234.731 213.051 468.143 382.060 337.571
109.962 309.711 340.917 262.601 325.402 291.788 323.090 294.120 312.317 328.136 222.761 304.635 285.250 148.089 342.989 262.051 384.827 281.198 215.526 395.730 309.890 260.880 373.951 357.464 39.520 547.871 381.194 342.798 94.415 496.835 265.724 228.343 96.783 313.774 256.919 206.694 392.141 342.427 299.882 199.965 144.272 299.889 165.582 207.228 370.063 277.794 131.171 247.994 510.938 254.112 537.961 364.399 207.091 120.456 560.129 490.252 246.060 320.533 166.959 357.591 253.111 170.946 324.642 88.386 449.518 180.945 515.507 213.139 156.475 362.179 334.937 204.205 265.708 330.255 200.637 557.102 76.352 253.177 362.959 348.359 234.754 0.000 257.088 124.604 364.188 150.778 441.954 151.621 359.315 370.005 481.081 549.562 503.001 608.449 210.678 514.408 604.794 374.381 181.044 350.090 319.961 521.410 229.832 554.791 374.106 394.533 358.045 553.995 149.733 300.876 431.680 492.356 474.132 417.431 231.967 494.225 311.217 285.543 201.544 343.613 504.146 420.725 266.055 328.501 270.648 602.969 465.466 455.159 290.765 370.359 329.172 513.552 330.674 464.656 552.656 503.642 402.615 309.925 182.174 466.715 353.066 394.544 511.394 542.046 304.994 343.638 279.115 264.927 557.521 313.111 312.152 458.157 493.904 447.018 277.500 591.397 608.643 541.743 448.140 563.158 340.408 280.828 382.585 133.687 451.172 336.707 346.001 443.463 421.783 466.320 378.186 367.848
260.372 152.075 472.516 286.315 100.290 435.616 466.918 197.112 237.810 103.628 366.589 293.726 127.615 220.539 247.433 155.143 468.295 422.750 321.916 238.094 298.982 398.050 216.315 199.828 244.552 458.997 420.357 184.576 238.243 535.998 324.309 372.171 257.532 302.865 288.739 313.084 309.581 151.620 282.316 202.304 313.831 186.344 317.862 313.618 352.073 381.606 274.999 212.902 550.101 406.392 380.325 346.409 350.919 264.284 466.342 369.277 267.956 464.361 310.787 283.045 396.939 216.045 215.902 234.041 291.882 159.336 421.719 342.683 326.034 424.760 466.536 96.818 409.536 258.215 344.826 465.377 280.760 139.633 480.643 411.581 341.145 257.327 0.000 294.163 365.255 262.298 471.779 321.181 398.478 487.689 530.559 588.725 485.011 533.942 232.574 658.236 483.410 216.746 198.252 453.902 423.773 550.165 361.431 593.954 216.471 320.026 340.055 554.031 293.561 364.098 522.018 582.694 513.295 399.440 344.002 533.388 428.901 427.095 345.372 325.623 543.309 263.089 92.716 403.039 187.016 481.586 504.629 545.497 99.958 409.522 432.984 579.199 229.182 503.819 431.273 485.652 403.682 228.500 204.071 595.592 335.076 283.916 550.557 426.316 448.822 475.237 422.943 151.382 565.018 122.304 415.965 465.655 533.067 289.383 315.955 433.762 647.806 580.906 487.303 469.370 484.236 422.379 450.229 303.246 433.182 318.717 205.145 450.961 418.872 505.483 158.492 511.676
93.078 313.476 216.313 198.247 329.166 213.614 258.735 254.261 316.081 331.140 158.406 267.249 289.015 151.854 263.559 237.518 320.472 166.546 151.171 383.428 272.504 136.275 372.026 361.228 166.874 454.104 256.590 346.563 57.364 372.231 201.369 151.510 79.899 276.387 192.565 142.339 312.710 345.431 220.452 202.827 19.667 281.688 40.978 142.873 324.937 213.439 94.121 188.790 386.334 129.508 466.686 327.013 113.495 105.593 466.362 410.821 186.070 256.179 102.605 361.356 188.757 154.062 284.783 156.363 413.768 184.710 421.740 88.535 62.324 237.575 210.333 207.969 201.353 334.020 76.033 456.399 187.066 255.330 238.355 223.755 170.400 179.649 260.853 0.000 280.405 115.537 377.599 27.017 234.710 245.400 356.476 424.958 457.875 612.213 180.618 450.053 525.363 378.146 184.809 285.735 255.606 457.055 105.228 430.187 377.871 398.297 320.659 489.641 85.852 176.272 307.076 367.752 349.528 380.044 167.613 369.621 186.613 170.892 137.189 306.227 379.542 392.317 269.820 203.897 274.412 523.538 340.861 330.555 293.769 245.754 264.817 388.947 334.439 340.052 473.226 466.256 279.147 230.494 152.114 402.360 315.680 354.685 386.790 462.616 240.639 219.034 172.892 268.692 493.166 316.115 247.798 393.803 369.300 443.119 167.151 562.893 484.039 417.139 323.536 469.390 276.053 166.176 318.230 9.083 406.046 299.321 349.766 379.109 357.429 341.715 381.951 279.600
224.935 294.314 272.277 416.788 349.041 283.440 452.080 222.669 453.705 371.584 351.751 448.544 304.835 291.999 193.120 255.990 530.477 236.372 372.011 312.530 453.800 253.825 329.934 335.876 299.732 207.792 140.753 350.392 293.422 252.106 422.209 252.435 238.114 457.683 411.106 363.179 218.189 433.797 135.180 250.322 274.232 250.021 261.818 363.713 513.973 434.279 319.672 207.262 266.208 285.996 291.484 508.308 334.335 319.463 263.888 252.330 389.969 380.263 310.403 498.939 382.102 279.718 239.475 289.220 276.284 288.308 219.266 222.569 271.991 133.329 266.297 311.568 359.038 474.109 248.145 198.560 335.939 231.569 249.927 152.764 391.239 312.507 338.362 274.745 0.000 317.477 587.604 281.581 106.040 256.973 246.666 304.832 646.911 749.837 354.588 643.399 350.161 381.975 288.407 506.575 476.446 667.060 214.139 286.123 303.076 535.920 501.955 710.480 322.242 129.172 240.253 300.929 229.403 561.340 388.453 249.495 205.699 240.718 358.029 487.522 259.416 278.979 310.174 168.112 378.011 348.336 220.736 263.733 382.135 107.452 485.657 295.306 456.168 219.926 298.024 647.552 55.509 160.056 326.084 595.706 496.976 269.679 266.664 273.547 331.807 274.999 268.935 266.760 714.006 404.481 468.637 614.642 249.175 284.563 167.087 404.336 363.913 297.014 206.947 266.916 469.398 236.002 539.070 263.647 595.082 480.617 471.495 599.948 578.269 221.590 421.196 344.868
109.413 240.195 342.238 203.362 255.885 284.657 315.958 231.828 242.800 258.619 215.629 235.118 215.734 78.573 283.090 192.535 377.695 274.067 208.394 326.213 240.374 262.200 304.434 287.947 93.593 487.973 331.783 273.282 87.284 447.424 233.250 221.212 106.573 244.257 197.680 199.563 332.242 272.910 239.984 130.449 162.871 230.373 166.903 200.096 300.547 270.662 124.040 188.095 461.527 255.433 468.444 294.882 199.959 113.325 500.231 430.353 176.543 313.402 159.828 288.075 245.980 111.047 259.930 83.082 380.001 111.428 455.608 214.460 175.075 336.186 336.257 134.688 258.576 260.738 201.958 497.204 129.801 183.661 364.280 323.007 227.623 106.368 187.571 143.204 304.290 0.000 420.252 170.221 309.903 371.325 441.985 500.151 433.484 538.932 141.161 507.277 544.895 304.865 111.528 342.958 312.830 498.639 231.152 505.380 304.590 325.016 288.529 502.505 142.602 275.524 433.000 493.677 424.721 347.914 224.836 444.814 312.537 278.412 194.412 274.096 454.735 351.208 196.539 314.464 201.131 543.070 416.054 456.480 221.248 320.947 322.040 490.624 261.158 415.245 492.758 434.126 342.717 250.026 112.658 459.584 283.550 329.831 461.983 482.148 297.863 344.959 271.983 195.411 513.492 243.594 305.021 414.128 444.493 377.502 217.601 521.881 559.232 492.332 398.729 503.259 333.276 273.696 375.454 152.287 381.656 267.191 276.485 399.434 367.346 416.908 308.669 360.716
380.677 529.726 465.174 243.206 473.185 406.419 177.218 529.359 356.893 450.642 247.517 228.559 505.265 376.103 548.308 490.065 96.873 395.829 215.926 615.745 207.297 421.024 593.966 561.415 391.123 738.853 541.339 496.336 301.863 656.980 259.743 342.974 367.498 205.915 257.675 216.281 597.460 400.577 505.201 427.979 380.228 527.903 325.727 229.698 163.952 151.000 338.619 473.539 671.083 386.662 741.912 221.390 358.783 329.843 751.111 695.570 266.042 393.658 303.979 292.571 267.668 408.578 557.460 380.612 653.469 408.959 706.489 373.284 390.192 522.324 481.009 421.879 379.250 311.136 360.782 741.148 427.331 481.191 523.104 508.504 191.880 403.899 414.965 360.561 565.154 339.787 0.000 384.149 519.460 530.149 641.225 709.707 192.067 546.409 328.595 316.581 810.112 555.135 409.058 242.823 152.010 115.796 389.977 714.936 578.058 387.198 215.037 155.171 309.634 461.021 591.825 652.501 634.277 274.422 290.211 654.370 471.362 400.174 332.650 213.463 664.291 640.740 464.687 488.646 495.071 808.287 625.611 615.304 417.520 530.503 164.677 673.696 335.870 624.801 757.975 245.580 563.896 515.244 300.091 180.151 210.058 627.362 671.539 747.365 402.186 467.895 393.745 492.941 199.275 439.866 139.951 148.232 654.049 650.970 451.900 795.349 768.788 701.888 608.285 754.140 194.536 395.458 97.951 369.643 140.238 174.441 351.197 166.300 99.824 626.464 536.063 440.685
131.073 308.370 257.089 180.734 324.061 209.921 241.223 295.038 309.976 313.628 140.894 249.736 283.909 146.748 304.335 260.710 302.960 199.331 133.659 394.389 254.992 177.052 372.610 356.123 161.768 494.880 297.366 341.457 52.259 413.007 183.857 146.476 117.894 258.875 175.053 124.827 353.487 327.919 261.228 198.624 53.604 298.548 81.754 125.361 307.425 195.927 89.015 229.566 427.110 170.284 507.462 309.501 114.811 100.488 507.139 451.598 168.557 238.667 85.093 355.250 171.245 179.223 325.560 151.257 448.177 179.604 462.516 129.311 130.341 278.351 251.109 202.864 183.841 322.632 116.809 497.175 181.961 251.836 279.131 264.531 152.888 174.543 255.747 68.017 321.181 110.432 360.087 0.000 275.487 286.177 397.252 465.734 440.363 606.108 163.106 432.541 566.139 373.040 179.703 268.223 238.094 439.543 146.004 470.963 372.765 392.192 303.147 472.129 80.747 217.048 347.852 408.528 390.304 362.532 150.101 410.397 227.389 203.677 119.677 288.715 420.318 419.384 264.714 244.673 269.307 564.315 381.638 371.331 276.257 286.531 247.305 429.724 328.333 380.828 514.002 448.744 319.924 271.271 134.602 384.848 298.168 395.461 427.566 503.392 223.127 259.810 197.248 263.586 475.654 298.603 230.286 376.291 410.076 445.677 207.927 590.056 524.815 457.915 364.312 510.167 258.541 198.961 300.718 77.100 388.534 281.809 343.661 361.597 339.917 382.492 376.845 285.981
237.685 343.401 222.584 420.052 398.128 257.977 433.907 271.756 468.976 420.671 333.578 461.294 353.922 304.749 242.207 285.530 512.304 218.199 372.976 384.675 466.550 235.652 379.021 402.639 312.481 264.146 83.601 399.479 306.172 199.242 423.175 234.261 250.864 470.433 414.370 364.145 280.814 479.331 184.267 279.863 275.197 299.108 262.784 364.678 526.723 435.244 332.422 236.803 213.344 267.823 358.247 521.058 335.300 332.213 330.652 319.094 402.719 326.470 292.229 514.251 363.929 292.468 288.562 301.970 343.048 317.849 286.029 204.396 272.957 80.389 234.317 341.108 340.864 486.914 229.972 254.915 348.689 280.656 193.527 90.703 392.205 325.257 387.449 287.495 132.443 330.227 569.431 282.547 0.000 200.572 193.802 251.968 659.660 765.108 367.337 625.225 416.925 431.062 317.948 507.541 477.412 648.887 195.966 257.197 369.840 551.192 514.705 711.446 323.208 110.739 185.261 245.937 176.538 574.090 389.418 196.631 152.759 222.544 358.995 500.272 206.552 351.953 359.261 126.563 407.551 415.100 167.872 208.741 427.669 65.415 486.623 242.442 485.709 167.062 364.787 660.302 108.004 209.143 338.834 577.532 509.726 342.652 213.800 340.311 306.344 225.306 250.761 315.847 714.972 450.015 469.603 615.608 196.311 351.326 148.914 471.100 311.049 244.150 150.547 333.680 451.225 217.829 540.036 264.613 607.832 493.367 501.036 600.914 579.234 168.726 470.283 291.076
293.627 438.275 171.194 435.501 480.556 206.587 418.345 356.130 524.919 503.099 320.109 504.503 440.404 360.691 348.654 339.386 496.742 204.730 388.425 485.296 509.759 251.101 473.894 509.018 368.424 402.756 171.490 494.352 328.344 294.588 438.624 220.792 306.806 513.642 429.819 379.594 387.261 533.186 290.714 333.718 290.646 383.557 278.233 380.127 562.192 450.693 365.100 290.659 308.691 254.354 501.029 564.267 350.749 376.572 471.068 461.875 423.324 263.667 278.982 570.193 350.460 348.411 386.652 357.913 479.851 371.704 426.446 219.845 288.406 172.294 182.927 394.964 324.892 542.857 245.421 393.525 404.632 357.199 21.857 164.609 407.654 381.199 447.847 305.060 275.224 386.169 553.869 297.996 199.250 0.000 225.890 342.084 695.130 821.051 417.872 609.663 559.706 525.936 371.804 522.990 486.078 633.325 182.497 321.710 505.852 607.135 557.913 698.042 338.657 164.162 207.533 237.166 266.654 617.299 402.580 291.978 98.457 209.075 351.370 543.481 301.899 458.400 421.868 144.744 461.407 557.881 263.218 199.969 481.524 213.255 487.664 258.361 539.564 240.219 507.568 703.511 250.785 315.590 389.369 561.970 552.935 449.099 303.916 483.092 254.954 173.916 237.292 376.360 710.637 503.870 485.052 611.274 262.831 494.107 255.361 613.881 401.165 334.266 266.320 474.097 433.234 204.360 526.760 280.062 643.301 536.576 554.892 596.580 573.993 252.088 536.149 228.273
368.474 474.191 288.847 546.128 528.918 324.240 531.064 402.546 599.766 551.461 430.735 592.084 484.712 435.538 372.997 416.320 609.461 315.356 499.052 515.465 597.339 361.727 509.811 541.223 443.271 315.448 160.061 530.269 436.962 94.610 549.250 331.419 381.653 601.223 540.446 490.220 411.604 610.120 315.057 410.652 401.273 429.898 388.859 490.754 657.513 561.320 463.212 367.593 108.712 364.980 484.840 651.848 461.376 463.003 382.207 457.678 533.509 393.133 389.608 645.041 461.086 423.258 419.352 432.760 481.632 448.639 370.864 330.472 399.032 167.529 300.580 471.898 438.022 617.704 356.047 311.178 479.479 411.446 200.277 186.964 518.281 456.046 518.239 415.687 271.027 461.017 666.589 408.623 194.932 215.633 0.000 136.774 790.450 895.898 498.127 722.383 543.518 561.852 448.738 633.616 596.705 746.045 293.123 119.713 508.424 681.982 645.494 810.762 449.283 207.000 95.803 89.714 61.344 704.880 513.206 91.999 219.022 319.702 461.996 631.062 101.920 482.743 490.051 194.667 538.341 541.693 151.053 52.517 558.459 208.937 598.291 97.194 616.498 34.908 491.380 791.091 246.588 339.933 469.624 674.690 640.516 473.442 98.606 466.904 372.607 291.568 347.919 446.637 823.357 580.804 595.679 723.993 57.521 489.910 279.704 609.684 195.855 128.955 261.556 385.235 548.382 314.986 639.480 390.688 738.622 624.157 631.826 709.299 686.713 46.777 601.073 357.739
412.151 517.868 383.257 594.519 572.595 418.650 608.374 446.223 643.443 595.138 508.045 635.761 528.389 479.216 416.674 459.997 686.771 392.666 547.443 559.142 641.017 410.118 553.488 584.581 486.948 395.303 229.942 573.946 480.639 89.310 597.641 408.728 425.330 644.900 588.837 538.612 455.281 653.798 358.734 454.330 449.664 473.575 437.251 539.145 701.190 609.711 506.889 411.270 103.750 442.290 540.189 695.525 509.767 506.680 462.062 501.035 577.186 482.756 466.696 688.718 538.396 466.935 463.029 476.437 524.990 492.316 450.719 378.863 447.424 244.290 394.990 515.575 515.331 661.381 404.439 391.033 523.156 455.123 349.813 263.725 566.672 499.723 561.916 461.962 314.385 504.694 743.898 457.014 238.610 356.859 176.750 0.000 834.127 939.575 541.804 799.692 598.867 605.529 492.415 682.008 651.879 823.354 370.433 199.569 551.782 725.659 689.171 885.913 497.675 283.761 204.962 227.548 185.432 748.557 563.885 129.766 313.432 397.011 533.462 674.739 96.958 526.420 533.728 289.077 582.018 597.042 218.655 190.351 602.136 252.614 661.090 176.810 660.176 153.666 546.729 834.769 289.946 383.610 513.301 751.999 684.193 517.119 129.362 522.253 467.017 385.978 425.228 490.314 889.439 624.481 644.070 790.075 168.621 533.268 323.381 653.042 208.490 159.711 306.833 465.091 625.692 392.296 714.503 439.080 782.299 667.834 675.503 775.381 753.701 157.878 644.750 447.362
486.707 543.180 593.592 291.006 480.471 534.837 326.044 579.189 364.179 457.928 378.324 235.845 518.719 425.390 629.510 537.220 268.270 524.247 321.955 629.199 214.583 527.054 607.420 568.701 497.153 827.870 647.369 503.622 407.892 763.010 352.420 471.392 473.528 213.201 330.539 322.310 691.658 407.863 611.231 502.471 486.257 568.421 431.757 335.727 131.205 257.029 444.649 560.117 777.112 515.080 749.199 150.705 464.813 435.872 835.215 738.150 349.771 542.484 410.008 299.857 411.573 483.069 597.979 486.642 660.755 463.590 790.592 479.314 496.221 628.353 601.111 457.685 508.756 318.422 466.811 834.250 533.361 521.710 629.134 614.533 297.910 509.928 450.771 466.590 671.184 445.816 190.118 490.178 625.489 636.179 747.255 815.736 0.000 450.763 388.971 403.431 852.284 562.421 483.550 348.852 299.197 244.613 496.006 820.965 585.344 394.484 194.598 206.361 415.663 567.050 697.854 758.530 740.306 166.298 396.240 760.399 577.391 528.592 438.680 218.666 770.320 654.194 490.000 594.675 530.877 850.459 731.640 721.334 425.355 636.533 308.962 779.726 343.156 730.830 800.146 114.001 669.926 610.577 360.468 351.675 182.757 667.880 777.568 795.189 548.043 596.313 522.163 533.459 278.905 453.319 291.388 209.549 760.079 658.256 557.929 802.635 874.817 807.918 714.315 838.243 343.362 523.876 246.344 475.673 55.445 181.727 358.483 209.946 210.270 732.494 549.597 589.511
628.532 637.096 822.591 505.328 535.526 763.836 619.109 682.128 419.234 512.983 620.259 462.186 596.934 537.912 732.449 640.159 561.335 753.246 563.890 693.964 429.870 756.053 701.336 623.756 612.712 882.925 815.012 558.677 606.402 930.653 579.496 700.391 625.691 433.753 544.862 564.245 794.597 462.918 723.213 613.678 681.990 671.360 660.756 577.662 438.569 529.745 643.159 671.324 944.755 744.079 804.254 363.339 693.812 632.443 890.270 793.205 564.094 792.581 639.007 302.419 653.508 594.276 700.918 602.200 715.810 574.797 845.647 708.313 694.193 819.415 830.110 560.624 737.755 446.739 695.810 889.305 648.919 624.649 858.132 806.236 539.844 625.487 553.711 662.323 787.518 630.457 558.040 689.340 793.132 865.178 925.213 983.379 451.187 0.000 539.928 794.903 907.339 617.476 594.756 621.568 571.912 636.426 725.005 988.608 640.399 373.352 407.232 603.797 644.662 758.753 916.672 977.348 907.950 316.575 638.175 928.042 806.390 757.591 667.679 433.721 937.963 724.373 583.916 797.693 642.084 905.514 899.283 940.152 480.410 804.176 581.677 973.853 398.211 898.473 855.201 398.219 825.946 713.516 511.424 688.632 388.618 745.200 945.212 850.245 777.042 825.312 751.162 636.398 663.116 509.291 564.103 572.211 927.722 713.311 700.830 857.690 1042.461 975.561 881.958 893.298 636.427 752.875 538.169 671.406 452.881 426.816 413.538 557.517 505.133 900.137 643.513 839.896
245.739 295.261 401.363 108.321 242.504 342.608 350.419 308.918 232.868 220.425 247.192 140.077 270.800 155.119 359.239 266.949 302.539 332.018 178.050 381.280 145.332 334.825 359.501 343.013 229.919 589.723 433.534 320.724 215.663 549.175 138.209 279.163 242.898 149.216 102.639 169.219 421.387 234.716 341.735 232.200 294.028 298.150 239.528 170.177 205.506 195.506 252.420 289.846 563.277 322.851 523.511 199.841 272.584 243.643 601.982 512.463 87.027 371.353 217.779 256.573 280.441 212.798 327.707 219.407 435.068 193.319 557.359 287.085 303.992 436.124 408.882 187.414 316.527 206.185 274.582 598.955 266.126 251.438 436.905 422.304 166.778 242.694 180.500 274.361 406.040 247.664 325.211 297.949 411.654 443.950 543.735 601.901 338.443 524.860 0.000 536.107 626.596 359.931 213.278 267.802 237.673 403.597 303.777 607.130 359.656 315.084 193.487 407.463 223.434 374.821 505.625 566.301 526.472 252.873 223.665 546.564 385.162 336.363 246.451 179.055 556.485 406.275 230.222 402.446 260.606 624.771 517.805 529.105 183.054 422.698 246.884 587.497 235.332 516.995 574.459 339.084 444.468 340.306 90.196 429.836 188.509 397.609 563.733 569.502 355.814 404.084 329.934 263.188 418.451 205.400 229.865 319.087 546.244 432.568 319.352 576.947 660.982 594.083 500.480 605.010 367.737 331.647 300.297 283.444 286.615 172.150 250.659 304.393 272.305 518.659 301.598 418.668
490.487 639.536 517.906 353.015 584.424 459.151 193.351 639.168 468.132 561.881 300.249 339.798 615.075 485.912 658.117 599.875 117.471 448.560 325.735 725.554 318.536 492.664 703.776 672.654 500.933 826.905 606.839 607.575 411.672 733.507 369.552 395.705 477.308 317.154 367.484 326.090 707.269 511.816 615.010 537.789 490.037 637.712 435.536 339.507 289.873 260.809 448.428 583.348 747.609 439.393 853.152 338.589 468.593 439.652 860.921 805.380 375.851 446.402 386.856 403.810 320.400 518.387 667.270 490.421 764.708 518.768 816.298 483.093 500.001 586.935 533.741 531.688 431.981 422.375 462.472 817.674 537.140 591.001 580.166 573.115 301.689 513.708 524.775 470.370 645.165 449.596 162.259 493.958 595.986 587.211 705.837 786.233 289.438 663.608 438.404 0.000 919.921 666.374 518.867 352.632 208.658 105.836 471.817 791.462 689.297 498.437 332.236 149.913 419.443 525.632 656.436 717.112 710.803 391.621 387.146 730.896 528.424 452.906 402.725 326.292 740.817 750.549 574.496 553.257 604.880 918.097 702.137 679.916 527.329 607.030 221.325 738.308 447.109 701.327 867.784 342.950 640.423 625.053 409.901 123.299 327.257 737.171 748.065 857.174 454.918 520.627 446.477 602.750 352.832 549.675 196.599 296.571 730.575 762.209 561.709 906.588 845.314 778.414 684.681 863.949 234.026 448.190 192.409 479.453 235.397 291.640 462.436 281.877 207.994 702.991 645.873 493.430
464.011 473.383 545.281 655.864 445.287 556.444 717.505 434.304 639.405 467.830 617.176 687.620 401.080 531.075 340.679 448.897 781.485 509.376 612.184 352.758 692.876 526.829 510.232 353.735 538.808 288.630 423.172 372.511 532.498 534.526 662.382 525.439 477.190 696.759 650.182 603.352 332.440 543.027 363.318 488.864 514.404 422.946 501.991 603.886 741.965 674.451 558.748 445.804 548.628 559.000 101.404 736.301 574.508 558.539 217.716 136.427 629.045 656.432 551.047 624.433 647.527 518.795 373.445 528.297 294.144 526.850 171.700 476.059 512.164 415.749 539.301 527.833 632.042 671.429 501.952 291.023 575.016 419.775 532.347 435.184 631.412 551.583 486.225 513.821 344.607 556.553 838.612 521.754 411.500 539.393 529.086 587.252 874.903 892.099 593.664 908.824 0.000 382.621 526.949 746.748 716.619 918.068 487.143 475.965 295.998 691.882 729.947 943.923 562.415 402.176 522.673 583.349 511.822 789.332 628.625 531.915 481.867 513.722 598.202 715.515 541.836 324.145 453.498 441.117 586.848 31.860 503.156 546.152 513.172 412.911 725.830 577.726 566.059 502.346 49.820 875.544 372.028 381.771 565.160 861.131 724.968 331.870 549.084 128.796 604.811 548.003 541.939 454.966 954.179 513.270 708.810 854.815 531.594 282.841 423.457 280.760 646.333 579.433 489.367 198.806 734.823 509.006 779.243 503.820 823.074 708.609 544.474 840.121 808.764 504.010 546.772 621.036
323.210 196.037 535.353 399.841 166.027 498.454 529.755 228.129 360.146 188.570 429.426 431.597 121.821 299.657 274.775 212.853 578.927 485.587 422.191 203.495 432.404 460.887 239.432 136.299 307.390 363.421 451.374 93.252 301.080 567.015 429.729 435.008 320.369 436.287 394.159 413.359 336.923 263.767 313.333 265.141 376.668 219.740 380.700 413.893 462.706 484.459 337.837 269.479 581.117 469.229 279.480 456.472 413.756 327.121 370.766 268.432 373.022 527.199 373.625 345.174 459.777 278.882 242.331 296.878 222.147 265.919 324.575 399.573 388.871 455.777 529.373 248.573 472.373 392.169 407.663 372.652 343.597 197.342 526.548 442.598 441.420 320.165 206.965 357.001 396.271 325.135 582.411 384.018 429.494 533.594 561.575 619.741 595.643 607.420 337.640 721.073 382.565 0.000 262.717 556.755 526.626 660.797 424.268 598.315 113.848 411.926 450.119 664.664 356.398 395.115 553.034 613.710 544.312 509.504 438.633 564.404 474.806 489.932 408.209 436.255 574.325 249.260 174.239 434.055 307.588 380.740 535.645 576.514 233.913 440.538 535.837 610.215 286.799 534.835 330.428 595.716 429.837 259.517 309.137 673.380 445.140 259.874 581.574 325.471 511.659 538.075 485.780 210.347 675.651 234.010 518.818 576.287 564.084 193.806 346.971 323.619 678.823 611.923 518.320 373.794 547.073 485.217 560.861 366.084 543.815 429.350 265.215 561.593 529.505 536.499 267.513 574.513
168.399 210.784 380.543 210.315 226.474 343.643 374.944 211.730 245.558 215.668 274.615 242.071 186.323 136.079 262.051 169.761 404.533 330.776 237.456 296.802 247.327 306.077 275.023 258.536 152.579 500.997 344.807 243.871 146.270 460.448 240.203 280.198 165.559 251.210 204.633 228.625 324.198 229.959 253.008 135.836 221.858 200.962 225.889 229.158 307.500 297.500 183.026 201.119 474.551 314.419 439.033 301.835 258.945 172.311 513.255 427.985 183.496 372.388 218.814 290.793 304.966 124.071 230.519 142.068 350.590 55.327 468.632 250.709 234.061 349.210 374.563 91.737 317.562 265.963 252.853 510.228 188.787 154.250 388.670 336.031 256.685 165.354 144.620 202.190 317.314 170.324 427.205 229.207 322.928 395.715 455.009 513.175 440.437 541.690 148.114 566.263 542.119 275.454 0.000 369.796 339.668 505.591 269.458 518.404 275.179 327.774 295.481 509.458 201.588 288.548 446.467 507.144 437.745 354.867 259.542 457.838 336.928 335.122 253.399 281.049 467.759 321.797 167.128 327.489 147.182 540.294 429.079 469.947 178.297 333.971 348.878 503.648 248.021 428.269 489.981 441.079 355.741 243.117 119.611 518.570 290.503 300.420 475.007 485.024 356.849 383.264 330.969 166.000 520.445 200.643 331.859 421.081 457.517 348.091 230.626 492.470 572.256 505.356 411.753 516.283 392.262 330.406 402.292 211.273 388.609 274.144 263.348 406.387 374.299 429.933 265.718 419.703
380.731 517.184 487.616 230.664 464.427 428.861 313.652 529.412 420.432 442.349 272.348 255.578 492.724 376.157 548.361 488.872 258.086 418.271 215.979 603.203 241.745 421.078 581.424 564.937 391.177 738.907 541.393 542.647 301.917 657.034 247.201 365.416 367.552 232.935 245.133 216.334 597.513 456.640 505.255 428.033 380.282 520.073 325.781 229.752 257.568 151.053 338.673 473.593 671.136 409.104 745.434 302.519 358.837 329.897 751.165 695.624 253.500 457.606 304.032 359.251 305.597 408.632 549.631 380.666 656.991 409.013 706.542 373.338 390.245 522.377 495.136 409.337 402.781 337.228 360.836 741.202 427.385 473.362 523.158 508.558 191.934 403.952 402.424 360.614 565.208 339.840 315.214 384.202 519.513 530.203 641.279 709.761 390.506 627.538 328.649 491.654 810.166 581.855 409.112 0.000 193.221 394.670 390.031 714.989 581.580 453.878 296.165 422.272 309.687 461.075 591.878 652.555 634.331 355.551 290.264 654.424 471.416 422.616 332.704 281.733 664.345 628.198 452.145 488.699 482.529 808.341 625.664 615.358 404.978 530.557 202.986 673.750 402.550 624.855 758.029 441.762 563.950 515.297 300.145 385.383 291.187 619.532 671.593 747.419 442.067 490.338 416.187 485.111 425.797 427.324 185.412 326.434 654.103 654.491 451.954 798.871 768.842 701.942 608.339 754.193 330.970 417.901 255.845 369.697 338.677 259.336 417.877 311.740 290.060 626.518 523.522 504.921
313.702 462.751 402.546 176.231 409.994 343.791 155.216 462.383 339.357 387.915 178.942 196.700 438.290 309.128 481.332 423.090 99.651 333.200 148.950 548.769 182.867 354.049 526.991 510.503 324.148 671.878 474.364 478.800 234.887 590.005 192.767 280.345 300.523 174.057 190.699 149.305 530.484 383.041 438.226 361.004 313.252 460.928 258.752 162.722 164.748 80.216 271.644 406.564 604.107 324.034 684.460 218.302 291.808 262.867 684.136 628.595 199.066 371.669 237.003 275.035 212.191 341.602 490.485 313.637 602.558 341.983 639.513 306.309 323.216 455.348 418.381 354.904 316.622 282.794 293.806 674.172 360.356 414.216 456.128 441.528 124.905 336.923 347.990 293.585 498.179 272.811 156.778 317.173 452.484 463.174 574.250 642.731 281.539 543.321 261.619 333.219 743.137 527.421 342.083 175.847 0.000 236.234 323.001 647.960 527.146 369.662 211.949 276.628 242.658 394.045 524.849 585.525 567.301 271.334 223.235 587.394 404.386 337.546 265.674 197.516 597.315 573.765 397.712 421.670 428.096 741.312 558.635 548.329 350.544 463.528 27.920 606.721 318.334 557.825 691.000 335.051 496.921 448.268 233.116 226.948 206.970 560.386 604.563 680.389 356.996 405.267 331.117 425.966 280.154 372.890 23.563 180.790 587.074 600.058 384.924 744.437 701.812 634.913 541.310 687.164 172.534 332.830 97.409 302.668 229.710 166.516 333.661 166.096 144.416 559.489 469.088 418.696
434.774 583.823 540.052 297.303 527.282 481.296 250.970 583.456 410.991 504.739 322.395 282.656 559.363 430.200 602.405 544.163 137.520 470.706 270.023 669.842 261.394 475.122 648.063 615.512 445.221 792.950 595.436 550.433 355.960 711.077 313.840 417.851 421.595 260.012 311.772 270.378 651.557 454.674 559.298 482.077 434.325 582.000 379.824 283.795 226.771 205.097 392.716 527.636 725.180 461.539 796.010 275.487 412.880 383.940 805.209 749.667 320.139 468.535 358.076 346.668 342.546 462.675 611.558 434.709 707.566 463.056 760.586 427.381 444.289 576.421 549.179 475.976 454.127 365.233 414.879 795.245 481.428 535.289 577.201 562.601 245.977 457.996 469.063 414.658 619.251 393.884 115.221 438.246 573.557 584.247 695.322 763.804 225.214 600.506 382.692 209.458 864.209 609.232 463.155 296.920 226.888 0.000 444.074 769.033 632.155 441.295 269.134 111.168 363.731 515.118 645.922 706.598 688.374 328.519 344.308 708.467 525.459 475.052 386.747 267.560 718.388 694.837 518.784 542.743 549.168 862.384 679.708 669.401 471.617 584.601 239.555 727.793 389.967 678.898 812.072 278.727 617.994 569.341 354.188 157.703 264.155 681.459 725.636 801.462 477.064 542.773 468.623 547.038 290.310 493.963 214.829 235.091 708.146 705.067 505.997 849.446 822.885 755.985 662.382 808.237 269.414 470.336 172.829 423.741 171.174 228.538 405.294 220.397 174.702 680.562 590.161 515.562
158.249 302.896 111.085 289.175 345.177 108.387 277.026 220.752 389.540 367.721 176.698 358.177 305.026 225.313 230.049 204.008 355.423 61.319 242.099 349.918 363.432 84.348 338.516 373.639 233.046 390.570 170.504 358.974 182.017 297.171 292.297 77.381 164.209 367.316 283.493 233.268 279.201 397.808 186.942 198.340 144.320 248.179 131.907 233.801 415.866 304.367 218.774 155.280 311.273 110.943 433.176 417.941 204.423 230.246 429.125 377.312 276.998 209.768 135.570 434.815 207.048 213.032 251.274 222.534 380.258 236.326 384.502 57.586 142.080 150.600 105.105 259.586 183.984 407.478 78.668 381.339 269.253 221.820 151.380 136.780 261.328 245.821 312.469 158.734 208.829 240.190 412.551 151.670 159.650 158.425 269.501 349.898 548.803 685.672 271.546 468.345 491.853 390.557 236.425 376.663 342.667 492.007 0.000 355.126 370.474 471.756 411.587 556.724 192.331 89.297 220.101 280.777 274.468 470.973 258.541 294.561 99.638 65.664 207.958 397.155 304.482 358.807 286.489 116.922 326.029 490.029 265.801 243.580 346.146 170.694 344.253 301.972 404.186 264.992 439.716 557.184 204.087 196.985 243.043 420.652 406.609 321.175 311.730 429.106 156.754 113.806 93.881 240.982 569.319 368.492 338.726 469.956 294.240 409.609 133.641 529.383 408.979 342.079 248.345 432.153 294.344 60.948 385.442 133.736 496.975 390.250 419.513 455.262 432.675 266.655 400.771 174.372
342.199 447.916 313.305 524.567 502.643 348.698 538.421 376.271 573.491 525.186 438.092 565.809 458.436 409.263 346.722 390.045 616.818 322.714 477.491 489.190 571.064 340.166 483.536 514.629 416.996 332.802 159.990 503.994 410.687 109.956 527.689 338.776 355.378 574.948 518.885 468.660 385.329 583.845 288.782 384.377 379.712 403.622 367.298 469.193 631.238 539.759 436.937 341.318 124.058 372.337 470.237 625.573 439.815 436.728 399.561 431.083 507.234 412.804 396.744 618.766 468.443 396.983 393.077 406.485 455.038 422.363 388.217 308.911 377.471 174.338 325.038 445.623 445.379 591.429 334.486 328.532 453.204 385.171 243.522 193.773 496.720 429.771 491.964 392.010 244.433 434.741 673.946 387.062 168.657 258.879 73.672 154.128 764.175 869.623 471.852 729.740 528.914 535.577 422.463 612.055 581.927 753.402 300.481 0.000 481.829 655.707 619.219 815.961 427.722 213.809 135.010 132.959 78.698 678.605 493.933 107.345 243.480 327.059 463.509 604.787 117.266 456.468 463.776 219.125 512.066 527.089 148.703 95.762 532.183 182.662 591.137 122.312 590.223 46.932 476.777 764.816 219.993 313.658 443.349 682.047 614.241 447.167 115.960 452.300 397.065 316.026 355.276 420.362 819.487 554.529 574.118 720.123 82.639 463.316 253.428 583.089 213.209 146.309 236.881 402.589 555.739 322.343 644.551 369.128 712.346 597.882 605.551 705.429 683.749 62.123 574.798 377.410
317.449 190.276 515.091 394.080 160.267 492.693 523.994 222.368 354.386 182.810 423.665 425.837 116.060 293.896 238.334 207.092 573.167 479.187 416.430 105.673 426.643 455.127 233.671 80.466 301.629 282.824 396.809 87.491 295.320 508.162 423.969 429.248 314.609 430.527 388.398 407.599 282.654 258.007 307.572 259.381 370.908 213.979 374.939 408.132 456.945 478.698 332.076 263.718 522.265 463.469 215.963 451.281 407.995 321.361 290.169 204.915 367.262 521.438 367.864 339.413 454.016 273.122 203.058 291.118 127.520 260.158 245.546 393.813 383.111 389.385 509.111 242.813 466.613 386.409 401.903 292.055 337.837 191.582 503.420 408.820 435.659 314.404 201.205 351.240 318.244 319.374 576.651 378.257 385.136 510.465 502.723 560.889 589.883 607.079 331.880 715.313 319.048 97.601 256.956 550.995 520.866 655.037 418.508 517.281 0.000 406.862 444.927 658.903 350.638 371.986 496.309 556.986 485.459 504.312 432.872 505.552 451.678 483.532 402.449 430.495 515.473 157.521 168.478 410.927 301.828 317.223 476.792 519.789 228.153 386.548 530.077 551.362 281.039 475.983 266.911 590.524 345.665 253.756 303.376 667.620 439.948 165.246 522.721 261.954 505.899 517.813 480.019 204.587 669.890 228.250 513.057 570.527 505.231 130.480 341.211 269.399 619.970 553.070 463.003 293.197 541.312 478.816 555.101 360.323 538.054 423.589 259.454 555.833 523.744 477.646 261.752 568.753
360.885 369.450 554.944 304.331 277.800 496.189 430.961 414.482 151.588 255.257 419.142 261.188 339.208 270.265 464.803 372.513 375.396 485.599 362.893 436.238 228.872 488.406 433.690 366.030 345.065 624.672 547.365 300.951 338.756 663.006 360.367 432.744 358.045 232.756 324.797 357.698 526.951 205.192 455.566 346.031 414.343 403.714 393.109 358.232 259.174 328.747 375.512 403.677 677.109 476.432 546.528 253.510 426.165 364.797 632.017 535.479 307.663 524.934 371.360 91.527 449.493 326.629 433.271 334.554 458.084 307.150 587.394 440.666 426.547 551.768 562.464 292.978 470.109 245.742 428.164 631.579 381.273 357.002 590.486 538.589 338.847 357.840 286.064 394.676 519.872 362.810 378.880 421.693 525.486 597.531 657.567 715.733 392.112 368.030 272.281 608.964 649.613 359.750 327.110 420.571 370.915 457.266 457.359 720.962 382.146 0.000 247.156 461.132 377.016 491.106 649.025 709.702 640.303 306.542 388.615 660.396 538.744 489.944 400.032 232.724 670.317 466.647 316.269 530.047 374.437 647.788 631.637 672.505 222.684 536.529 380.680 706.206 140.485 630.827 597.475 392.753 558.299 445.870 243.778 502.693 242.177 487.474 677.565 592.519 509.395 557.666 483.516 368.752 472.119 251.565 363.106 372.756 660.075 455.058 433.183 599.964 774.814 707.914 614.311 635.045 448.279 485.229 357.330 403.759 340.283 225.818 155.812 358.062 325.974 632.490 375.866 572.249
412.153 441.014 519.039 188.840 378.305 460.284 301.558 477.024 262.014 355.762 303.771 144.733 416.553 323.225 527.344 435.055 243.784 449.693 247.402 527.033 112.417 452.501 505.254 466.535 398.024 725.704 572.815 401.456 333.339 688.456 263.008 396.838 398.974 116.301 228.374 247.757 589.492 305.697 509.840 400.305 411.704 466.255 357.203 261.174 121.018 212.292 370.095 457.951 702.559 440.527 647.033 63.423 390.260 361.319 733.049 635.985 247.606 489.029 335.455 197.691 337.020 380.904 495.813 387.513 558.590 361.424 688.427 404.760 421.668 553.800 526.558 355.519 434.203 216.256 392.258 732.085 434.232 419.544 554.580 539.980 223.356 410.799 348.606 392.037 574.146 371.263 240.489 415.625 550.936 561.626 672.702 741.183 175.766 424.651 286.805 477.352 750.118 460.255 381.384 304.115 254.460 318.875 421.453 746.412 483.178 292.318 0.000 316.454 341.110 492.497 623.301 683.977 665.753 116.455 321.687 685.846 502.838 454.039 364.126 116.269 695.767 552.028 387.834 520.122 428.711 748.293 657.087 646.780 323.189 561.980 264.225 705.173 240.990 656.277 697.981 172.862 595.373 508.411 258.302 371.081 68.532 565.714 703.015 693.024 473.489 521.760 447.610 431.293 338.190 351.154 246.651 254.660 685.525 556.090 483.376 700.469 800.264 733.364 639.761 736.077 318.876 449.323 220.619 401.120 167.318 109.363 256.317 239.966 187.583 657.941 447.431 536.343
469.712 618.761 566.776 332.241 562.220 508.021 278.820 618.393 445.928 539.676 349.119 317.593 594.300 465.138 637.342 579.100 198.475 497.431 304.960 704.780 296.332 510.059 683.001 650.450 480.158 827.888 630.374 585.371 390.898 746.015 348.778 444.576 456.533 294.950 346.709 305.315 686.494 489.612 594.236 517.014 469.263 616.938 414.762 318.733 225.455 240.034 427.654 562.574 760.117 488.264 830.947 302.079 447.818 418.878 840.146 784.605 355.076 495.260 393.013 381.606 369.270 497.613 646.495 469.647 742.504 497.994 795.523 462.319 479.226 611.358 582.611 510.914 480.852 400.171 449.817 830.183 516.366 570.226 612.139 597.539 280.915 492.933 504.000 449.595 654.189 428.821 140.106 473.183 608.494 619.184 730.260 798.742 201.524 608.811 417.630 303.692 899.147 644.170 498.093 331.857 253.612 151.528 479.012 803.970 667.093 476.233 304.071 0.000 398.668 550.056 680.859 741.536 723.312 317.673 379.245 743.405 560.397 501.776 421.685 302.498 753.326 729.775 553.722 577.680 584.106 897.322 714.645 704.339 506.555 619.538 266.279 762.731 424.905 713.836 847.010 255.036 652.931 604.278 389.126 251.937 299.093 716.397 760.574 836.400 503.789 569.497 495.347 581.976 288.310 528.900 241.554 234.203 743.084 740.004 540.935 884.383 857.823 790.923 697.320 843.174 296.138 497.060 199.554 458.678 147.483 263.476 440.232 255.335 201.426 715.499 625.098 542.287
128.215 297.388 295.708 184.374 313.078 238.127 269.428 289.021 299.993 315.242 169.099 253.376 272.927 135.766 340.283 249.728 306.600 227.537 137.299 383.406 258.632 215.670 361.627 345.140 150.786 533.499 335.985 330.475 49.401 451.626 187.497 174.682 115.036 262.515 178.692 128.467 389.435 329.533 297.177 187.642 127.766 287.566 120.373 129.001 311.065 199.567 86.157 245.288 465.728 208.903 525.637 313.140 153.429 89.505 545.757 487.546 172.197 266.872 113.298 345.268 199.450 168.240 317.123 140.275 437.194 168.621 501.134 167.930 139.969 316.969 289.728 191.881 212.046 317.931 155.428 535.794 179.103 240.854 317.750 303.150 156.527 163.561 244.764 108.099 359.800 99.449 363.727 135.116 314.105 324.795 435.871 504.353 444.003 596.125 164.720 460.747 602.088 362.058 168.721 271.863 241.734 443.183 184.623 509.581 361.783 382.209 306.787 475.768 0.000 255.666 386.470 447.147 428.923 366.172 159.384 449.016 266.008 231.882 147.882 292.354 458.937 408.401 253.732 283.291 258.324 600.263 420.256 409.950 277.871 325.149 250.945 468.342 318.351 419.446 549.951 452.384 358.542 307.219 136.216 413.054 301.808 387.024 466.185 539.341 251.333 298.429 225.453 252.604 479.294 300.217 233.925 379.930 448.695 434.695 246.546 579.074 563.434 496.534 402.931 548.785 286.746 227.166 304.358 117.182 392.174 285.449 333.678 365.236 343.556 421.110 365.862 314.186
185.556 291.273 151.232 346.099 346.000 162.395 331.035 219.628 416.848 368.543 230.706 409.166 301.793 252.620 190.079 233.402 409.432 115.327 299.023 332.547 414.421 161.698 326.893 362.016 260.353 306.859 81.207 347.351 238.941 213.460 349.221 131.390 198.735 418.305 340.417 290.191 228.686 427.202 132.139 227.734 201.244 246.979 188.830 290.725 472.790 361.291 275.697 184.675 227.563 164.951 360.446 468.930 261.347 280.085 345.414 304.581 333.922 262.383 189.579 462.123 261.057 240.340 236.434 249.842 321.275 265.720 300.792 130.443 199.003 61.303 145.252 288.980 237.993 434.786 156.018 297.628 296.561 228.528 139.561 47.483 318.252 273.128 335.321 215.658 125.119 278.098 466.560 208.594 75.940 146.606 208.021 266.187 605.727 712.980 315.209 522.354 419.123 378.934 265.820 433.587 396.676 546.015 93.094 271.416 355.393 499.064 462.576 610.733 249.254 0.000 168.227 228.903 190.757 521.962 313.177 210.850 87.818 119.673 261.967 448.144 220.771 299.825 307.133 38.940 355.423 417.298 182.091 191.707 375.540 86.983 398.262 250.099 433.580 181.281 366.986 608.173 120.376 157.015 286.706 474.661 457.598 290.524 228.019 355.073 210.762 153.954 147.890 263.719 623.328 397.886 395.650 523.964 210.529 336.879 96.785 456.653 325.268 258.368 159.049 348.443 348.353 114.957 439.451 190.659 553.898 441.239 448.908 509.270 486.684 182.945 418.155 226.987
329.297 435.014 249.669 506.950 489.740 285.062 491.887 363.369 560.589 512.284 391.558 552.906 445.534 396.361 333.820 377.143 570.284 276.179 459.875 476.288 558.162 322.550 470.633 502.046 404.094 308.296 120.884 491.091 397.784 135.038 510.073 292.241 342.476 562.045 501.268 451.043 372.427 570.943 275.879 371.475 362.095 390.720 349.682 451.577 618.335 522.143 424.034 328.415 149.140 325.803 457.654 612.671 422.199 423.825 402.836 418.500 494.331 353.955 350.431 605.863 421.909 384.081 380.174 393.583 442.454 409.461 383.071 291.294 359.855 128.352 261.403 432.721 398.844 578.527 316.870 299.065 440.302 372.268 192.473 147.787 479.103 416.869 479.061 376.509 231.850 421.839 627.411 369.445 155.755 207.830 107.839 187.764 751.273 856.721 458.950 683.205 516.331 522.675 409.560 594.439 557.527 706.867 253.946 179.022 469.246 642.804 606.317 771.584 410.106 167.823 0.000 119.114 112.335 665.702 474.029 132.427 179.845 280.524 422.819 591.885 142.348 443.565 450.873 155.489 499.164 514.506 103.668 81.918 519.281 169.760 559.113 140.310 577.321 102.858 464.194 751.914 207.410 300.756 430.446 635.512 601.338 434.264 149.596 439.717 333.429 252.391 308.741 407.459 784.180 541.627 556.501 684.816 132.107 450.733 240.526 570.506 246.845 179.946 222.378 405.864 509.205 275.809 600.302 351.511 699.444 584.979 592.648 670.122 647.535 104.522 561.896 318.561
431.179 536.896 351.551 608.832 591.622 386.944 593.768 465.250 662.470 614.165 493.440 654.788 547.416 498.243 435.701 479.024 672.165 378.061 561.756 578.169 660.044 424.431 572.515 603.927 505.976 378.740 222.766 592.973 499.666 141.290 611.954 394.123 444.358 663.927 603.150 552.925 474.308 672.825 377.761 473.357 463.977 492.602 451.564 553.458 720.217 624.024 525.916 430.297 155.392 427.685 548.132 714.552 524.080 525.707 445.499 520.382 596.213 455.837 452.313 707.745 523.790 485.962 482.056 495.464 544.336 511.343 434.156 393.176 461.737 230.233 363.284 534.603 500.726 680.408 418.752 374.470 542.183 474.150 262.981 249.669 580.985 518.751 580.943 478.391 333.731 523.721 729.293 471.327 257.637 278.338 82.603 200.066 853.154 958.602 560.831 785.087 606.809 624.556 511.442 696.321 659.409 808.749 355.828 183.005 571.128 744.686 708.199 873.466 511.988 269.705 158.507 0.000 124.636 767.584 575.910 138.679 281.726 382.406 524.700 693.766 148.600 545.447 552.755 257.371 601.045 604.984 213.757 37.197 621.163 271.642 660.995 115.066 679.203 98.200 554.672 853.796 309.292 402.637 532.328 737.394 703.220 536.146 161.898 530.195 435.311 354.273 410.623 509.341 886.061 643.509 658.383 786.698 104.201 552.614 342.408 672.388 259.147 192.247 324.260 448.527 611.086 377.690 702.184 453.393 801.326 686.861 694.530 772.004 749.417 93.457 663.777 420.443
368.054 473.771 339.160 550.422 528.498 374.553 564.277 402.126 599.346 551.041 463.948 591.664 484.292 435.118 372.577 415.900 642.674 348.569 503.346 515.045 596.919 366.021 509.391 540.484 442.851 351.206 185.845 529.849 436.542 45.213 553.544 364.631 381.233 600.803 544.740 494.515 411.184 609.701 314.637 410.232 405.567 429.478 393.153 495.048 657.093 565.614 462.792 367.173 59.653 398.193 496.092 651.428 465.670 462.583 417.965 456.938 533.089 438.659 422.599 644.621 494.298 422.838 418.932 432.340 480.893 448.219 406.622 334.766 403.327 200.193 350.893 471.478 471.234 617.284 360.342 346.936 479.059 411.026 305.716 219.628 522.575 455.626 517.819 417.865 270.288 460.597 699.801 412.917 194.512 312.761 136.309 75.430 790.030 895.478 497.707 755.595 554.769 561.432 448.318 637.910 607.782 779.257 326.336 155.471 507.685 681.562 645.074 841.816 453.577 239.664 160.865 193.359 0.000 704.460 519.788 85.669 269.335 352.914 489.365 630.642 52.861 482.323 489.631 244.980 537.921 552.945 174.558 156.162 558.039 208.517 616.992 142.621 616.078 109.569 502.632 790.671 245.848 339.513 469.204 707.902 640.096 473.022 85.265 478.155 422.920 341.881 381.131 446.217 845.342 580.384 599.973 745.978 134.433 489.171 279.284 608.944 171.432 115.614 262.736 420.993 581.595 348.198 670.406 394.983 738.202 623.737 631.406 731.284 709.604 123.689 600.653 403.265
435.082 463.943 541.967 211.769 398.364 483.212 324.487 499.952 282.073 375.821 326.699 167.662 439.482 346.153 550.273 457.983 266.713 472.622 270.331 549.962 135.346 475.429 528.183 486.594 420.953 745.763 595.744 421.515 356.268 711.385 285.937 419.767 421.903 139.229 251.302 270.686 612.421 325.756 532.769 423.234 434.633 489.184 380.132 284.103 143.946 235.221 393.024 480.880 725.488 463.455 667.092 59.408 413.188 384.248 753.108 656.044 270.534 511.957 358.384 217.750 359.948 403.832 518.742 410.442 578.649 384.353 708.486 427.689 444.597 576.729 549.487 378.448 457.132 239.185 415.187 752.144 457.161 442.473 577.509 562.909 246.285 433.728 371.534 414.966 597.075 394.192 263.418 438.554 573.865 584.554 695.630 764.112 164.118 311.853 309.734 500.281 770.177 480.314 404.313 327.044 277.388 341.804 444.382 769.341 503.237 310.193 103.301 325.485 364.039 515.426 646.230 706.906 688.682 0.000 344.616 708.775 525.767 476.968 387.055 139.197 718.696 574.957 410.763 543.051 451.640 768.352 680.015 669.709 343.248 584.908 287.154 728.101 261.049 679.206 718.040 161.213 618.301 531.340 281.231 394.010 72.043 588.643 725.944 713.083 496.418 544.689 470.539 454.222 368.494 372.129 269.580 277.589 708.454 576.149 506.305 720.528 823.193 756.293 662.690 756.137 341.805 472.252 243.547 424.048 174.569 132.292 276.377 262.895 210.511 680.869 470.360 559.272
238.723 395.771 303.649 187.898 359.241 244.894 192.462 387.405 333.511 337.163 89.234 246.833 371.310 234.149 399.270 348.111 270.859 234.304 130.755 481.790 252.088 258.907 460.011 443.523 249.169 589.816 392.302 428.858 159.909 507.943 180.953 181.449 225.544 255.972 182.216 121.924 448.422 351.454 356.164 286.025 236.441 385.949 176.690 102.052 304.522 193.023 196.665 324.502 522.045 225.137 602.398 306.597 209.746 187.889 602.074 546.533 175.721 273.639 120.065 363.329 122.483 266.624 415.506 238.658 535.578 267.005 557.451 224.247 241.154 372.679 319.485 290.265 218.814 319.729 211.745 592.111 285.377 339.237 373.459 358.859 134.668 261.944 297.238 218.606 416.117 197.833 327.986 235.111 370.422 380.505 491.580 560.670 437.459 629.643 186.641 383.780 661.075 460.441 267.104 265.319 226.236 407.442 240.940 565.898 460.166 415.727 300.243 469.225 160.596 311.376 442.180 502.856 485.240 359.629 0.000 505.333 321.717 238.649 148.737 285.811 515.254 506.785 346.959 339.001 356.707 659.250 476.573 465.659 299.792 381.466 227.822 524.051 351.868 475.763 608.938 445.840 414.859 366.206 158.137 336.087 295.265 485.408 522.502 598.328 258.100 306.371 232.220 350.987 472.751 322.138 227.382 373.387 505.012 533.078 302.863 677.457 619.751 552.851 459.248 605.102 209.780 233.933 297.815 227.689 385.631 278.906 367.195 358.693 337.013 477.427 418.336 320.954
408.395 514.112 359.776 590.762 568.838 395.169 601.993 442.466 639.686 591.381 501.664 632.004 524.632 475.459 412.917 456.241 680.390 386.285 543.687 555.386 637.260 406.362 549.731 580.824 483.192 354.765 226.185 570.189 476.882 51.162 593.885 402.348 421.574 641.143 585.080 534.855 451.524 650.041 354.977 450.573 445.907 469.818 433.494 535.389 697.433 605.954 503.132 407.513 65.264 435.909 524.157 691.768 506.011 502.923 421.524 497.279 573.429 464.061 460.537 684.961 532.015 463.178 459.272 472.680 521.233 488.559 410.181 375.106 443.667 238.458 371.509 511.819 508.951 657.624 400.682 350.495 519.399 451.366 271.206 257.893 562.915 495.967 558.159 458.205 310.628 500.937 737.517 453.257 234.853 286.562 70.929 119.161 830.371 935.818 538.048 793.311 582.834 601.772 488.658 678.251 648.122 816.973 364.052 159.030 548.025 721.902 685.415 881.691 493.918 277.929 166.732 121.727 100.661 744.800 560.128 0.000 289.951 390.631 529.705 670.982 58.472 522.663 529.971 265.596 578.262 581.009 214.898 84.530 598.379 248.858 657.333 70.989 656.419 65.896 530.697 831.012 286.189 379.853 509.544 745.618 680.436 513.362 90.876 506.220 443.536 362.497 418.847 486.557 885.682 620.725 640.313 786.318 62.800 529.511 319.624 649.285 177.472 121.225 303.076 424.552 619.311 385.915 710.408 435.323 778.542 664.077 671.746 771.624 749.944 52.057 640.993 428.667
225.301 367.984 102.868 367.175 412.229 138.261 350.018 287.804 456.593 434.773 251.783 436.177 372.078 292.365 266.790 271.060 428.415 136.404 320.099 409.258 441.432 182.774 403.604 438.727 300.098 319.694 91.311 424.062 260.017 226.175 370.297 152.466 238.480 445.316 361.493 311.268 305.397 464.860 208.850 265.392 222.320 315.231 209.907 311.801 493.866 382.367 296.774 222.333 240.278 186.028 413.796 495.941 282.423 308.246 386.200 374.642 354.998 207.607 210.656 501.867 282.133 280.085 313.145 289.587 397.986 303.378 341.578 151.519 220.080 75.839 114.601 326.638 256.565 474.531 177.095 310.463 336.306 288.873 84.785 66.152 339.328 312.873 379.521 236.734 187.992 317.843 485.543 229.670 119.071 91.831 178.418 278.902 626.804 752.725 349.546 541.337 472.473 455.645 303.477 454.664 417.752 564.999 114.171 272.979 425.388 538.808 489.587 629.716 270.331 85.227 129.018 189.694 203.472 548.973 334.253 223.565 0.000 140.749 283.043 475.155 233.486 376.536 353.542 46.287 393.081 470.648 194.806 152.497 413.198 133.076 419.338 210.889 471.238 192.747 420.336 635.184 163.552 233.726 321.043 493.644 484.609 367.235 240.734 395.859 186.628 105.589 168.966 308.034 642.311 435.544 416.726 542.948 215.360 406.875 173.497 526.648 337.983 271.083 169.865 389.228 364.908 136.033 458.434 211.736 574.975 468.250 486.565 528.254 505.667 195.660 467.823 172.212
298.580 443.228 65.000 341.120 485.509 42.723 286.514 361.083 470.361 474.013 208.679 410.122 445.358 350.983 370.381 344.339 364.911 102.835 294.044 490.250 415.377 187.944 478.848 513.971 366.004 455.158 226.774 499.306 264.619 361.639 344.242 130.264 302.029 419.261 335.438 285.212 409.729 488.304 313.182 338.672 280.928 388.510 257.902 285.746 467.811 356.312 301.375 295.612 375.741 163.825 541.489 469.886 297.182 304.723 521.664 485.624 328.943 144.103 167.551 515.636 239.029 353.364 391.605 355.492 502.318 376.658 477.041 197.918 278.688 211.302 80.835 399.917 181.454 483.018 197.720 445.926 394.320 362.152 187.206 188.175 296.571 378.779 434.088 295.342 306.162 314.667 422.039 288.278 254.534 194.251 313.882 414.365 580.192 766.493 323.491 477.833 600.166 530.889 376.757 428.608 374.648 501.495 144.473 408.442 510.805 552.577 463.532 566.212 264.264 186.629 264.481 325.157 338.935 522.918 291.149 359.028 135.463 0.000 239.939 449.100 368.949 480.868 426.821 168.309 466.360 598.341 330.269 287.961 436.642 268.026 376.234 346.353 488.718 328.211 548.029 609.129 299.015 337.316 294.988 430.140 458.553 461.507 376.197 531.322 91.090 67.721 146.763 381.313 578.807 458.988 377.874 479.444 350.823 517.922 273.973 637.696 473.446 406.547 305.329 524.692 301.404 80.533 394.930 270.344 528.363 442.194 504.046 464.750 442.163 331.123 541.103 108.708
206.866 376.038 265.166 204.553 359.525 206.411 202.893 355.943 333.794 337.446 102.564 273.555 351.577 214.416 365.240 328.379 281.290 195.821 157.477 462.057 278.810 220.424 440.278 423.791 229.437 555.786 354.099 409.125 128.052 473.913 207.675 142.966 193.687 282.694 198.871 148.646 414.392 351.737 322.134 266.293 202.411 366.216 142.660 149.179 331.244 219.745 164.808 290.472 488.015 186.654 568.368 333.319 175.716 168.156 568.044 512.503 192.376 235.156 81.582 379.069 132.914 246.891 386.465 218.925 515.449 247.272 523.421 190.217 207.124 334.195 281.001 270.532 180.330 346.451 175.326 558.080 257.753 319.505 334.976 320.376 176.706 242.212 297.521 186.749 382.087 178.100 338.417 201.081 336.392 342.021 453.097 526.639 464.181 629.926 186.924 394.211 627.045 440.708 247.371 292.041 261.913 417.873 206.909 531.868 440.433 416.010 326.965 482.590 127.697 272.893 403.696 464.373 451.209 386.351 154.582 471.302 283.234 200.166 0.000 312.533 481.223 487.052 332.382 300.517 336.975 625.220 442.543 427.176 300.075 347.436 270.119 485.568 352.152 441.733 574.908 472.562 380.829 332.176 158.421 346.518 321.986 456.367 488.471 564.297 219.617 267.887 193.737 331.254 495.185 322.421 254.104 395.822 470.982 513.345 268.832 657.724 585.720 518.821 425.218 571.072 220.211 195.450 311.308 195.832 412.353 305.628 367.479 381.128 358.541 443.397 418.619 282.470
379.265 408.126 486.150 155.952 345.417 427.395 264.125 444.135 229.125 322.873 270.882 111.845 383.665 290.336 494.456 402.166 208.560 416.805 214.513 494.144 79.529 419.612 472.366 433.647 365.136 692.816 539.927 368.568 300.451 655.568 230.119 363.950 366.086 83.412 195.485 214.868 556.604 272.809 476.952 367.417 378.816 433.367 324.315 228.286 92.338 161.911 337.207 425.063 669.670 407.638 614.144 108.070 357.371 328.430 700.161 603.096 214.717 456.140 302.566 164.802 304.131 348.015 462.924 354.625 525.701 328.536 655.538 371.872 388.779 520.911 493.669 322.631 401.315 183.368 359.369 699.196 401.344 386.655 521.692 507.091 190.468 377.911 315.717 359.148 541.257 338.374 212.044 382.736 518.047 528.737 639.813 708.294 225.276 433.089 253.917 442.127 717.229 427.367 348.495 253.734 204.079 290.430 388.564 713.523 450.290 259.430 101.717 294.296 308.221 459.608 590.412 651.089 632.865 161.102 288.798 652.957 469.949 421.150 331.238 0.000 662.878 519.140 354.946 487.233 395.823 715.404 624.198 613.892 290.300 529.091 213.844 672.284 208.102 623.388 665.092 247.314 562.484 475.523 225.413 335.857 96.738 532.826 670.126 660.135 440.601 488.871 414.721 398.405 305.283 318.265 196.270 205.920 652.637 523.201 450.487 667.580 767.376 700.476 606.873 703.189 281.443 416.434 190.494 368.231 173.447 58.982 223.429 191.226 159.137 625.052 414.542 503.455
352.681 458.398 323.787 535.049 513.125 359.179 548.903 386.753 583.973 535.668 448.574 576.291 468.918 419.745 357.204 400.527 627.300 333.196 487.973 499.672 581.546 350.648 494.018 525.111 427.478 344.070 170.472 514.476 421.169 57.008 538.171 349.258 365.860 585.430 529.367 479.141 395.811 594.327 299.264 394.859 390.194 414.104 377.780 479.675 641.719 550.241 447.419 351.800 64.132 382.819 480.719 636.055 450.297 447.210 410.829 441.565 517.716 423.286 407.226 629.247 478.925 407.465 403.559 416.967 465.519 432.845 399.486 319.393 387.953 184.819 335.520 456.105 455.861 601.911 344.968 339.800 463.686 395.653 290.343 204.255 507.202 440.253 502.445 402.492 254.915 445.223 684.428 397.544 179.139 297.388 110.983 125.007 774.657 880.105 482.334 740.222 539.396 546.059 432.945 622.537 592.408 763.884 310.962 148.335 492.311 666.189 629.701 826.443 438.204 224.291 145.492 161.781 134.198 689.087 504.415 76.131 253.962 337.541 473.991 615.269 0.000 466.950 474.258 229.606 522.548 537.571 159.185 124.585 542.665 193.144 601.619 133.083 600.705 102.433 487.259 775.298 230.475 324.140 453.831 692.529 624.722 457.649 46.341 462.782 407.546 326.508 365.758 430.844 829.969 565.011 584.600 730.605 98.533 473.798 263.910 593.571 169.494 102.594 247.362 413.857 566.221 332.825 655.033 379.609 722.828 608.364 616.032 715.911 694.231 70.948 585.280 387.892
285.781 214.477 448.464 420.449 235.121 459.627 550.363 175.398 429.240 257.664 450.035 452.206 190.915 320.265 149.815 189.991 612.101 412.559 442.799 80.002 457.461 415.387 251.326 137.724 327.998 269.674 361.618 162.346 321.689 477.259 450.338 428.621 298.960 461.345 414.767 433.968 195.528 332.861 249.109 246.255 355.259 164.040 366.994 434.501 517.634 505.067 358.445 223.830 491.361 433.997 187.938 511.970 434.364 347.730 277.019 176.890 393.631 547.807 394.233 414.268 480.385 288.933 114.539 317.487 76.671 290.296 232.396 346.843 367.462 361.360 442.484 284.672 492.982 461.263 366.955 272.990 364.206 160.869 436.792 352.842 462.028 340.773 267.662 335.591 290.219 345.744 637.340 362.608 339.738 443.838 471.819 529.985 650.572 686.302 358.249 741.682 291.023 193.929 288.771 577.364 547.235 715.726 375.902 489.256 109.438 481.717 505.616 719.592 377.007 305.359 463.278 523.954 454.556 565.002 459.241 474.648 385.050 416.904 428.818 491.184 484.569 0.000 239.474 344.299 333.642 289.198 445.889 486.758 303.007 350.782 556.446 520.459 355.893 445.079 238.886 651.213 317.639 191.286 329.746 693.989 500.637 72.964 491.817 233.929 507.994 451.185 445.121 196.060 730.579 303.104 539.426 631.216 474.328 120.284 294.241 241.374 589.067 522.167 428.564 280.047 567.681 412.189 609.859 344.674 598.743 484.278 334.309 616.522 584.434 446.743 336.607 524.219
232.838 129.269 444.982 292.247 108.492 408.082 439.383 169.578 267.365 131.035 339.054 299.658 104.808 209.285 219.899 127.609 481.309 395.215 327.848 215.287 304.914 370.516 193.508 177.021 217.018 436.190 392.823 162.356 210.709 508.464 330.241 344.637 229.997 308.797 294.671 319.017 282.047 181.175 254.782 174.770 286.296 158.810 290.328 319.550 365.087 387.538 247.465 185.367 522.566 378.858 357.518 359.423 323.384 236.750 443.535 346.470 273.888 436.827 283.253 312.599 369.405 188.510 188.367 206.507 269.075 165.269 398.912 315.148 298.500 397.226 439.002 102.750 382.001 287.769 317.292 442.570 253.226 112.098 453.109 384.047 347.077 229.793 61.142 266.629 337.720 234.763 484.793 293.646 370.943 460.154 503.024 561.190 498.025 563.497 238.506 630.702 460.604 193.939 172.345 459.834 429.706 563.179 333.897 566.419 193.664 349.580 353.069 567.045 266.026 336.564 494.483 555.159 485.761 412.454 348.261 505.853 401.366 399.561 317.837 338.637 515.774 240.282 0.000 375.504 183.452 458.779 477.094 517.963 129.513 381.987 438.916 551.664 258.736 476.284 408.466 498.666 376.147 200.966 210.003 583.009 348.090 258.269 523.023 403.509 421.287 447.703 395.408 123.848 578.032 151.859 421.897 478.668 505.533 266.576 288.420 410.955 620.272 553.372 459.769 446.563 456.701 394.845 463.243 275.712 446.196 331.731 234.700 463.974 431.886 477.948 134.772 484.141
215.981 321.698 129.599 366.408 376.424 164.992 351.345 250.052 447.272 398.967 251.016 435.410 332.218 283.045 220.503 263.827 429.742 135.637 319.333 362.972 440.666 182.008 357.317 392.441 290.778 324.053 95.669 377.775 259.251 230.534 369.531 151.700 229.160 444.549 360.727 310.501 259.110 457.627 162.563 258.159 221.554 277.404 209.140 311.035 493.099 381.601 296.007 215.099 244.637 185.261 390.870 495.174 281.657 307.480 375.839 335.006 354.231 240.750 209.889 492.547 281.367 270.764 266.858 280.266 351.700 296.145 331.216 150.752 219.313 78.199 123.619 319.405 258.303 465.210 176.328 314.822 326.985 258.952 117.928 46.668 338.561 303.553 365.745 235.967 155.543 308.523 486.869 228.903 106.364 124.973 182.777 283.261 626.037 743.404 345.634 542.663 449.548 409.358 296.244 453.897 416.986 566.325 113.404 277.338 385.817 529.488 488.821 631.043 269.564 38.940 133.376 194.053 207.831 548.206 333.487 227.924 66.185 139.983 282.277 474.388 237.845 330.249 337.557 0.000 385.848 447.723 199.164 156.856 405.965 117.408 418.571 215.248 464.005 197.106 397.410 634.418 150.801 187.439 317.130 494.970 483.842 320.948 245.093 385.498 213.359 132.321 168.199 294.143 643.638 428.311 415.959 544.274 219.718 367.304 127.210 487.077 342.342 275.442 174.224 378.867 368.663 135.267 459.760 210.969 574.208 467.483 479.332 529.580 506.994 200.018 448.579 205.354
206.746 169.773 418.890 254.879 145.976 381.990 413.291 170.719 241.522 141.041 312.962 273.816 145.312 180.644 221.040 128.750 449.098 369.123 282.021 255.792 279.071 344.424 234.013 217.526 190.926 476.695 383.154 202.860 184.617 498.795 284.768 318.545 203.906 282.954 249.198 273.189 283.188 155.332 255.923 148.678 260.205 159.951 264.236 273.723 339.244 342.065 221.373 186.508 512.898 352.766 398.023 333.580 297.292 210.658 484.040 386.975 228.061 410.735 257.161 286.756 343.313 162.419 189.508 180.415 309.580 119.441 439.417 289.057 272.408 387.557 412.910 56.923 355.910 261.926 291.200 483.075 227.134 113.239 427.017 374.378 301.250 203.701 69.993 240.537 338.861 208.671 458.950 267.554 361.275 434.062 493.356 551.522 472.182 537.654 192.679 604.610 501.108 234.443 146.253 414.361 384.232 537.336 307.805 556.751 234.168 323.738 327.226 541.202 239.935 326.895 484.815 545.491 476.092 386.611 304.107 496.185 375.275 373.469 291.746 312.794 506.106 280.787 100.108 365.836 0.000 499.283 467.426 508.294 103.670 372.319 393.443 541.996 232.894 466.616 448.971 472.823 377.289 202.107 164.176 556.917 322.247 259.410 513.354 444.014 395.196 421.611 369.316 124.989 552.189 126.016 376.424 452.826 495.864 307.080 268.973 451.459 610.603 543.703 450.100 487.068 430.609 368.753 437.400 249.620 420.353 305.888 208.857 438.132 406.043 468.280 181.637 458.050
464.458 473.831 545.729 656.312 445.734 556.892 717.953 434.752 639.853 468.277 617.624 688.068 401.528 531.522 341.127 449.345 781.932 509.824 612.631 353.206 693.323 527.276 510.679 354.182 539.255 289.077 423.620 372.959 532.946 534.973 662.829 525.886 477.637 697.207 650.630 603.799 332.887 543.474 363.766 489.311 514.852 423.393 502.438 604.333 742.413 674.899 559.196 446.252 549.075 559.448 101.851 736.748 574.955 558.987 218.163 136.875 629.493 656.879 551.494 624.881 647.974 519.242 373.892 528.744 294.591 527.297 172.147 476.507 512.611 416.196 539.749 528.280 632.489 671.876 502.399 291.470 575.463 420.223 532.794 435.631 631.860 552.030 486.672 514.269 345.055 557.000 839.059 522.202 411.947 539.840 529.534 587.700 875.350 892.547 594.111 909.271 30.426 383.069 527.396 747.195 717.066 918.515 487.591 476.412 296.446 692.329 730.394 944.370 562.862 402.624 523.120 583.797 512.270 789.780 629.073 532.363 482.315 514.169 598.649 715.962 542.284 324.593 453.945 441.564 587.295 0.000 503.603 546.600 513.620 413.359 726.277 578.173 566.506 502.793 50.268 875.991 372.476 382.218 565.608 861.578 725.416 332.317 549.532 129.243 605.259 548.450 542.386 455.414 954.627 513.717 709.258 855.263 532.042 283.288 423.904 281.207 646.781 579.881 489.814 199.254 735.271 509.453 779.690 504.267 823.521 709.057 544.922 840.569 809.212 504.457 547.220 621.484
422.731 528.447 393.836 605.098 583.174 429.229 618.953 456.802 654.022 605.717 518.624 646.340 538.968 489.795 427.253 470.576 697.350 403.245 558.022 569.721 651.596 420.698 564.067 595.160 497.527 382.947 240.521 584.525 491.218 63.163 608.221 419.307 435.910 655.479 599.416 549.191 465.860 664.377 369.313 464.909 460.243 484.154 447.830 549.724 711.769 620.290 517.468 421.849 77.266 452.869 550.768 706.104 520.346 517.259 449.706 511.615 587.765 493.335 477.275 699.297 548.975 477.514 473.608 487.016 535.569 502.895 438.363 389.442 458.003 254.869 405.569 526.154 525.910 671.960 415.018 378.677 533.735 465.702 317.721 274.304 577.251 510.303 572.495 472.541 324.964 515.273 754.477 467.593 249.189 333.078 117.445 131.162 844.706 950.154 552.383 810.271 609.446 616.108 502.994 692.587 662.458 833.933 381.012 187.212 562.361 736.238 699.751 896.492 508.254 294.340 213.248 168.243 147.177 759.136 574.464 60.553 324.011 407.590 544.041 685.318 70.474 536.999 544.307 299.656 592.597 607.621 0.000 131.046 612.715 263.194 671.669 117.505 670.755 112.412 557.308 845.348 300.525 394.189 523.880 762.578 694.772 527.698 102.877 532.832 477.596 396.557 435.807 500.893 900.018 635.061 654.649 800.654 109.316 543.847 333.960 663.621 189.473 133.227 317.412 452.734 636.271 402.875 725.082 449.659 792.878 678.413 686.082 785.960 764.280 98.573 655.329 457.941
393.982 499.699 314.354 571.635 554.425 349.747 556.572 428.054 625.274 576.969 456.243 617.591 510.219 461.046 398.505 441.828 634.969 340.864 524.560 540.973 622.847 387.235 535.318 566.731 468.779 341.543 185.569 555.776 462.469 104.093 574.758 356.926 407.161 626.730 565.953 515.728 437.112 635.628 340.564 436.160 426.780 455.405 414.367 516.262 683.020 586.827 488.719 393.100 118.195 390.488 510.935 677.356 486.883 488.510 408.302 483.185 559.016 418.640 415.116 670.548 486.594 448.766 444.859 458.268 507.139 474.146 396.959 355.979 424.540 193.036 326.088 497.406 463.529 643.212 381.555 337.273 504.987 436.953 225.784 212.472 543.788 481.554 543.746 441.194 296.535 486.524 692.096 434.130 220.440 241.141 45.407 162.869 815.958 921.406 523.635 747.890 569.612 587.360 474.245 659.124 622.212 771.552 318.631 145.808 533.931 707.489 671.002 836.269 474.791 232.508 121.311 37.197 87.439 730.387 538.714 101.483 244.530 345.209 487.504 656.570 111.404 508.250 515.558 220.174 563.849 567.788 176.561 0.000 583.966 234.445 623.798 77.869 642.006 61.003 517.475 816.599 272.095 365.441 495.131 700.197 666.023 498.949 124.701 492.999 398.114 317.076 373.426 472.144 848.865 606.312 621.186 749.501 67.004 515.418 305.211 635.191 221.950 155.050 287.063 411.330 573.890 340.494 664.987 416.196 764.129 649.664 657.333 734.807 712.220 56.261 626.581 383.246
247.523 161.848 459.667 240.722 79.613 409.266 432.547 206.880 168.370 57.070 332.219 233.253 137.387 178.229 257.201 164.911 402.834 398.676 279.606 247.867 233.545 385.200 226.088 209.600 231.703 468.769 423.931 157.368 225.393 539.572 278.716 345.821 244.682 237.428 243.146 270.775 319.349 51.688 292.084 212.072 300.981 196.112 305.013 271.308 286.613 335.208 262.150 222.669 553.675 389.509 390.098 280.948 338.069 251.435 476.114 379.050 225.646 438.011 284.437 187.623 362.569 203.195 225.669 221.192 301.655 147.895 431.492 329.833 313.185 428.334 453.686 85.376 383.185 192.754 331.977 475.150 267.911 149.400 467.794 415.155 298.835 244.478 78.462 281.314 375.022 249.448 406.318 308.331 402.051 474.839 534.133 592.299 419.550 459.658 190.264 623.866 493.183 216.167 186.811 407.504 377.376 484.704 348.581 597.528 226.243 250.586 274.594 488.571 280.711 367.672 525.591 586.268 516.869 333.980 301.692 536.962 416.051 403.021 313.109 260.162 546.883 272.862 108.668 406.612 188.462 491.358 508.202 549.071 0.000 413.095 386.586 582.772 129.249 507.393 441.046 420.191 413.449 238.268 161.761 530.131 269.616 293.689 554.131 436.089 422.472 462.388 396.592 161.150 499.558 48.192 369.567 400.194 536.641 299.155 309.749 443.534 651.380 584.480 490.877 479.142 449.865 398.305 384.768 290.397 367.722 253.257 105.213 385.500 353.412 509.056 168.264 485.326
200.078 305.795 210.269 382.446 360.522 227.661 396.301 234.150 431.370 383.065 295.972 423.688 316.316 267.143 204.601 247.924 474.698 180.593 335.370 347.069 428.944 198.045 341.415 376.538 274.875 278.628 66.898 361.873 268.566 182.540 385.568 196.655 213.257 432.827 376.764 326.539 243.208 441.725 146.661 242.257 237.591 261.502 225.178 327.072 489.117 397.638 294.816 199.197 196.642 230.217 374.968 483.452 297.694 294.607 346.941 319.104 365.113 309.767 254.623 476.645 326.323 254.862 250.956 264.364 335.798 280.243 302.318 166.790 235.351 71.301 210.518 303.502 303.258 449.308 192.366 269.397 311.083 243.050 176.825 72.229 354.599 287.651 349.843 249.889 133.890 292.621 531.825 244.941 37.495 183.870 177.100 235.266 622.054 727.502 329.731 587.619 433.646 393.456 280.342 469.935 439.806 611.281 158.360 240.495 369.915 513.586 477.098 673.840 285.602 73.393 168.559 229.235 159.836 536.484 351.812 179.929 140.444 184.938 321.389 462.666 189.850 314.347 321.655 108.089 369.945 431.821 151.170 192.038 390.063 0.000 449.017 225.740 448.103 150.360 381.508 622.696 126.657 171.537 301.228 539.926 472.120 305.046 197.098 358.964 276.028 212.990 213.155 278.241 677.366 412.408 431.997 578.002 179.608 351.402 111.308 471.175 294.347 227.447 133.844 349.969 413.619 180.223 502.430 227.007 570.226 455.761 463.430 563.308 541.628 152.024 432.677 274.374
323.467 472.516 403.254 185.996 419.759 344.499 155.600 472.148 367.277 397.680 179.650 206.466 448.055 318.893 491.097 432.855 104.299 333.909 158.715 558.535 192.632 363.814 536.756 520.269 333.913 681.643 484.129 497.979 244.653 599.770 202.533 281.053 310.288 183.822 200.464 159.070 540.249 410.961 447.991 370.769 323.018 470.693 268.517 172.488 192.668 89.981 281.409 416.329 613.872 324.742 694.225 246.223 301.573 272.632 693.901 638.360 208.831 372.052 246.768 302.955 212.899 351.368 500.250 323.402 612.323 351.749 649.278 316.074 332.981 465.113 419.089 364.669 317.330 292.559 303.571 683.937 370.121 423.981 465.894 451.293 134.670 346.688 357.755 303.350 507.944 282.576 161.427 326.938 462.249 472.939 584.015 652.496 309.459 571.241 271.384 337.867 752.902 537.186 351.848 185.612 27.920 240.883 332.766 657.725 536.911 397.582 239.869 304.548 252.423 403.810 534.614 595.291 577.067 299.254 226.212 597.159 414.151 338.254 275.440 225.437 607.080 583.530 407.477 431.435 437.861 751.077 568.400 558.094 360.310 473.293 0.000 616.486 346.254 567.590 700.765 362.971 506.686 458.033 242.881 231.596 234.890 570.152 614.329 690.155 357.704 405.975 331.825 435.731 308.074 382.655 51.483 208.711 596.839 609.823 394.690 754.202 711.578 644.678 551.075 696.929 172.918 333.538 125.329 312.433 257.630 194.436 361.581 194.017 172.337 569.254 478.853 419.079
426.418 532.135 370.892 608.786 586.862 406.285 613.109 460.490 657.710 609.405 512.780 650.028 542.656 493.483 430.941 474.264 691.506 397.401 561.710 573.409 655.284 424.385 567.755 598.848 501.215 372.789 242.106 588.213 494.906 78.748 611.908 413.464 439.597 659.167 603.104 552.879 469.548 668.065 373.001 468.597 463.931 487.842 451.518 553.412 715.457 623.978 521.156 425.537 92.850 447.025 542.181 709.792 524.034 520.947 439.548 515.302 591.453 475.178 471.653 702.985 543.131 481.202 477.296 490.704 539.257 506.583 428.205 393.130 461.691 249.574 382.625 529.842 520.067 675.648 418.706 368.519 537.423 469.390 282.322 269.009 580.939 513.991 576.183 476.229 328.652 518.961 748.634 471.281 252.877 297.678 88.661 126.274 848.394 953.842 556.071 804.428 600.858 619.796 506.682 696.275 666.146 828.090 375.168 177.054 566.049 739.926 703.438 892.807 511.942 289.045 177.848 130.996 118.685 762.824 578.152 89.840 301.067 401.747 544.041 689.006 86.059 540.687 547.995 276.712 596.285 599.033 232.922 93.799 616.403 266.881 675.357 0.000 674.443 83.920 548.721 849.036 304.213 397.877 527.568 756.735 698.460 531.386 118.462 524.244 454.652 373.613 429.964 504.581 903.706 638.748 658.337 804.342 80.824 547.535 337.648 667.309 197.852 148.811 321.100 442.576 630.427 397.031 721.525 453.347 796.566 682.101 689.770 789.648 767.968 70.081 659.017 439.784
315.633 244.047 516.480 260.840 137.315 457.725 387.470 289.079 113.124 114.772 375.770 217.697 198.723 231.801 339.400 247.110 331.905 447.135 319.402 295.753 185.381 449.942 308.287 225.545 299.813 484.714 492.041 160.466 293.503 607.682 321.903 394.280 312.792 189.265 286.333 319.234 401.548 64.707 374.283 290.707 369.091 278.311 354.645 319.767 215.683 285.256 330.260 304.868 621.784 437.968 406.043 210.019 387.701 319.544 492.059 394.994 269.199 486.470 332.896 98.151 409.019 271.305 307.868 289.301 317.599 230.093 447.436 397.943 381.294 496.444 521.796 167.575 431.644 202.251 389.699 491.095 336.020 231.599 535.903 483.265 295.356 312.588 160.661 349.424 457.221 317.558 335.389 376.441 470.161 542.949 602.242 660.409 348.621 370.186 233.817 565.473 509.128 219.265 269.009 377.079 327.424 413.775 416.691 665.637 242.188 165.600 203.665 417.641 338.551 435.782 593.701 654.377 584.979 263.051 350.151 605.072 484.161 451.480 361.568 189.233 614.993 326.162 190.866 474.722 270.661 507.303 576.312 617.181 82.199 481.205 337.189 650.882 0.000 575.502 456.991 349.262 495.648 320.467 205.313 459.202 198.686 346.990 622.241 452.034 470.931 519.201 445.051 243.349 428.628 111.080 319.615 329.265 604.751 315.100 377.859 459.479 719.490 652.590 558.987 495.087 404.788 446.764 313.839 358.507 296.792 182.327 15.327 314.571 282.483 577.166 250.463 533.785
388.590 494.307 339.971 570.958 549.034 375.364 582.189 422.662 619.882 571.577 481.860 612.200 504.828 455.654 393.113 436.436 660.586 366.481 523.882 535.581 617.456 386.557 529.927 561.020 463.387 334.961 206.381 550.385 457.078 63.023 574.080 382.543 401.769 621.339 565.276 515.051 431.720 630.237 335.173 430.768 426.103 450.014 413.690 515.584 677.629 586.150 483.328 387.709 77.126 416.105 504.353 671.964 486.206 483.119 401.720 477.474 553.625 444.257 440.733 665.157 512.211 443.374 439.468 452.876 501.429 468.755 390.376 355.302 423.863 218.653 351.705 492.014 489.146 637.820 380.878 330.691 499.595 431.562 251.401 238.089 543.111 476.162 538.355 438.401 290.824 481.133 717.713 433.453 215.048 266.758 51.125 131.022 810.566 916.014 518.243 773.507 563.030 581.968 468.854 658.447 628.318 797.169 344.248 139.226 528.221 702.098 665.610 861.886 474.114 258.125 146.928 101.922 80.857 724.996 540.324 60.413 270.147 370.826 509.901 651.178 70.334 502.859 510.167 245.791 558.457 561.205 195.094 64.726 578.575 229.053 637.529 87.209 636.614 0.000 510.893 811.207 266.384 360.049 489.740 725.814 660.632 493.558 102.738 486.416 423.731 342.693 399.043 466.753 865.878 600.920 620.509 766.514 38.674 509.707 299.820 629.481 189.333 133.087 283.272 404.748 599.507 366.111 690.604 415.519 758.738 644.273 651.942 751.820 730.140 15.191 621.189 408.863
414.191 423.563 495.461 606.044 395.466 506.624 667.685 384.484 589.585 418.010 567.356 637.800 351.260 481.255 290.859 399.077 731.664 459.556 562.363 302.938 643.056 477.009 460.412 303.915 488.988 238.809 373.352 322.691 482.678 484.705 612.561 475.619 427.370 646.939 600.362 553.532 282.619 493.207 313.498 439.043 464.584 373.126 452.171 554.065 692.145 624.631 508.928 395.984 498.808 509.180 51.584 686.480 524.687 508.719 167.895 86.607 579.225 606.611 501.226 574.613 597.707 468.974 323.625 478.476 244.324 477.030 121.880 426.239 462.344 365.928 489.481 478.013 582.222 621.609 452.131 241.202 525.195 369.955 482.527 385.364 581.592 501.763 436.404 464.001 294.787 506.733 788.792 471.934 361.680 489.572 479.266 537.432 825.083 842.279 543.843 859.003 52.137 332.801 477.129 696.928 666.799 868.248 437.323 426.144 246.178 642.062 680.127 894.103 512.595 352.356 472.853 533.529 462.002 739.512 578.805 482.095 432.047 463.902 548.382 665.694 492.016 274.325 403.678 391.296 537.027 50.312 453.336 496.332 463.352 363.091 676.010 527.906 516.239 452.526 0.000 825.724 322.208 331.950 515.340 811.310 675.148 282.050 499.264 78.976 554.991 498.182 492.118 405.146 904.359 463.450 658.990 804.995 481.774 233.021 373.637 230.940 596.513 529.613 439.547 148.986 685.003 459.186 729.423 454.000 773.254 658.789 494.654 790.301 758.944 454.190 496.952 571.216
547.619 576.480 654.504 324.306 513.771 595.749 406.592 612.489 397.479 491.227 439.236 280.199 552.019 458.690 662.810 570.520 348.818 585.159 382.867 662.498 247.883 587.966 640.720 602.001 533.490 861.170 708.281 536.922 468.805 823.922 398.473 532.304 534.440 251.766 363.839 383.222 724.958 441.163 645.306 535.771 547.170 601.721 492.669 396.640 211.752 337.576 505.561 593.417 838.024 575.992 782.498 171.945 525.725 496.784 868.515 771.450 383.071 623.031 470.920 333.156 472.485 516.369 631.278 522.979 694.055 496.890 823.892 540.226 557.133 689.265 662.023 490.985 569.669 351.722 527.723 867.550 569.698 555.009 690.046 675.445 358.822 546.265 484.071 527.502 709.611 506.728 270.665 551.090 686.401 697.091 808.167 876.648 138.217 444.884 422.271 483.978 885.583 595.721 516.849 429.399 379.744 325.160 556.918 881.877 618.644 427.784 215.838 286.908 476.575 627.962 758.766 819.443 801.219 187.539 457.152 821.311 638.303 589.504 499.592 251.734 831.232 687.494 523.300 655.587 564.177 883.758 792.552 782.246 458.654 697.445 389.509 840.638 376.456 791.742 833.446 0.000 730.838 643.877 393.767 432.223 203.998 701.180 838.480 828.489 608.955 657.225 583.075 566.759 359.452 486.619 371.935 290.096 820.991 691.555 618.841 835.934 935.730 868.830 775.227 871.543 423.910 584.788 326.892 536.585 135.992 244.829 391.783 290.493 290.817 793.406 582.896 670.058
269.871 363.156 258.873 452.238 417.882 294.266 466.093 291.511 501.162 440.426 365.764 493.480 373.676 336.935 261.962 317.717 544.490 250.385 405.163 375.436 498.736 267.838 398.775 376.413 344.668 248.329 124.101 401.034 338.358 235.455 455.361 266.448 283.050 502.619 446.556 396.331 287.030 502.638 204.021 312.049 307.384 318.862 294.970 396.865 558.909 467.431 364.608 268.989 249.557 300.009 332.021 553.244 367.487 364.399 304.425 292.867 434.905 363.612 324.416 546.437 396.115 324.654 308.316 334.156 316.821 350.035 259.803 236.582 305.143 116.678 270.606 373.295 373.051 519.101 262.158 239.097 380.875 300.410 233.276 136.113 424.391 357.443 407.203 319.681 82.805 362.413 601.617 314.733 105.390 240.321 230.015 288.181 691.847 797.294 399.524 657.411 390.698 430.236 350.134 539.727 509.598 681.073 228.152 269.472 343.613 583.378 546.891 743.632 355.394 143.185 223.602 284.278 212.751 606.276 421.605 232.844 189.048 254.731 391.181 532.458 242.765 346.823 379.015 164.693 439.738 388.873 204.085 247.081 450.977 106.802 518.809 278.655 517.895 203.275 338.561 692.488 0.000 228.898 371.020 609.718 541.912 342.468 250.013 314.084 342.633 261.594 282.947 335.601 747.158 473.322 501.789 647.794 232.523 325.100 181.100 444.873 347.262 280.362 190.296 307.453 483.411 250.015 572.222 296.799 640.018 525.553 533.222 633.100 611.421 204.939 490.038 328.217
172.005 152.276 296.721 346.970 207.003 307.884 425.500 80.631 377.949 229.546 325.171 378.726 162.797 239.069 66.386 118.653 489.479 260.816 320.178 187.672 383.982 252.598 187.896 223.019 246.802 336.439 209.875 208.354 240.493 325.516 370.376 276.879 185.184 387.865 341.288 311.347 117.561 291.759 71.834 174.917 222.399 107.983 209.985 311.880 444.155 382.446 266.743 126.533 339.619 276.988 326.755 438.490 282.502 266.534 348.698 278.820 320.151 407.872 259.041 423.183 355.522 215.454 89.028 236.291 211.927 216.816 304.075 184.054 220.158 214.278 290.741 213.334 357.789 398.353 209.946 345.671 283.010 89.531 285.050 201.099 339.407 259.577 196.324 221.816 154.772 264.548 546.607 229.749 187.995 292.095 320.077 378.243 577.092 674.081 284.769 616.818 393.362 239.937 216.915 454.742 424.614 626.062 213.112 383.472 219.853 460.164 432.137 646.113 270.409 153.616 311.535 372.212 302.813 491.522 336.620 322.906 233.307 265.162 306.196 417.704 332.827 190.476 168.136 192.556 262.304 391.537 294.146 335.015 240.097 199.039 433.824 368.716 369.320 293.337 341.225 577.734 193.200 0.000 256.266 569.125 427.158 152.844 340.075 330.614 356.251 299.443 293.379 124.722 657.100 262.443 416.805 557.736 322.585 260.417 131.452 380.191 437.324 370.424 276.821 351.726 442.818 260.446 487.238 211.815 525.264 410.799 345.284 543.042 510.954 295.000 279.158 372.476
191.413 258.768 311.167 90.704 206.011 252.412 275.693 272.425 180.280 183.932 175.364 122.460 234.307 90.964 322.746 230.456 284.922 241.821 122.752 344.786 127.716 244.629 323.008 306.520 175.593 553.230 364.943 284.230 125.467 480.584 120.592 188.966 188.573 131.599 85.022 113.920 384.894 198.223 305.241 195.706 203.832 261.657 149.331 114.454 187.889 177.889 162.223 253.353 494.687 232.655 487.018 182.224 182.388 153.447 565.488 475.970 63.885 281.157 127.583 225.555 205.715 176.305 291.214 165.082 398.575 156.826 520.866 196.888 213.796 345.928 318.686 150.921 226.331 188.569 184.386 562.461 211.801 214.945 346.708 332.108 141.981 188.368 144.007 184.165 369.547 163.391 307.594 207.753 343.064 353.754 464.830 533.311 320.826 476.412 28.503 467.012 590.103 323.438 176.785 250.185 220.057 385.981 213.581 538.540 323.163 262.496 175.871 389.847 133.238 284.625 415.429 476.105 457.881 235.256 144.838 477.974 294.966 246.167 156.254 161.438 487.895 369.782 193.729 312.250 224.113 588.278 449.215 438.908 146.561 354.108 229.267 497.301 198.637 448.405 537.966 321.468 387.501 303.813 0.000 412.219 170.892 361.116 495.143 533.009 265.617 313.888 239.738 226.695 400.834 168.907 212.248 301.470 477.653 396.075 275.504 540.454 592.392 525.492 431.889 568.517 293.011 241.451 282.681 193.248 268.998 154.533 213.965 286.776 254.688 450.069 265.105 328.471
475.242 644.415 465.851 358.864 590.272 407.096 141.296 624.319 473.981 567.729 248.194 345.646 619.954 482.793 633.617 596.755 123.320 396.505 331.583 730.433 324.384 440.609 708.655 678.503 497.813 774.850 554.784 613.423 396.428 681.452 375.401 343.650 462.063 323.002 373.332 331.938 682.768 517.664 590.510 534.669 470.787 634.593 411.036 345.356 295.721 266.657 433.184 558.848 695.554 387.339 828.437 344.438 444.092 436.532 813.406 772.573 381.699 394.348 334.801 409.658 268.345 515.267 654.841 487.302 770.557 515.649 768.783 458.593 475.501 534.880 481.686 537.537 379.927 428.224 410.417 765.619 526.130 587.881 528.111 521.060 307.538 510.588 530.623 455.126 593.110 446.476 168.108 469.458 543.931 535.156 653.782 734.178 348.084 669.457 444.252 146.770 887.115 672.223 515.748 358.480 214.506 164.482 419.762 739.407 695.145 504.285 338.084 208.559 396.073 473.577 604.381 665.058 658.748 397.470 377.624 678.841 476.369 400.851 350.670 332.140 688.762 755.428 580.345 501.202 605.351 885.290 650.082 627.861 533.178 554.975 227.173 686.253 452.957 649.272 834.977 401.597 588.368 600.552 415.749 0.000 333.105 724.743 696.010 823.065 402.863 468.572 394.422 599.631 358.681 555.523 202.448 302.419 678.520 768.057 537.209 912.436 793.259 726.360 632.626 816.434 181.971 396.135 198.257 464.209 294.043 297.489 468.285 287.725 213.842 650.936 651.721 441.375
368.554 396.723 475.440 145.241 334.014 416.685 257.959 433.425 215.892 311.470 260.172 101.134 372.262 279.626 483.745 391.455 200.185 406.094 203.803 482.742 68.818 408.902 460.963 422.244 354.425 681.413 529.216 357.165 289.740 644.857 219.409 353.239 355.375 72.702 184.775 204.158 545.893 261.406 466.241 356.706 368.105 422.656 313.604 217.575 77.419 168.693 326.496 414.352 658.960 396.928 602.741 36.152 346.661 317.720 688.758 591.693 204.007 445.430 291.856 153.400 293.421 337.305 452.214 343.914 514.298 317.825 644.135 361.161 378.069 510.201 482.959 311.920 390.604 171.965 348.659 687.793 390.633 375.945 510.981 496.381 179.757 367.200 305.007 348.438 530.547 327.664 196.890 372.026 507.337 518.027 629.103 697.584 178.299 369.609 243.206 433.753 705.826 415.964 337.785 260.516 210.861 275.276 377.854 702.813 438.887 248.027 46.259 279.142 297.511 448.898 579.702 640.378 622.154 72.043 278.088 642.247 459.239 410.440 320.527 72.670 652.168 507.737 343.543 476.523 385.112 704.002 613.488 603.181 278.898 518.381 220.626 661.574 196.699 612.678 653.689 175.395 551.774 464.812 214.703 327.482 0.000 522.115 659.416 648.732 429.890 478.161 404.011 387.694 301.966 306.862 203.052 211.061 641.926 511.798 439.777 656.178 756.665 689.765 596.162 691.786 275.277 405.724 177.020 357.521 158.528 65.764 212.026 196.367 143.984 614.342 403.139 492.744
261.389 190.085 406.945 396.057 244.812 418.108 525.971 151.006 421.219 267.355 425.642 427.814 200.606 295.873 125.423 165.599 587.708 371.040 418.407 74.397 433.069 388.492 226.934 153.590 303.606 248.521 320.098 187.378 297.297 435.740 425.945 387.102 274.568 436.952 390.375 409.576 156.592 335.029 214.979 221.863 330.866 139.648 342.602 410.109 493.242 480.675 334.053 199.438 449.842 409.605 201.370 487.578 409.972 323.338 255.866 181.685 369.239 518.095 369.841 439.300 455.993 264.541 90.147 293.095 62.298 265.904 211.243 322.451 343.070 324.501 400.965 260.280 468.589 441.624 342.563 251.837 339.814 136.477 395.273 311.323 437.636 316.381 243.270 311.199 250.648 321.351 612.948 338.216 298.219 402.319 430.300 488.466 626.180 711.334 333.857 717.290 296.227 218.961 264.379 552.972 522.843 691.334 348.807 468.103 134.470 503.435 481.224 695.200 352.615 263.840 421.759 482.435 413.036 540.609 434.849 433.129 343.531 375.385 404.426 466.792 443.050 40.847 215.082 302.780 309.250 294.402 404.370 445.238 283.367 309.263 532.054 478.940 380.925 403.560 244.090 626.821 289.075 166.893 305.353 669.597 476.245 0.000 450.298 233.480 466.475 409.666 403.602 171.668 706.187 305.713 515.034 606.824 432.808 135.033 269.849 254.806 547.547 480.648 387.045 258.894 543.289 370.669 585.467 320.282 574.351 459.886 359.341 592.130 560.041 405.224 316.967 482.700
354.319 460.035 325.424 536.686 514.762 360.817 550.541 388.390 585.610 537.305 450.212 577.928 470.556 421.383 358.841 402.164 628.938 334.833 489.610 501.309 583.184 352.286 495.655 526.748 429.115 337.470 172.109 516.113 422.806 55.136 539.809 350.895 367.498 587.067 531.004 480.779 397.448 595.965 300.901 396.497 391.831 415.742 379.418 481.312 643.357 551.878 449.056 353.437 28.066 384.457 482.356 637.692 451.934 448.847 404.230 443.203 519.353 424.923 408.863 630.885 480.563 409.102 405.196 418.604 467.157 434.483 392.886 321.030 389.591 186.457 337.157 457.742 457.498 603.548 346.606 333.200 465.323 397.290 291.980 205.892 508.839 441.891 504.083 404.129 256.552 446.861 686.065 399.181 180.777 299.026 122.573 123.135 776.294 881.742 483.971 741.859 541.034 547.696 434.582 624.175 594.046 765.521 312.600 141.736 493.949 667.826 631.339 828.080 439.842 225.928 147.129 176.938 127.599 690.724 506.052 74.260 255.599 339.178 475.629 616.906 30.402 468.587 475.895 231.244 524.185 539.209 160.822 139.741 544.303 194.782 603.257 131.212 602.343 95.833 488.896 776.936 232.113 325.777 455.468 694.166 626.360 459.286 0.000 464.420 409.184 328.145 367.395 432.481 831.606 566.649 586.237 732.242 113.689 475.435 265.548 595.209 123.153 56.253 249.000 407.258 567.859 334.463 656.670 381.247 724.466 610.001 617.670 717.548 695.868 86.104 586.917 389.529
417.860 429.887 492.901 609.714 401.790 504.065 670.258 390.807 595.909 424.333 569.929 641.470 357.583 484.924 297.182 405.400 734.237 456.997 564.936 309.262 646.725 474.449 466.735 310.238 492.657 236.250 370.793 329.015 486.348 482.146 615.134 473.059 431.039 650.609 604.032 556.105 288.943 499.530 319.822 445.367 467.157 379.449 454.743 556.638 698.468 627.204 512.598 402.307 496.248 506.620 83.346 692.804 527.260 512.389 165.336 92.930 582.895 604.052 503.799 580.936 600.280 472.644 329.948 482.146 250.647 483.353 119.320 428.812 464.916 363.369 486.921 484.336 579.662 627.932 454.704 238.643 528.865 376.278 479.967 382.804 584.165 505.432 442.728 467.671 292.227 510.403 791.365 474.507 359.120 487.013 476.706 534.872 831.406 848.602 547.513 861.576 142.023 339.124 483.452 699.500 669.372 870.821 434.763 423.585 252.502 648.385 686.450 900.426 515.167 349.796 470.293 530.969 459.442 745.836 581.378 479.535 429.488 461.342 550.955 672.018 489.456 280.648 410.001 388.737 543.351 140.199 450.776 493.773 469.676 360.531 678.582 525.346 522.562 449.966 89.886 832.047 319.648 338.274 519.010 813.883 681.471 288.373 496.704 0.000 552.432 495.623 489.559 411.469 906.932 469.773 661.563 807.568 479.215 239.344 379.960 239.069 593.953 527.054 436.987 146.427 687.576 456.626 731.996 456.573 779.577 665.113 500.977 792.874 765.268 451.630 503.275 568.656
321.775 490.948 113.835 319.462 474.434 46.830 259.797 413.306 448.704 452.356 187.021 388.464 466.487 329.326 419.957 396.562 338.194 173.091 272.386 542.472 393.720 251.702 531.071 538.700 344.346 503.992 275.609 524.035 242.961 410.473 322.585 154.743 308.596 397.603 313.780 263.555 458.564 466.647 362.017 381.202 296.411 440.733 255.283 264.088 444.750 334.654 279.717 347.835 424.576 198.431 590.324 448.228 275.524 283.065 570.498 534.459 307.285 120.822 145.894 493.978 217.372 361.800 443.828 333.835 551.153 362.181 525.876 250.894 294.170 260.137 129.670 385.441 159.797 461.360 221.510 494.761 372.663 414.375 236.040 237.010 274.913 357.121 412.430 301.659 354.996 293.009 395.322 303.760 303.369 243.086 362.716 463.200 553.475 744.835 301.833 451.116 649.001 555.618 362.281 406.951 352.990 474.778 193.308 457.277 555.343 530.919 441.874 539.495 242.606 235.464 313.316 373.992 387.770 501.260 269.492 407.863 184.298 148.044 218.282 427.442 417.784 529.702 447.292 217.144 451.884 647.176 379.104 336.795 414.985 316.861 354.576 395.188 467.061 377.045 596.864 587.471 347.850 386.893 273.330 403.423 436.896 513.730 425.032 580.157 0.000 116.556 205.515 433.536 552.090 437.330 351.157 452.727 399.658 566.757 326.196 686.531 522.281 455.381 354.164 573.526 274.687 143.329 368.213 285.826 501.646 420.537 482.388 438.033 415.446 379.958 533.528 157.543
263.960 408.608 83.874 355.834 450.888 76.220 320.012 326.463 485.076 473.432 223.393 424.836 410.737 331.024 335.760 309.719 398.409 63.877 308.759 455.629 430.092 181.757 444.227 479.351 338.757 452.520 224.136 464.685 279.333 359.001 358.957 124.077 270.673 433.975 350.152 299.927 382.360 503.019 285.813 304.051 250.785 353.890 238.371 300.461 482.525 371.027 316.090 260.992 373.104 157.638 514.120 484.600 310.888 319.437 499.089 458.256 343.657 177.601 182.266 530.350 253.744 318.744 356.985 328.246 474.950 342.037 454.466 164.051 248.544 208.664 72.128 365.297 214.951 497.732 185.132 443.289 374.965 327.532 186.405 178.530 311.285 351.532 418.180 265.199 278.793 329.381 455.536 258.135 229.614 193.451 311.244 411.728 613.689 781.208 338.206 511.330 572.798 496.268 342.136 443.323 389.363 534.992 106.465 405.804 476.185 567.292 478.247 599.709 278.979 159.260 261.843 322.520 336.298 537.632 305.864 356.391 134.663 38.830 254.654 463.814 366.312 453.499 392.201 158.664 431.740 570.973 327.631 285.323 451.357 240.658 390.949 343.715 503.433 325.573 520.660 623.844 274.051 302.696 309.702 463.637 473.268 426.886 373.560 508.748 124.587 0.000 140.577 346.693 612.305 473.703 405.385 512.941 348.185 490.554 239.352 610.327 470.809 403.909 302.691 502.117 334.902 34.114 428.427 240.200 561.860 456.909 518.760 498.247 475.660 328.485 506.482 142.205
230.522 375.169 126.182 293.963 417.450 103.905 261.850 293.025 423.204 426.856 161.521 362.964 377.299 297.586 302.322 276.281 340.247 56.837 246.887 422.191 368.220 119.886 410.789 445.913 305.319 435.182 215.116 431.247 217.461 341.783 297.085 62.205 233.970 372.103 288.281 238.055 351.474 441.147 259.215 270.613 212.870 320.452 189.843 238.589 420.653 309.155 254.218 227.553 355.886 95.766 488.769 422.729 250.024 257.566 473.737 432.904 281.786 205.286 120.394 468.479 191.872 285.306 323.547 294.807 449.598 308.599 429.115 129.859 210.629 195.212 142.018 331.859 168.808 435.860 129.661 425.951 341.526 294.094 195.992 181.392 249.413 318.094 384.742 227.283 253.442 267.509 397.375 220.219 204.262 203.038 314.114 394.510 553.591 719.336 276.334 453.169 547.446 462.830 308.698 381.451 327.491 476.831 80.093 399.739 442.747 505.420 416.375 541.548 217.107 133.909 264.713 325.389 319.080 475.760 243.992 339.173 144.250 61.182 192.782 401.943 349.094 428.148 358.763 161.534 398.302 545.621 310.413 288.192 389.485 215.306 329.077 346.585 441.561 309.604 495.309 561.972 248.699 269.258 247.830 405.476 411.396 393.448 356.342 483.396 152.272 128.904 0.000 313.255 554.143 411.831 343.514 454.779 338.852 465.202 205.914 584.976 453.591 386.691 292.958 476.765 279.168 56.467 370.266 202.285 501.762 395.037 456.889 440.085 417.499 311.267 473.044 169.890
159.079 117.710 367.943 265.462 141.506 364.075 395.376 81.339 291.973 164.050 295.047 297.218 101.355 165.278 131.660 39.370 457.113 318.177 287.812 183.380 302.474 293.477 160.909 173.568 173.011 391.092 304.584 158.903 166.701 420.225 295.350 300.629 172.258 306.357 259.780 278.980 193.808 205.783 166.543 117.726 228.557 70.571 240.293 279.514 362.647 350.080 203.458 97.129 434.328 307.296 343.941 356.982 279.377 192.742 398.437 324.256 238.643 392.820 239.246 337.207 325.398 144.503 100.129 162.499 229.113 131.540 353.814 236.976 240.761 308.987 361.963 127.358 337.994 312.377 240.253 394.408 209.218 23.860 374.937 295.809 307.041 185.786 110.348 208.890 249.482 190.756 482.352 235.907 282.705 381.982 414.786 472.952 495.584 588.105 203.261 586.694 438.798 190.486 128.338 422.376 392.247 560.738 256.858 478.181 190.211 374.189 350.628 564.605 222.019 248.325 406.245 466.921 397.522 410.014 304.254 417.615 323.195 322.522 273.830 336.196 427.536 207.662 82.160 287.266 173.209 436.973 388.856 429.724 154.121 293.749 401.458 463.426 283.345 388.046 386.661 496.225 287.909 112.727 174.758 539.001 345.650 170.030 434.784 376.051 377.280 370.665 350.679 0.000 575.592 176.467 384.439 476.228 417.294 263.123 200.182 397.377 532.033 465.133 371.530 401.465 412.694 317.807 454.871 217.973 443.756 329.291 259.308 461.534 429.446 389.710 197.100 431.231
479.443 628.492 586.328 341.972 573.381 527.573 328.820 628.125 457.089 550.837 371.060 328.754 604.031 474.869 647.074 588.831 271.046 516.983 314.692 714.511 307.493 519.790 692.732 661.611 489.889 837.619 640.105 596.532 400.629 755.746 358.509 464.128 466.264 306.111 356.440 315.046 696.225 500.773 603.967 526.745 478.994 626.669 424.493 328.464 252.122 249.765 437.385 572.305 769.849 507.816 842.108 325.233 457.549 428.609 849.877 794.336 364.807 545.260 402.744 392.766 404.309 507.344 656.226 479.378 753.665 507.725 805.255 472.050 488.958 621.089 593.848 520.645 501.493 411.332 459.548 839.914 526.097 579.957 621.870 607.270 290.646 502.664 513.731 459.326 663.920 438.553 194.466 482.915 618.225 628.915 739.991 808.473 287.458 650.252 427.361 451.347 908.878 655.331 507.824 341.589 291.933 280.034 488.743 813.702 678.254 487.394 318.879 283.900 408.400 559.787 690.590 751.267 733.043 373.980 388.976 753.136 570.128 521.328 431.416 315.248 763.057 739.506 563.453 587.411 593.837 907.053 724.376 714.070 516.286 629.269 301.698 772.462 436.066 723.567 856.741 340.970 662.662 614.009 398.857 365.432 313.901 726.128 770.305 846.131 540.779 589.050 514.900 591.707 0.000 538.631 284.124 114.067 752.815 751.165 550.666 895.544 867.554 800.654 707.051 852.905 346.138 516.613 210.499 468.409 235.629 278.284 451.393 158.147 158.663 725.230 634.829 592.287
258.399 172.724 470.543 251.598 84.764 420.142 443.424 217.756 185.571 62.220 343.095 246.474 148.263 189.105 268.077 175.787 416.055 409.552 290.482 258.743 246.766 396.077 236.964 220.476 242.579 479.645 434.807 162.519 236.270 550.448 289.592 356.697 255.558 250.649 254.022 281.651 330.225 76.511 302.960 222.948 311.857 206.988 315.889 282.184 299.834 346.889 273.026 233.545 564.551 400.385 400.974 294.169 348.945 262.311 486.990 389.926 236.522 448.887 295.313 212.447 373.445 214.071 236.545 232.068 312.531 158.771 442.368 340.709 324.061 439.210 464.563 96.252 394.061 205.975 342.853 486.026 278.787 160.276 478.670 426.031 309.711 255.354 89.338 292.190 385.898 260.324 419.539 319.207 412.927 485.715 545.009 603.175 432.772 481.703 201.140 634.742 504.059 221.318 197.687 419.186 389.057 497.926 359.458 608.404 237.119 267.786 287.816 501.792 291.587 378.548 536.467 597.144 527.745 347.201 312.568 547.838 426.927 413.897 323.985 273.383 557.759 283.738 119.544 417.488 199.338 502.234 519.078 559.947 47.719 423.971 398.268 593.648 154.073 518.269 451.922 433.413 424.325 249.144 172.637 543.352 282.837 304.565 565.007 446.965 433.348 473.264 407.468 172.026 512.779 0.000 381.248 413.415 547.517 310.031 320.625 454.410 662.256 595.356 501.753 490.019 460.742 409.181 397.990 301.273 380.943 266.478 130.037 398.721 366.633 519.932 179.140 496.202
337.265 486.314 426.109 199.794 433.557 367.354 143.158 485.946 327.298 411.478 202.505 198.964 461.853 332.691 504.895 446.653 87.592 356.763 172.513 572.333 177.702 377.612 550.554 531.820 347.711 695.441 497.927 466.741 258.450 613.568 216.330 303.908 324.086 176.320 214.262 172.868 554.047 370.982 461.789 384.567 336.815 484.491 282.315 186.285 152.689 103.779 295.207 430.127 627.670 347.597 708.023 206.244 315.371 286.430 707.699 652.158 222.629 359.610 260.566 262.976 233.607 365.165 514.048 337.200 623.874 365.546 663.076 329.872 346.779 478.911 441.944 378.467 340.185 281.541 317.369 697.735 383.919 437.779 479.692 465.091 148.468 360.486 371.553 317.148 521.742 296.374 144.719 340.736 476.047 486.737 597.813 666.294 269.480 531.262 285.182 321.160 766.700 525.540 365.646 199.410 23.563 224.175 346.564 671.523 548.463 357.603 199.890 264.570 266.221 417.608 548.412 609.088 590.864 259.275 246.798 610.957 427.949 361.109 289.238 185.458 620.878 597.328 421.275 445.233 451.659 764.875 582.198 571.892 374.107 487.091 51.483 630.284 306.275 581.388 714.563 322.992 520.484 471.831 256.679 214.889 194.911 583.949 628.126 703.952 367.431 428.830 354.680 449.529 268.095 396.453 0.000 168.732 610.637 621.375 408.487 765.754 725.375 658.476 564.873 710.727 160.476 356.393 85.351 326.231 217.651 154.457 321.602 154.038 132.358 583.052 492.651 406.637
393.341 542.391 500.227 255.870 487.279 441.472 229.649 542.023 370.987 464.736 284.958 242.653 517.930 388.767 560.972 502.730 171.875 430.881 228.590 628.409 221.391 433.689 606.630 575.509 403.788 751.517 554.003 510.430 314.527 669.644 272.407 378.026 380.162 220.009 270.339 228.945 610.124 414.671 517.865 440.644 392.892 540.567 338.391 242.362 152.951 163.664 351.283 486.203 683.747 421.715 756.006 239.131 371.448 342.507 763.776 708.235 278.706 446.088 316.643 306.665 318.208 421.242 570.125 393.276 667.563 421.623 719.153 385.948 402.856 534.988 507.746 434.543 415.391 325.230 373.446 753.812 439.995 493.856 535.768 521.168 204.544 416.563 427.630 373.225 577.818 352.451 152.669 396.813 532.124 542.814 653.890 722.371 218.125 564.150 341.259 405.443 822.776 569.229 421.722 255.487 205.831 238.237 402.641 727.600 592.152 401.292 232.778 242.103 322.298 473.685 604.489 665.165 646.941 292.163 302.875 667.034 484.026 435.227 345.314 229.147 676.955 653.404 477.351 501.310 507.735 820.952 638.275 627.968 430.184 543.168 215.596 686.361 349.964 637.465 770.639 271.637 576.561 527.908 312.755 299.172 227.799 640.026 684.203 760.029 454.617 502.948 428.798 505.605 123.313 452.530 198.023 0.000 666.713 665.064 464.564 809.443 781.452 714.552 620.949 766.804 246.967 430.511 149.949 382.308 166.296 192.182 365.291 58.975 94.236 639.129 548.728 493.116
399.136 504.853 350.517 581.503 559.579 385.910 592.734 433.207 630.427 582.123 492.405 622.745 515.373 466.200 403.659 446.982 671.131 377.026 534.428 546.127 628.001 397.103 540.472 571.565 473.933 345.506 216.926 560.930 467.623 69.467 584.626 393.089 412.315 631.884 575.821 525.596 442.265 640.782 345.718 441.314 436.649 460.559 424.235 526.130 688.174 596.696 493.873 398.254 83.569 426.650 514.898 682.509 496.752 493.664 412.265 488.020 564.170 454.802 451.278 675.702 522.756 453.919 450.013 463.421 511.974 479.300 400.922 365.847 434.408 229.199 362.250 502.560 499.692 648.366 391.423 341.236 510.140 442.107 261.947 248.634 553.656 486.708 548.900 448.946 301.369 491.678 728.258 443.998 225.594 277.303 61.670 137.466 821.112 926.559 528.789 784.053 573.575 592.513 479.399 668.992 638.863 807.714 354.793 149.771 538.766 712.643 676.156 872.432 484.659 268.670 157.473 112.468 91.402 735.541 550.870 66.857 280.692 381.372 520.446 661.723 76.778 513.404 520.712 256.337 569.003 571.751 205.640 75.271 589.120 239.599 648.074 97.754 647.160 55.550 521.438 821.753 276.930 370.594 500.285 736.360 671.177 504.103 109.181 496.961 434.277 353.238 409.589 477.298 876.423 611.466 631.054 777.059 0.000 520.252 310.365 640.026 195.777 139.531 293.817 415.293 610.052 376.656 701.149 426.064 769.283 654.818 662.487 762.365 740.686 21.635 631.735 419.408
379.959 262.956 488.666 466.761 232.947 499.829 596.675 269.577 427.066 255.490 496.346 498.517 188.741 366.577 243.994 279.773 645.847 452.761 489.111 142.317 499.324 470.213 306.352 143.293 374.309 252.823 370.383 160.172 368.000 481.736 496.649 468.823 387.289 503.207 461.079 480.279 265.821 330.687 296.700 332.061 443.588 258.219 435.372 480.813 529.626 551.379 404.756 318.008 495.839 502.375 132.037 523.961 480.676 394.041 230.781 120.989 439.942 594.118 440.545 412.093 526.697 345.802 208.718 363.798 129.417 332.838 177.132 409.440 445.545 362.959 482.686 315.493 539.293 459.089 435.333 262.054 410.517 255.048 476.994 382.395 508.339 387.085 273.885 423.921 291.818 392.055 649.331 450.938 358.711 484.039 476.297 534.463 662.563 679.760 404.560 787.993 235.122 170.282 329.637 623.675 593.546 727.717 430.527 487.717 83.659 479.542 517.607 731.583 423.318 345.560 469.883 530.560 459.033 576.993 505.553 479.126 425.252 457.106 475.129 503.175 489.047 159.418 241.158 384.501 374.508 233.297 450.366 493.363 300.833 360.122 602.757 524.936 353.719 449.557 182.985 663.204 319.239 285.464 376.057 740.300 512.629 167.143 496.295 178.028 548.196 491.387 485.323 277.267 742.571 300.930 585.737 643.207 478.805 0.000 356.838 185.473 593.544 526.644 436.577 233.809 613.993 452.390 627.781 433.003 610.734 496.270 332.135 628.513 596.425 451.220 334.433 564.421
127.203 250.634 234.885 310.624 305.360 233.732 368.870 178.988 358.495 327.904 268.541 350.813 261.154 194.267 165.673 175.049 432.850 186.664 263.549 294.438 356.068 164.831 286.253 321.377 202.000 346.088 148.039 306.711 195.691 263.680 313.747 202.727 140.382 359.952 304.942 254.717 204.280 368.849 107.733 169.381 165.770 206.340 153.356 255.251 416.242 325.817 221.941 126.322 277.782 215.664 353.967 410.577 225.873 221.732 358.346 298.102 292.238 335.113 202.412 403.770 298.892 181.987 195.794 191.489 314.796 207.367 313.724 125.272 163.529 152.442 228.905 230.627 301.160 376.433 153.317 344.278 238.208 187.888 223.213 139.263 282.777 214.775 283.510 177.014 151.028 219.745 489.977 173.119 126.159 230.259 258.240 316.406 549.179 654.627 256.856 560.189 412.644 338.294 207.467 398.113 367.984 569.433 125.346 321.635 318.211 440.711 404.223 602.018 213.780 91.780 249.699 310.375 240.976 463.609 279.991 261.069 171.471 191.010 249.567 389.791 270.990 293.345 257.531 130.720 297.070 410.819 232.310 273.178 317.187 137.203 377.195 306.880 375.227 231.500 360.507 549.820 170.596 132.609 228.353 512.496 399.245 265.696 278.238 349.897 282.099 237.606 219.227 212.023 605.544 339.533 360.175 506.180 260.749 330.400 0.000 450.174 375.487 308.588 214.985 361.374 386.188 186.294 430.608 155.185 497.350 382.886 390.555 491.486 469.807 233.164 371.812 299.718
492.905 418.193 584.178 621.998 388.184 595.341 746.399 399.141 582.303 410.727 646.070 653.754 343.978 521.813 369.573 413.734 801.084 548.273 641.077 313.236 654.561 565.726 461.589 302.564 529.546 346.436 465.896 315.409 523.237 577.249 651.886 564.336 506.084 658.444 616.316 632.246 361.333 485.924 392.212 469.998 543.298 387.783 530.885 632.780 684.862 703.345 559.993 447.573 591.351 597.888 171.011 679.198 603.401 549.278 305.921 196.967 595.179 695.329 579.941 567.330 676.421 501.039 338.282 519.035 258.981 488.075 253.110 504.953 541.058 458.472 578.198 470.730 670.939 614.326 530.846 355.668 565.754 384.612 572.507 477.907 660.306 542.321 429.122 542.715 387.331 547.292 804.568 550.648 454.223 579.552 571.809 629.976 817.800 834.996 559.797 937.718 274.096 325.519 484.874 775.642 745.513 882.954 526.040 564.170 238.616 634.779 672.844 886.820 578.555 441.073 565.396 626.073 554.546 732.230 657.519 574.639 520.764 552.619 627.096 658.412 584.560 288.982 396.395 480.014 529.745 272.271 545.879 588.876 456.070 455.635 754.724 620.449 508.956 545.069 221.958 818.441 414.752 410.665 531.294 890.025 667.865 296.707 591.808 217.002 643.708 586.900 580.836 419.803 897.808 456.167 737.704 798.444 574.318 208.015 452.351 0.000 689.057 622.157 532.090 287.012 763.717 547.903 783.018 532.714 765.971 651.507 487.372 783.750 751.662 546.733 489.669 659.933
450.837 556.554 421.943 633.205 611.281 457.336 647.059 484.909 682.129 633.824 546.731 674.447 567.074 517.901 455.360 498.683 725.456 431.352 586.129 597.828 679.702 448.804 592.174 623.267 525.634 433.989 268.628 612.632 519.325 151.655 636.327 447.414 464.016 683.586 627.523 577.298 493.967 692.483 397.420 493.015 488.350 512.260 475.936 577.831 739.876 648.397 545.575 449.956 124.585 480.976 578.875 734.211 548.453 545.366 500.748 539.721 615.872 521.442 505.382 727.404 577.081 505.621 501.715 515.123 563.676 531.001 489.405 417.549 486.109 282.976 433.676 554.261 554.017 700.067 443.124 429.719 561.842 493.809 388.499 302.411 605.358 538.409 600.602 500.648 353.071 543.380 782.584 495.700 277.295 395.544 209.717 198.628 872.813 978.261 580.490 838.378 637.552 644.215 531.101 720.693 690.565 862.040 409.119 238.254 590.467 764.345 727.857 924.599 536.360 322.447 243.648 260.515 224.117 787.243 602.571 170.779 352.118 435.697 572.147 713.425 126.921 565.106 572.414 327.763 620.704 635.727 257.341 223.318 640.822 291.300 699.775 227.731 698.861 192.352 585.415 873.454 328.631 422.296 551.987 790.685 722.879 555.805 107.755 560.938 505.703 424.664 463.914 529.000 928.125 663.167 682.756 828.761 197.266 571.954 362.066 691.727 0.000 91.480 345.519 503.776 664.377 430.981 753.189 477.766 820.984 706.520 714.189 814.067 792.387 169.682 683.436 486.048
398.345 504.062 369.451 580.713 558.789 404.844 594.567 432.417 629.637 581.332 494.239 621.955 514.582 465.409 402.868 446.191 672.964 378.860 533.637 545.336 627.210 396.312 539.682 570.775 473.142 381.497 216.136 560.140 466.833 99.163 583.835 394.922 411.524 631.094 575.031 524.806 441.475 639.991 344.928 440.523 435.858 459.768 423.444 525.339 687.384 595.905 493.083 397.464 72.093 428.484 526.383 681.719 495.961 492.874 448.256 487.229 563.380 468.950 452.890 674.912 524.589 453.129 449.223 462.631 511.184 478.509 436.913 365.057 433.617 230.484 381.184 501.769 501.525 647.575 390.632 377.227 509.350 441.317 336.007 249.919 552.866 485.917 548.110 448.156 300.579 490.887 730.092 443.208 224.803 343.052 157.225 167.162 820.321 925.769 527.998 785.886 585.060 591.723 478.609 668.201 638.073 809.548 356.627 185.762 537.975 711.853 675.365 872.107 483.868 269.955 191.156 208.023 171.625 734.751 550.079 118.287 299.626 383.205 519.655 660.933 74.429 512.614 519.922 275.271 568.212 583.235 204.849 170.826 588.329 238.808 647.283 175.239 646.369 139.860 532.923 820.962 276.139 369.804 499.495 738.193 670.387 503.313 55.263 508.446 453.211 372.172 411.422 476.508 875.633 610.675 630.264 776.269 144.774 519.462 309.574 639.235 90.074 0.000 293.027 451.284 611.885 378.489 700.697 425.274 768.492 654.028 661.697 761.575 739.895 117.190 630.944 433.556
262.031 389.347 139.598 403.905 444.074 174.991 386.748 317.702 493.323 466.617 288.513 472.907 399.868 329.095 288.153 307.790 465.145 173.134 356.829 430.621 478.162 219.504 424.967 460.090 336.828 325.172 96.788 445.425 296.747 231.653 407.027 189.196 275.210 482.046 398.223 347.998 326.760 501.590 230.213 302.122 259.050 345.054 246.637 348.531 530.596 419.097 333.504 259.063 245.756 222.758 419.274 532.671 319.153 344.976 391.678 380.120 391.728 231.987 247.386 538.597 318.863 316.815 334.508 326.317 404.074 340.108 347.055 188.249 256.810 81.317 151.331 363.368 293.295 511.261 213.825 315.941 373.036 325.603 99.044 84.809 376.058 349.603 416.251 273.464 193.469 354.573 522.273 266.400 124.549 106.090 183.896 284.380 663.534 789.455 386.276 578.067 477.951 477.008 340.208 491.394 454.482 601.729 150.901 278.456 430.866 575.539 526.317 666.446 307.061 106.590 134.495 195.172 208.950 585.703 370.984 229.043 66.861 177.479 319.773 511.885 238.964 397.899 390.272 67.650 429.811 476.126 200.283 157.975 449.928 138.554 456.068 216.367 507.968 198.225 425.814 671.914 169.030 255.089 357.773 530.374 521.339 388.598 246.212 401.337 223.358 142.319 205.696 344.764 679.041 472.274 453.456 579.678 220.837 412.352 194.860 532.126 343.461 276.561 0.000 394.706 401.638 172.763 495.164 248.466 611.705 504.980 523.295 564.984 542.397 201.137 504.553 196.593
461.909 474.009 509.655 653.762 445.912 545.047 714.306 434.930 640.031 468.456 613.977 685.518 401.706 528.973 356.693 449.523 778.286 501.045 608.985 353.384 690.774 518.498 510.857 354.361 536.706 111.222 367.963 373.137 530.396 373.185 659.183 517.107 475.088 694.657 648.080 600.153 353.303 543.652 379.333 503.260 511.206 423.572 498.792 600.687 742.591 671.253 556.646 460.201 387.288 550.669 168.110 736.926 571.309 556.437 99.232 177.694 626.943 610.081 547.848 625.059 644.328 516.693 374.071 526.194 294.770 541.247 111.367 472.860 508.965 367.459 521.388 528.458 623.710 672.054 498.753 106.952 572.913 420.401 477.138 386.895 628.213 549.481 486.850 511.719 297.365 554.451 835.413 518.555 363.211 484.183 345.131 425.586 875.529 892.725 591.562 905.625 226.787 383.247 541.346 743.549 713.420 914.869 478.812 286.216 296.624 692.508 730.573 944.549 559.216 393.845 344.794 403.620 350.156 789.958 625.427 370.575 439.830 505.390 595.003 716.140 380.496 324.771 454.124 415.474 587.473 224.962 344.623 366.423 513.798 364.622 722.631 393.770 566.685 318.391 174.650 876.170 324.786 397.785 563.058 857.932 725.594 332.496 372.531 150.173 593.414 512.376 533.607 455.592 950.980 513.896 705.611 851.617 354.097 293.770 429.408 323.832 484.667 417.768 434.158 0.000 731.624 500.675 776.044 500.621 823.700 709.235 545.100 836.923 809.390 333.582 547.398 574.687
350.679 519.851 341.287 300.725 503.338 282.532 41.565 499.756 423.202 481.259 123.630 294.867 495.390 358.229 509.053 472.191 138.706 271.942 256.522 605.870 273.605 316.046 584.091 567.603 373.249 650.287 430.221 552.938 271.864 556.888 317.262 219.087 337.500 272.223 315.193 269.481 558.205 466.885 465.946 410.105 346.223 510.029 286.472 230.260 245.262 215.878 308.621 434.284 570.990 262.775 703.874 293.979 319.529 311.969 688.842 648.009 323.560 269.784 210.237 358.879 143.781 390.704 530.278 362.738 659.262 391.085 644.219 334.029 350.937 410.317 357.122 414.345 255.363 377.444 285.854 641.056 401.566 463.317 403.547 396.497 211.522 386.024 441.334 330.562 468.546 321.913 195.834 344.894 419.367 410.593 529.218 609.615 353.987 618.997 330.737 232.884 762.551 584.521 391.184 307.701 163.727 275.290 295.198 614.843 584.246 453.506 287.625 340.007 271.510 349.014 479.818 540.494 534.185 347.011 253.060 554.278 351.805 276.287 226.106 281.361 564.199 630.865 476.195 376.639 480.787 760.726 525.518 503.297 443.888 430.411 165.750 561.689 402.178 524.708 710.414 407.499 463.804 475.989 302.233 185.191 282.646 600.179 571.447 698.501 278.300 344.008 269.858 475.067 352.602 466.234 151.669 253.239 553.957 657.158 412.645 800.081 668.696 601.796 508.062 691.870 0.000 271.571 168.725 339.645 302.158 247.030 417.506 238.545 215.958 526.372 562.432 316.811
303.296 447.944 69.716 345.836 490.225 47.438 291.230 365.799 475.077 478.729 213.394 414.838 450.073 355.699 375.096 349.055 369.627 107.551 298.760 494.965 420.093 192.660 483.564 518.687 370.719 459.873 231.490 504.021 269.334 366.355 348.958 134.979 306.745 423.976 340.154 289.928 414.445 493.020 317.898 343.387 285.644 393.226 262.618 290.462 472.526 361.028 306.091 300.328 380.457 168.541 546.205 474.602 301.897 309.439 526.379 490.340 333.659 148.819 172.267 520.352 243.745 358.080 396.321 360.208 507.034 381.374 481.757 202.634 283.403 216.018 85.551 404.633 186.170 487.733 202.435 450.642 399.036 366.868 191.921 192.891 301.286 383.494 438.804 300.058 310.877 319.383 426.755 292.994 259.250 198.967 318.598 419.081 584.908 771.209 328.207 482.549 604.882 535.605 381.473 433.324 379.364 506.211 149.189 413.158 515.521 557.293 468.248 570.928 268.980 191.345 269.197 329.873 343.651 527.633 295.865 363.744 140.179 4.716 244.655 453.816 373.665 485.583 431.537 173.025 471.076 603.057 334.985 292.676 441.358 272.742 380.950 351.069 493.434 332.926 552.745 613.845 303.731 342.032 299.703 434.856 463.269 466.223 380.913 536.038 95.805 72.437 151.479 386.029 583.523 463.704 382.589 484.159 355.539 522.638 278.689 642.412 478.162 411.262 310.045 529.408 306.120 0.000 399.646 275.060 533.079 446.910 508.762 469.465 446.879 335.839 545.818 113.424
345.510 494.559 428.607 208.039 439.447 369.852 140.651 494.191 323.156 416.904 210.950 194.821 470.098 340.936 513.140 454.898 73.927 359.262 180.758 580.577 173.559 385.857 558.799 527.677 355.956 703.686 506.172 462.598 266.695 621.813 224.575 306.407 332.331 172.177 222.507 181.113 562.292 366.839 470.033 392.812 345.060 492.736 290.560 194.530 142.583 115.832 303.452 438.372 635.915 350.095 708.175 191.300 323.616 294.675 715.944 660.403 230.874 357.091 268.811 258.833 231.101 373.410 522.293 345.445 619.732 373.791 671.321 338.117 355.024 487.156 444.442 386.712 342.683 277.398 325.614 705.980 392.164 446.024 487.936 473.336 156.712 368.731 379.798 325.393 529.987 304.619 90.717 348.981 484.292 494.982 606.058 674.539 246.575 516.318 293.427 307.495 774.945 521.397 373.891 207.655 115.443 186.970 354.809 679.768 544.320 353.460 184.946 241.665 274.466 425.853 556.657 617.333 599.109 244.332 255.043 619.202 436.194 363.607 297.482 181.315 629.123 605.573 429.520 453.478 459.904 773.120 590.443 580.137 382.352 495.336 128.110 638.529 302.132 589.633 722.807 300.087 528.729 480.076 264.924 201.224 179.967 592.194 636.371 712.197 365.619 431.328 357.178 457.774 209.667 404.698 103.385 140.262 618.881 617.232 416.732 761.611 733.620 666.721 573.118 718.972 157.969 358.891 0.000 334.476 194.746 144.351 317.459 125.568 51.685 591.297 500.896 404.118
100.496 304.393 230.830 189.638 320.083 218.825 250.126 268.779 306.999 322.247 149.797 258.640 279.932 142.771 278.076 252.035 311.863 181.064 142.562 390.411 263.895 150.793 368.633 352.145 157.791 468.621 271.107 337.480 48.282 386.748 192.760 155.379 87.317 267.779 183.956 133.730 327.228 336.538 234.969 194.647 10.584 294.571 55.495 134.264 316.329 204.830 85.038 203.307 400.851 144.025 481.203 318.404 112.954 96.510 480.880 425.339 177.461 247.570 93.996 352.273 180.148 161.480 299.301 147.280 428.285 175.627 436.257 103.052 87.322 252.092 224.850 198.886 192.744 324.937 90.550 470.916 177.983 247.859 252.872 238.272 161.791 170.566 251.770 24.998 294.923 106.454 368.990 17.934 249.228 259.918 370.994 439.475 449.266 603.131 171.725 441.444 539.881 369.063 175.726 277.126 246.997 448.446 119.745 444.704 368.788 389.214 312.050 481.032 76.769 190.789 321.593 382.269 364.045 371.436 159.004 384.138 201.130 185.409 128.580 297.618 394.059 406.834 260.737 218.414 265.329 538.056 355.379 345.072 284.876 260.272 256.208 403.465 325.356 354.569 487.743 457.647 293.665 245.012 143.221 393.752 307.071 369.202 401.307 477.133 232.030 233.551 187.409 259.609 484.558 307.222 239.189 385.194 383.817 441.700 181.668 577.410 498.556 431.656 338.053 483.908 267.444 180.693 309.621 0.000 397.437 290.712 340.683 370.500 348.820 356.233 372.868 294.117
437.697 494.170 544.582 241.996 431.461 485.827 277.034 530.179 315.169 408.918 329.314 186.835 469.709 376.380 580.500 488.210 219.260 475.237 272.945 580.189 165.573 478.044 558.410 519.691 448.143 778.860 598.359 454.612 358.882 714.000 303.410 422.382 424.518 164.191 281.529 273.300 642.648 358.853 562.221 453.461 437.247 519.411 382.747 286.717 82.195 208.019 395.639 511.107 728.102 466.070 700.188 158.819 415.803 386.862 786.205 689.140 300.761 493.474 360.998 250.847 362.563 434.059 548.969 437.632 611.745 414.580 741.582 430.304 447.211 579.343 552.101 408.675 459.746 269.412 417.801 785.240 484.351 472.700 580.123 565.523 248.900 460.918 401.761 417.580 622.174 396.806 141.108 441.168 576.479 587.169 698.245 766.726 58.263 465.551 339.961 352.209 803.274 513.411 434.540 299.842 250.187 193.391 446.996 771.955 536.334 345.474 171.230 155.139 366.653 518.040 648.844 709.520 691.296 174.413 347.230 711.389 528.381 479.582 389.670 169.656 721.310 605.184 440.990 545.665 481.867 801.449 682.630 672.324 376.345 587.523 259.952 730.716 294.146 681.820 751.136 111.776 620.916 561.567 311.458 300.453 166.251 618.870 728.558 746.179 499.033 547.303 473.153 484.449 229.895 404.309 242.378 160.538 711.069 609.246 508.919 753.625 825.807 758.908 665.305 789.233 294.352 474.866 197.334 426.663 0.000 132.717 309.473 160.936 161.260 683.484 500.587 540.501
342.984 399.458 449.870 147.284 336.748 391.115 215.521 435.467 220.457 314.205 234.602 92.122 374.997 281.668 485.788 393.498 159.955 380.524 178.233 485.476 70.861 383.332 463.698 424.979 353.431 684.148 503.646 359.900 264.170 619.287 208.698 327.669 329.805 69.479 186.817 178.588 547.936 264.141 467.508 358.749 342.535 424.699 288.034 192.005 43.734 113.307 300.926 416.395 633.390 371.358 605.476 99.402 321.091 292.150 691.493 594.428 206.049 419.860 266.286 156.134 267.851 339.347 454.256 342.919 517.033 319.868 646.870 335.591 352.499 484.631 457.389 313.963 365.034 174.700 323.089 690.528 389.638 377.987 485.411 470.811 154.187 366.206 307.049 322.868 527.461 302.094 163.439 346.456 481.767 492.457 603.533 672.014 176.671 424.421 245.249 393.523 708.561 418.699 339.827 205.130 155.474 241.825 352.284 677.243 441.622 250.762 93.049 245.692 271.941 423.328 554.132 614.808 596.584 152.434 252.518 616.677 433.669 384.870 294.957 78.616 626.598 510.472 346.278 450.953 387.155 706.736 587.918 577.611 281.632 492.811 165.239 636.004 199.434 587.108 656.424 230.184 526.204 466.855 216.745 287.252 88.070 524.158 633.846 651.467 404.320 452.591 378.441 389.737 256.679 309.597 147.666 157.315 616.356 514.533 414.207 658.912 731.095 664.195 570.592 694.521 232.839 380.154 141.889 331.951 124.843 0.000 214.761 142.621 110.533 588.772 405.874 467.174
313.388 257.171 516.750 273.965 150.440 457.995 400.595 302.203 126.248 127.896 380.948 230.822 211.848 232.072 352.524 260.234 345.029 447.405 328.336 308.877 198.506 450.212 321.411 238.670 297.568 497.839 489.796 173.591 291.259 605.437 320.631 394.550 310.548 202.389 285.061 319.504 414.672 77.832 387.407 288.462 366.847 291.435 354.915 320.038 228.808 298.381 328.015 317.992 619.540 438.238 419.167 223.143 387.971 317.300 505.184 408.119 269.449 486.740 333.167 111.276 411.299 269.060 320.993 287.057 330.724 243.218 460.561 395.698 379.050 494.199 519.552 180.699 431.915 215.376 389.970 504.219 333.776 244.724 533.659 481.020 308.481 310.343 173.785 347.179 462.303 315.313 348.513 374.196 467.917 540.704 599.998 658.164 361.746 383.311 234.087 578.597 522.252 232.390 269.541 390.204 340.548 426.900 414.447 663.393 255.313 178.725 216.790 430.766 338.822 433.537 591.456 652.133 582.734 276.175 350.422 602.827 481.917 451.751 361.838 202.357 612.748 339.287 203.991 472.478 283.785 520.427 574.068 614.936 95.323 478.960 350.314 648.637 52.902 573.258 470.115 362.387 500.730 333.591 205.584 472.326 211.811 360.114 619.996 465.158 471.201 519.472 445.322 256.473 441.753 124.204 332.740 342.389 602.506 328.224 375.615 472.603 717.245 650.345 556.742 508.212 417.913 447.035 326.964 356.262 309.917 195.452 0.000 327.695 295.607 574.922 263.588 534.055
406.833 555.882 513.718 269.362 500.771 454.963 243.141 555.515 384.479 478.227 298.450 256.144 531.421 402.259 574.464 516.221 185.367 444.373 242.082 641.901 234.883 447.180 620.122 589.001 417.279 765.009 567.495 523.922 328.019 683.136 285.899 391.518 393.654 233.501 283.830 242.436 623.615 428.163 531.357 454.135 406.384 554.059 351.883 255.854 166.443 177.155 364.775 499.695 697.239 435.206 769.498 252.623 384.939 355.999 777.267 721.726 292.197 459.580 330.134 320.156 331.699 434.734 583.616 406.768 681.055 435.115 732.645 399.440 416.348 548.479 521.238 448.035 428.883 338.722 386.938 767.304 453.487 507.347 549.260 534.660 218.036 430.054 441.121 386.716 591.310 365.943 166.160 410.305 545.615 556.305 667.381 735.863 231.616 577.642 354.751 418.935 836.268 582.721 435.214 268.979 219.323 251.728 416.133 741.092 605.644 414.784 246.269 255.594 335.790 487.177 617.980 678.657 660.433 305.655 316.366 680.526 497.518 448.718 358.806 242.638 690.447 666.896 490.843 514.801 521.227 834.443 651.766 641.460 443.676 556.659 229.088 699.852 363.456 650.957 784.131 285.129 590.052 541.399 326.247 312.664 241.291 653.518 697.695 773.521 468.109 516.440 442.290 519.097 136.805 466.021 211.514 37.441 680.205 678.555 478.056 822.934 794.944 728.044 634.441 780.295 260.459 444.003 163.441 395.799 179.788 205.674 378.783 0.000 107.728 652.620 562.219 506.607
320.781 469.830 427.666 183.309 414.718 368.911 193.317 469.462 298.426 392.175 212.398 170.092 445.369 316.206 488.411 430.169 131.213 358.320 156.029 555.848 148.830 361.128 534.070 502.948 331.227 678.956 481.442 437.869 241.966 597.083 199.846 305.465 307.602 147.448 197.778 156.384 537.563 342.110 445.304 368.083 320.331 468.006 265.830 169.801 117.854 91.103 278.722 413.642 611.186 349.154 683.446 166.570 298.887 269.946 691.215 635.674 206.145 397.656 244.082 234.104 245.647 348.681 497.564 320.715 595.002 349.062 646.592 313.387 330.295 462.427 435.185 361.982 342.830 252.669 300.885 681.251 367.434 421.295 463.207 448.607 131.983 344.002 355.069 300.664 505.257 279.890 87.539 324.252 459.563 470.253 581.329 649.810 213.285 491.589 268.698 353.069 750.215 496.668 349.161 182.926 133.270 183.792 330.080 655.039 519.591 328.731 160.217 216.935 249.737 401.124 531.928 592.604 574.380 219.602 230.314 594.473 411.465 362.666 272.753 156.586 604.394 580.843 404.790 428.749 435.174 748.391 565.714 555.407 357.623 470.607 143.035 613.800 277.403 564.904 698.078 266.797 504.000 455.347 240.195 216.639 155.238 567.465 611.642 687.468 382.116 430.387 356.237 433.044 159.381 379.969 125.462 89.976 594.152 592.503 392.003 736.882 708.891 641.991 548.388 694.243 210.635 357.950 57.286 309.747 161.456 119.621 292.730 75.282 0.000 566.568 476.167 444.970
377.501 483.218 328.882 559.869 537.945 364.275 571.099 411.573 608.793 560.488 470.771 601.111 493.738 444.565 382.024 425.347 649.497 355.392 512.793 524.492 606.366 375.468 518.838 549.931 452.298 323.872 195.292 539.296 445.989 51.934 562.991 371.454 390.680 610.250 554.187 503.962 420.631 619.147 324.084 419.679 415.014 438.924 402.600 504.495 666.540 575.061 472.239 376.620 66.037 405.016 493.264 660.875 475.117 472.030 390.631 466.385 542.536 433.168 429.644 654.068 501.121 432.285 428.379 441.787 490.340 457.665 379.287 344.213 412.773 207.564 340.616 480.925 478.057 626.731 369.788 319.602 488.506 420.473 240.312 227.000 532.022 465.073 527.266 427.312 279.735 470.044 706.624 422.364 203.959 255.669 40.035 119.933 799.477 904.925 507.154 762.418 551.941 570.879 457.765 647.357 617.229 786.080 333.159 128.137 517.131 691.009 654.521 850.797 463.024 247.036 135.838 90.833 69.767 713.907 529.235 49.324 259.057 359.737 498.811 640.089 59.245 491.770 499.078 234.702 547.368 550.116 184.005 53.637 567.485 217.964 626.439 76.120 625.525 33.916 499.804 800.118 255.295 348.960 478.651 714.725 649.543 482.469 91.649 475.327 412.642 331.604 387.954 455.664 854.789 589.831 609.420 755.425 27.585 498.618 288.730 618.391 178.244 121.998 272.183 393.659 588.418 355.021 679.515 404.430 747.648 633.184 640.853 740.731 719.051 0.000 610.100 397.774
238.636 136.852 450.779 274.074 93.788 413.880 445.181 175.376 241.715 107.534 344.852 281.485 112.391 208.298 225.697 133.407 463.135 401.013 309.675 222.870 286.741 376.313 201.092 184.604 222.816 443.773 398.621 169.939 216.506 514.262 312.068 350.434 235.795 290.624 276.498 300.843 287.845 155.526 260.580 180.567 292.094 164.608 296.126 301.377 346.914 369.365 253.263 191.165 528.364 384.656 365.102 341.249 329.182 242.547 451.118 354.054 255.715 442.625 289.051 286.950 375.203 194.308 194.165 212.305 276.659 147.095 406.496 320.946 304.297 403.024 444.799 84.577 387.799 262.120 323.089 450.154 259.024 117.896 458.906 389.845 328.904 235.591 42.968 272.427 343.518 240.561 466.619 299.444 376.741 465.952 508.822 566.988 479.851 537.847 220.333 636.499 468.187 201.522 178.143 441.661 411.532 545.006 339.694 572.217 201.247 323.931 334.896 548.872 271.824 342.362 500.281 560.957 491.558 394.281 331.761 511.651 407.164 405.358 323.635 320.463 521.572 247.866 70.979 381.302 165.279 466.362 482.892 523.760 103.864 387.785 420.743 557.462 233.087 482.082 416.050 480.493 381.945 206.764 191.830 588.806 329.917 264.067 528.820 411.093 427.085 453.501 401.206 129.646 559.859 126.209 403.724 460.495 511.331 274.159 294.218 418.538 626.069 559.170 465.567 454.146 462.499 400.643 445.070 281.510 428.023 313.558 209.051 445.801 413.713 483.746 0.000 489.939
262.311 406.959 76.162 389.525 449.240 111.555 323.312 324.814 493.603 471.783 257.084 458.527 409.088 329.375 317.339 308.070 401.709 136.390 342.449 453.980 463.782 219.785 442.579 477.702 337.108 371.305 140.038 463.037 297.028 274.903 392.647 179.827 275.490 467.666 383.843 333.618 355.946 501.871 259.398 302.403 259.331 352.241 246.917 334.151 508.265 404.717 333.784 259.343 289.006 213.389 469.577 518.291 319.434 345.257 439.617 430.423 377.348 168.312 215.957 538.878 287.434 317.095 355.336 326.597 448.535 340.389 394.994 188.529 257.090 140.842 87.895 363.648 229.859 511.541 214.105 362.073 373.316 325.883 93.347 133.294 344.976 349.883 416.532 273.744 243.773 354.854 458.837 266.680 167.799 100.392 227.402 327.630 616.990 789.735 371.896 514.631 528.254 494.620 340.488 477.013 423.053 538.293 141.532 321.963 474.536 575.819 511.937 603.010 307.341 132.846 178.002 238.678 252.200 571.323 339.555 272.293 67.141 117.714 288.344 497.505 282.214 427.084 390.552 113.428 430.091 526.429 243.534 201.481 450.209 181.804 424.639 259.873 508.249 241.731 476.117 657.534 219.333 284.275 343.393 466.938 506.959 417.783 289.462 451.640 159.922 78.883 196.327 345.044 615.605 472.554 414.671 516.241 264.344 462.656 224.045 582.429 386.711 319.811 234.869 442.645 338.202 112.998 431.728 248.746 565.161 490.600 523.576 501.547 478.961 244.387 504.834 0.000
NODE_COORD_SECTION
1 -500.874011 70.822412
2 -1557.382504 -2609.911459
3 -1876.163531 3454.519788
4 2771.274413 -478.842196
5 -349.477358 -3612.465843
6 -1021.090334 3918.255997
7 4081.183038 3602.669023
8 -1997.257912 -1444.381390
9 2845.726894 -2935.527882
10 79.778218 -3689.820220
11 1728.745867 2615.211218
12 4060.383161 -990.472675
13 -1321.688967 -3376.029107
14 812.890044 -589.365467
15 -3464.121223 -1165.947353
16 -1330.969881 -1620.709177
17 5075.826159 2325.299033
18 -1578.103761 2929.794783
19 2443.720118 833.281307
20 -3227.523555 -2972.618976
21 4249.363568 -1218.895472
22 -1299.351268 2311.164812
23 -1663.403248 -2036.944513
24 -2296.796945 -3419.951191
25 82.695948 95.266098
26 -8053.031099 -1531.689443
27 -4939.279845 2468.478430
28 -1491.385081 -3987.476713
29 290.275256 603.111209
30 -7684.358633 3598.628194
31 2677.165239 333.712574
32 -661.950255 2621.477206
33 -420.419402 314.103407
34 4461.883299 -1098.248215
35 2558.441268 -376.032880
36 2321.952358 780.227997
37 -3697.584193 -1229.063194
38 1033.335647 -3691.393315
39 -3260.776167 -59.049456
40 -857.903402 -769.680696
41 30.630105 973.245588
42 -1899.142346 -1860.273140
43 -230.179573 1621.855279
44 1891.645117 985.509695
45 5305.153961 -428.601083
46 3779.000400 777.020807
47 102.442596 447.092170
48 -1641.598785 -428.177934
49 -7886.322545 3513.713795
50 -1020.446948 2585.310984
51 -6821.974973 -4435.163936
52 5973.759468 -1461.393690
53 520.384897 1488.959862
54 375.215562 393.590995
55 -8192.522613 -3382.399470
56 -6324.259022 -3514.415929
57 2270.045275 -232.222423
58 -666.710020 4708.844866
59 508.369050 2210.071506
60 4191.242354 -3459.419129
61 2105.627928 2662.281375
62 -647.587587 -459.742069
63 -2966.006236 -1678.063305
64 -257.823017 137.752522
65 -3998.427826 -2530.897259
66 104.933051 -1281.352605
67 -7536.474146 -2951.863985
68 -1617.850153 1501.147112
69 -731.736211 781.071899
70 -4426.863624 2579.133536
71 -1959.829149 3308.132646
72 369.821308 -1913.384743
73 480.396573 3197.947175
74 3376.086490 -1762.514359
75 -600.587625 1901.424653
76 -8027.075679 -1413.046855
77 59.067006 239.657009
78 -1505.556806 -1751.666339
79 -3921.684432 4494.095742
80 -4079.300182 2527.401811
81 2731.881956 749.842726
82 29.519231 163.379867
83 75.659754 -2662.851092
84 -233.030128 991.766362
85 -5104.975036 568.684025
86 315.095473 -29.388678
87 5808.481319 1727.606470
88 96.386596 1032.519761
89 -4649.608892 1780.400627
90 -3810.001464 4187.485275
91 -6542.947664 3722.014590
92 -8170.689227 4470.087451
93 7280.482549 -693.104640
94 7445.318504 -3992.901114
95 1874.923448 -626.086128
96 6631.763377 3192.459583
97 -8496.423162 -4698.640435
98 -2037.614492 -4411.522688
99 -47.859817 -1145.658862
100 3823.511626 157.527432
101 3951.629867 1375.679828
102 6637.023468 2389.614004
103 -1811.799042 2213.333945
104 -7190.757267 2701.881328
105 -3266.101282 -3771.347769
106 3784.530616 -4051.950034
107 5497.785025 -1328.645710
108 7135.365802 1987.368797
109 592.398962 887.791993
110 -3664.493312 2130.915296
111 -5942.221773 3326.455118
112 -6261.901273 4012.856128
113 -7631.816474 3545.365424
114 6267.732883 -1966.372786
115 1294.014038 1541.341907
116 -7335.015519 3800.200156
117 -3364.245990 3326.684903
118 -1543.458289 3299.894895
119 957.909665 1924.605671
120 4887.198628 -1103.018792
121 -7748.201202 3392.415086
122 -3715.794598 -2632.368265
123 -675.521730 -2556.652991
124 -3695.264987 2715.920091
125 132.356335 -2021.332598
126 -8788.695417 -4709.542509
127 -7059.147868 3347.395757
128 -6289.850704 4099.384964
129 840.255834 -3420.682673
130 -4458.228371 1777.252986
131 3739.345013 1510.472474
132 -6998.500227 4229.685968
133 2216.772695 -3845.147676
134 -6835.159773 3493.366058
135 -7959.513936 -4448.950044
136 8001.242911 -1143.596271
137 -5054.812435 1029.258541
138 -2836.827992 -664.847324
139 1671.501156 -618.989009
140 6037.242183 3400.298912
141 5441.840528 -1559.910569
142 -3824.945400 -2247.019334
143 -8081.870209 3245.527145
144 -7440.595504 -4063.567937
145 -590.321614 4086.117379
146 -1853.429624 3434.583789
147 -1145.091059 3036.281518
148 -1080.384117 -1889.060551
149 5813.848199 554.219781
150 534.916172 -3479.904295
151 4180.435811 1460.275081
152 5647.151387 428.684839
153 -6993.495653 3648.229946
154 -4438.587622 -3638.248136
155 -2580.261161 1236.402106
156 -5718.789452 -4666.699034
157 -8664.874795 3948.656763
158 -8633.524229 3349.398545
159 -4128.363857 3127.613731
160 -8726.222998 -3004.278489
161 3851.329213 3971.203523
162 -1568.505235 3184.690850
163 4904.129455 1503.923527
164 -117.487166 991.162216
165 7230.106468 -214.824244
166 4766.124763 -839.151696
167 2271.975525 -3770.483811
168 5448.173786 404.199457
169 5137.735063 975.243059
170 -6970.996689 3572.925296
171 -201.171216 -2775.945011
172 -2457.375548 4342.171612
DEMAND_SECTION
1 0
2 10
3 7
4 5
5 7
6 8
7 5
8 9
9 6
10 8
11 5
12 6
13 6
14 10
15 7
16 9
17 5
18 9
19 6
20 6
21 10
22 6
23 7
24 5
25 9
26 8
27 10
28 5
29 8
30 9
31 8
32 5
33 7
34 6
35 9
36 6
37 10
38 10
39 6
40 9
41 9
42 5
43 6
44 6
45 8
46 5
47 5
48 8
49 5
50 8
51 7
52 8
53 9
54 8
55 5
56 9
57 9
58 9
59 9
60 5
61 10
62 10
63 9
64 9
65 6
66 6
67 10
68 9
69 5
70 10
71 9
72 6
73 5
74 10
75 7
76 7
77 9
78 9
79 6
80 8
81 9
82 7
83 10
84 7
85 6
86 10
87 5
88 6
89 9
90 7
91 8
92 9
93 10
94 8
95 9
96 5
97 6
98 7
99 6
100 6
101 7
102 6
103 10
104 5
105 8
106 8
107 9
108 9
109 10
110 6
111 9
112 9
113 7
114 9
115 8
116 8
117 5
118 8
119 7
120 5
121 6
122 5
123 7
124 6
125 10
126 9
127 7
128 8
129 6
130 6
131 6
132 8
133 9
134 7
135 10
136 5
137 8
138 9
139 8
140 6
141 9
142 9
143 7
144 10
145 7
146 6
147 9
148 9
149 9
150 6
151 8
152 7
153 6
154 10
155 6
156 10
157 7
158 10
159 9
160 10
161 5
162 6
163 9
164 9
165 9
166 8
167 8
168 5
169 5
170 9
171 9
172 7
DEPOT_SECTION
1
-1
EOF
