NAME : mamut-sao_paulo-n123-k9-poi
COMMENT : Mamut2026 euclidean metric; city sao_paulo; No of trucks: 9 (lower bound, fleet not fixed); 3-decimal seconds/meters; ENU ref in mamut-sao_paulo-n123-k9-poi.vrp.json
TYPE : CVRP
DIMENSION : 124
EDGE_WEIGHT_TYPE : EXPLICIT
EDGE_WEIGHT_FORMAT : FULL_MATRIX
CAPACITY : 721
EDGE_WEIGHT_SECTION
0.000 23272.934 4393.141 4861.919 9558.661 3940.590 4787.176 7917.149 3675.272 7254.704 5598.751 7712.173 8765.878 9680.742 8655.901 22494.484 6453.675 8470.521 10926.989 9034.332 12651.128 7394.930 11472.909 11323.742 14593.903 36465.252 10299.043 16310.290 51636.861 15845.889 46534.565 17448.000 6935.645 9723.697 9814.024 18240.268 46849.723 5334.357 8091.844 4484.688 13551.627 4633.257 17291.614 8867.714 10570.934 5784.679 8751.562 7249.108 4837.541 20366.536 12586.576 6074.041 5059.126 5598.342 5162.784 8007.606 5808.669 13141.318 25632.733 8496.764 49622.860 5296.490 5433.719 7728.574 7485.899 5230.421 31554.327 11909.502 54887.123 11428.916 6603.301 7164.909 27625.869 9012.550 8013.485 6488.248 7548.537 2283.863 4864.902 15518.410 11463.410 6284.289 6810.087 14125.053 18927.959 7120.151 11026.167 9724.866 20947.860 4041.350 2105.028 7490.684 10118.407 12072.148 11015.537 9900.279 10018.112 4149.108 3100.190 9622.872 9902.571 7352.281 4600.208 10733.662 12530.182 36736.262 10488.017 5218.443 10729.226 11707.773 49206.647 6213.625 8732.405 2147.155 3616.356 9664.941 10891.160 10980.837 7858.243 27021.948 12950.483 4723.390 5454.705 30034.962
23272.934 0.000 19192.768 23436.596 32512.355 21576.363 21450.207 22650.797 19784.311 21672.778 24033.098 25055.225 26834.255 19997.647 25441.010 44816.594 26693.741 15306.608 30636.920 16483.243 31868.531 20464.185 32072.782 32397.175 11768.809 23795.612 25887.918 9538.889 57259.355 37813.955 53205.717 35598.857 22529.331 20162.903 16745.905 10730.969 50538.246 22973.938 23703.026 18836.824 31026.163 18640.169 35346.473 17705.146 29375.361 17495.525 17909.659 21481.152 22217.692 42088.874 32353.371 26035.488 21495.800 28760.063 28259.752 22873.380 17521.827 16413.142 48861.023 19918.967 55510.601 27271.653 23256.179 20657.295 16060.261 23015.913 40985.100 34727.902 60998.102 27716.135 26670.628 26884.092 24497.978 28619.488 27964.598 27063.497 25029.966 25556.581 18408.238 29444.367 32542.175 26453.614 29672.698 29446.618 13367.817 30072.131 23877.689 15099.351 29015.728 22455.565 21576.307 22972.412 31427.897 32624.588 30799.566 20103.538 15636.569 19179.534 22363.275 18854.225 22903.765 18532.641 20161.199 27773.117 27778.472 50791.032 33098.653 21342.937 20817.984 22234.331 50093.251 22581.568 28023.627 25149.679 24781.318 14907.760 21677.358 27800.465 20574.061 40704.216 34920.370 25621.822 21453.116 52350.780
4393.141 19192.768 0.000 5075.559 13949.891 2907.210 3339.673 6564.217 744.224 5464.428 5909.435 7796.512 11802.291 6838.708 8612.309 25878.764 10057.225 5526.352 14666.487 7285.337 14266.092 4868.387 13740.397 13849.828 10227.103 34437.076 9947.943 13184.508 53392.599 18975.546 48415.630 21040.437 5742.291 6947.201 5831.414 15530.084 48163.773 4970.224 10023.550 2092.754 14423.250 1616.088 20856.296 5085.815 14020.019 2049.494 5033.856 5343.731 4055.686 24692.562 14469.423 7552.640 3580.895 9973.525 9085.590 6757.697 2725.292 9286.980 29901.964 5649.498 51400.973 8198.115 5243.482 5293.052 3167.207 4941.922 30781.211 16302.630 56774.783 11565.003 10154.603 8614.012 24267.789 10576.571 11649.418 8434.556 10172.377 6596.097 1611.608 17907.967 13997.317 7931.696 10483.555 14150.414 16777.777 10879.578 12505.220 7329.801 19292.565 3825.890 2423.210 6424.723 12741.056 14338.643 14780.242 7092.355 8030.107 863.348 3354.749 6331.328 8280.007 3719.167 1839.067 11134.959 15034.140 39882.773 14869.672 6326.518 11093.809 9541.503 50025.105 5253.225 10089.725 6003.428 7275.889 7119.198 11572.168 13828.733 5368.697 29899.135 16040.451 6737.731 3847.173 34425.095
4861.919 23436.596 5075.559 0.000 12219.807 2168.364 1998.982 3251.348 4938.744 3004.076 869.308 2985.229 13576.644 5815.290 3911.758 21381.468 11122.097 10600.474 15360.478 12171.690 9192.690 3775.129 8800.920 9016.562 12957.954 39499.520 5500.423 18201.087 56494.984 14377.910 51396.079 21885.728 2339.050 5790.016 7444.630 20599.496 51659.161 695.981 12898.282 6814.649 9434.256 6519.787 21752.129 6340.694 15206.818 7119.761 6151.674 3095.900 1218.946 23480.820 9421.575 2615.093 1942.606 8408.440 6278.073 3286.410 7764.059 10114.129 26823.002 4871.936 54481.710 4228.469 625.582 3905.543 7650.840 589.255 26773.100 14551.240 59748.974 6829.150 11292.238 3587.908 23500.712 5522.366 12608.168 3627.175 12410.343 5544.665 6601.280 20376.318 9163.542 3028.188 6989.997 9515.595 21833.631 7460.269 15780.248 12367.028 16102.258 1269.023 3904.863 2745.657 7999.694 9386.840 15424.876 5969.501 12997.578 5662.825 2091.591 6250.008 5195.462 5076.676 3463.960 6261.008 17386.846 41346.290 13510.209 9693.558 15117.423 7150.031 53907.913 1657.773 5018.554 4359.681 8391.257 12174.419 15406.343 15806.122 4048.329 31765.175 11487.000 2399.225 2045.019 32460.300
9558.661 32512.355 13949.891 12219.807 0.000 12747.963 13402.677 15301.842 13233.701 15223.861 12381.118 13597.905 8906.123 18027.819 14290.147 16519.736 6979.251 17264.104 7009.388 16790.714 13800.396 15880.845 11550.123 10788.008 24105.799 42392.394 15752.846 24633.497 49310.080 11798.411 44041.120 12025.344 14506.442 18007.976 19051.999 25962.055 45690.153 12914.518 11317.954 13749.712 15960.523 14032.136 12007.736 18011.715 8108.929 15218.006 17860.371 15311.290 13010.138 11266.482 13144.225 11058.026 13576.246 4009.009 6031.027 15263.784 15035.495 22145.103 16443.462 17018.333 47292.657 8542.912 12804.876 16079.533 17029.935 12804.481 34827.510 2376.748 52171.977 15794.526 7125.575 11405.196 35554.075 11910.701 6764.356 10388.553 9690.165 7401.585 14279.549 14489.417 10838.952 10845.902 6200.841 17938.210 25866.278 5814.963 13661.780 17928.490 26539.911 12293.587 11587.028 14742.319 9961.153 11887.457 6926.092 18187.937 17805.373 13671.389 11737.300 18348.360 17028.267 16519.934 13853.144 14906.299 12160.377 31254.572 1532.552 11673.371 15440.352 19087.666 49103.942 13869.738 12170.007 8275.254 7849.574 18004.178 15036.593 10325.190 16223.046 22847.588 9966.135 10111.393 13892.571 20515.952
3940.590 21576.363 2907.210 2168.364 12747.963 0.000 860.292 4256.809 2812.925 3403.748 3007.448 4974.992 12606.605 5742.531 5841.377 23276.572 10386.798 8432.655 14863.309 10062.823 11360.070 3455.843 10897.271 11056.758 11594.765 37336.768 7297.967 16052.493 55138.637 16310.071 50086.514 21387.795 3299.741 5783.382 6316.452 18433.061 50137.262 2125.759 11490.170 4709.938 11555.272 4378.328 21232.054 5264.399 14501.613 4952.127 5112.529 3368.725 1251.810 23880.302 11575.775 4689.903 1150.284 8763.100 7184.146 4399.219 5603.909 9435.178 28072.410 4568.491 53132.972 5717.840 2378.811 3789.030 5610.913 2078.901 28439.952 15122.686 58447.908 8803.976 10531.478 5725.300 23692.730 7678.715 11952.798 5625.509 11235.785 5473.502 4446.710 19202.153 11204.357 5083.390 8289.150 11447.494 19672.978 8730.535 14257.193 10211.108 17350.877 935.039 2227.277 3951.720 9987.364 11490.478 14949.444 5960.272 10864.365 3520.035 1010.817 5755.451 6195.615 3784.864 1415.988 8312.054 16235.335 40655.886 13887.752 8042.821 13314.396 7860.427 52228.021 2653.221 7184.533 4475.803 7532.113 10012.747 13673.584 14787.161 3917.921 30885.507 13389.174 4051.148 1548.404 33224.806
4787.176 21450.207 3339.673 1998.982 13402.677 860.292 0.000 3453.402 3409.837 2551.236 2713.527 4462.969 13466.859 4911.717 5273.036 23366.491 11238.319 8820.871 15700.828 10609.920 11077.313 2627.544 10788.240 11015.083 11158.809 37735.707 6644.207 16289.995 55969.894 16368.758 50923.889 22228.973 2524.219 4945.776 5753.135 18748.187 50941.889 1684.937 12327.682 5299.944 11102.016 4909.749 22075.014 4669.338 15354.331 5321.643 4501.234 2510.543 795.277 24581.596 11355.634 4614.019 298.280 9444.552 7702.355 3610.597 6063.908 8743.427 28514.638 3756.839 53965.361 6002.322 1973.692 2943.688 5669.343 1682.795 27689.569 15771.672 59285.720 8228.573 11384.597 5562.820 22863.261 7462.455 12800.635 5620.440 12092.454 6217.667 4941.471 20055.766 11162.000 5027.013 8676.299 10831.709 20089.881 9131.775 15074.173 10661.870 16522.791 1146.376 3072.767 3196.079 9996.312 11370.504 15784.988 5124.026 11369.182 4064.121 1754.973 4993.773 5364.896 3260.333 1555.546 7797.626 17091.024 41512.042 14581.673 8846.372 14059.227 7002.473 52994.431 1942.089 6929.424 5164.796 8386.894 10441.353 14441.540 15647.145 3075.526 31745.738 13470.169 4232.172 690.666 33836.417
7917.149 22650.797 6564.217 3251.348 15301.842 4256.809 3453.402 0.000 6785.818 1171.268 2922.005 2533.267 16683.023 3152.255 2790.255 22639.845 14303.514 11756.243 18599.122 13810.736 9218.076 2284.440 9637.498 10120.108 11378.642 40498.261 3580.538 18732.133 59387.072 15652.713 54325.866 25128.713 982.918 3056.360 5929.899 21370.684 54391.375 2633.421 15734.788 8628.323 8585.053 8179.859 24992.636 4946.239 18406.710 8344.305 4742.252 1344.040 3112.076 26564.887 9729.037 4549.596 3158.045 11591.594 9281.910 232.271 9201.746 7717.030 29214.051 2761.877 57380.065 6917.730 2625.784 2011.051 8037.176 2746.093 24260.289 17592.828 62686.106 5378.160 14466.924 4868.055 20297.827 6183.148 15814.453 5538.175 15409.377 8795.276 8164.829 23389.252 10255.306 4904.361 9664.635 7754.221 22956.036 10140.564 18514.002 13686.979 13104.203 3882.177 6475.391 564.653 9374.882 10141.223 18666.091 3210.543 14488.444 7373.719 4848.740 4030.554 1985.515 4388.474 4737.713 5220.616 20409.613 44565.703 16644.268 12295.233 17498.596 3898.973 56442.014 1703.837 5565.151 7610.975 11518.364 13425.858 17891.988 18895.631 2081.589 34927.751 12942.216 5201.544 2799.150 35299.969
3675.272 19784.311 744.224 4938.744 13233.701 2812.925 3409.837 6785.818 0.000 5739.425 5798.181 7785.924 11126.582 7351.672 8641.405 25410.431 9333.431 5738.122 13941.912 7249.950 14077.939 5277.991 13438.641 13504.963 10966.931 34578.429 10052.234 13516.319 52920.391 18544.182 47923.953 20332.208 5907.322 7449.242 6539.722 15775.974 47752.986 4936.418 9448.077 1900.022 14361.846 1585.148 20150.285 5756.022 13315.698 2404.014 5691.744 5638.245 4042.075 23951.095 14237.253 7300.066 3682.524 9267.871 8475.545 6964.708 2863.347 9986.760 29238.208 6144.730 50924.876 7737.704 5191.727 5695.830 3828.398 4891.749 31044.703 15581.799 56285.165 11604.523 9434.193 8389.927 24918.671 10363.867 10927.270 8126.652 9525.878 5904.111 1693.576 17319.168 13651.973 7661.075 9924.119 14230.625 16910.069 10307.379 12005.510 7439.269 19677.028 3669.745 1792.346 6587.546 12372.924 14040.677 14054.145 7602.156 8059.804 739.207 3035.217 6922.674 8586.778 4341.845 2084.086 11124.502 14423.792 39227.538 14138.503 5783.440 10738.800 9961.699 49689.610 5351.915 9904.931 5370.749 6540.368 7260.783 11174.732 13178.073 5784.685 29269.718 15607.868 6377.374 4001.200 33697.422
7254.704 21672.778 5464.428 3004.076 15223.861 3403.748 2551.236 1171.268 5739.425 0.000 3002.066 3383.997 15989.037 2821.119 3832.334 23422.663 13700.686 10591.888 18094.954 12676.145 10218.859 1209.081 10470.842 10890.584 10577.533 39328.087 4747.903 17573.587 58508.207 16411.789 53468.512 24630.878 911.401 2788.116 5045.179 20203.295 53443.161 2309.610 14874.185 7545.767 9707.566 7079.465 24485.039 3998.420 17817.332 7195.435 3792.675 192.670 2439.079 26484.065 10680.814 4924.377 2255.318 11394.679 9268.986 1396.132 8065.976 7249.220 29595.409 2019.721 56504.960 7078.984 2432.806 1076.134 6869.208 2420.396 25320.777 17554.167 61830.643 6532.527 13854.513 5466.159 20570.648 6999.112 15243.387 5972.135 14638.949 8397.180 7051.750 22605.725 11030.249 5320.141 9859.817 8925.424 21785.204 10335.585 17599.566 12527.587 13995.404 3248.638 5623.999 1314.192 10061.528 10999.385 18171.009 2966.874 13339.064 6292.148 4155.175 3405.476 2852.851 3266.732 3663.523 6332.696 19638.936 43986.893 16508.500 11361.222 16476.807 4463.252 55427.848 1367.666 6389.532 7248.381 10870.709 12263.298 16896.710 18179.980 1197.103 34263.948 13635.603 5272.307 1861.332 35427.387
5598.751 24033.098 5909.435 869.308 12381.118 3007.448 2713.527 2922.005 5798.181 3002.066 0.000 2145.913 14240.877 5801.237 3084.187 20814.101 11733.100 11435.585 15876.727 13036.984 8380.120 3982.153 8098.796 8368.512 13346.951 40343.903 4705.523 18991.393 57230.010 13797.419 52119.313 22383.026 2169.426 5750.096 7796.901 21417.455 52437.571 1063.831 13673.119 7679.168 8568.053 7376.189 22257.006 6698.700 15788.584 7946.075 6501.074 3137.813 1920.303 23645.566 8642.771 2036.688 2590.176 8684.506 6366.906 2897.469 8611.179 10245.743 26605.340 4994.563 55215.015 4082.195 777.270 4021.652 8379.666 1038.403 25977.038 14678.267 60468.406 5974.958 11909.409 2869.942 23212.533 4748.968 13186.751 3096.085 13132.116 6039.723 7452.039 21079.699 8514.257 2454.780 6861.086 8666.909 22680.427 7337.282 16574.636 13217.580 15446.719 2131.879 4763.738 2366.167 7403.620 8674.938 15933.851 5923.684 13857.984 6518.319 2952.527 6387.744 4747.991 5553.732 4239.903 5394.177 18089.272 41885.999 13722.951 10523.062 15964.074 6771.462 54722.627 1665.990 4219.332 4842.660 9058.339 13020.189 16241.538 16476.535 4158.000 32371.275 10937.551 2300.621 2581.951 32457.480
7712.173 25055.225 7796.512 2985.229 13597.905 4974.992 4462.969 2533.267 7785.924 3383.997 2145.913 0.000 16260.524 5659.055 943.859 20109.841 13694.964 13280.156 17688.425 15033.273 6867.693 4591.467 7116.545 7587.011 13895.380 42188.973 2598.376 20637.692 59312.961 13119.657 54189.594 24145.520 2536.384 5549.125 8403.981 23161.794 54561.602 2849.601 15799.809 9684.550 6644.944 9337.061 24032.114 7376.606 17697.008 9782.292 7170.811 3574.977 3750.650 24782.986 7300.860 2540.330 4246.363 10175.749 7603.931 2349.393 10521.735 10218.234 26850.628 5268.983 57296.250 5055.006 2602.052 4424.364 9914.852 2898.369 23844.814 15798.295 62533.512 3849.986 13878.340 2469.663 22012.741 3653.271 15099.806 3324.498 15215.620 7911.060 9386.467 23136.106 7722.462 2774.680 7632.909 6530.808 24550.307 8097.465 18711.877 15123.920 13518.624 4190.051 6887.895 2106.521 6855.153 7631.666 17734.134 5691.318 15817.381 8481.261 5074.809 6563.284 3588.658 6580.836 6010.766 3341.181 20147.124 43695.735 15022.945 12668.594 18102.446 5622.760 56866.750 2666.063 3036.275 6729.742 11096.858 14904.291 18386.060 18499.506 4522.594 34291.114 10416.127 3688.633 4065.772 33199.076
8765.878 26834.255 11802.291 13576.644 8906.123 12606.605 13466.859 16683.023 11126.582 15989.037 14240.877 16260.524 0.000 18242.586 17188.130 25385.324 2729.773 12025.896 3839.149 10356.780 19727.785 15992.168 17903.268 17401.025 21259.612 33661.905 18854.215 17852.582 43129.967 20091.874 37971.811 9405.799 15701.461 18308.568 17618.564 18496.217 38680.135 14089.479 3188.477 10310.508 21246.478 10840.124 9196.686 16881.374 2555.759 11823.818 16818.185 15968.780 13595.559 15446.353 19365.424 14176.680 13753.520 7961.679 10338.602 16771.805 11123.710 21080.432 24190.557 17029.240 41108.590 12339.104 14170.577 16360.872 13891.519 13983.114 39904.894 10108.434 46301.677 19731.631 2523.087 15101.915 36034.585 16580.629 2145.009 14173.050 1854.602 8457.362 11064.430 6931.812 17505.667 14238.305 11848.127 22359.255 17837.062 11791.286 4799.103 11762.327 29676.961 12805.243 10449.306 16251.612 16261.785 18417.731 4008.222 18478.042 11204.935 11064.072 11852.096 17985.563 18668.447 15457.266 12885.824 18939.698 3989.497 28122.139 8431.689 6027.883 7068.751 20451.793 41493.704 14979.435 16507.454 9579.506 5185.938 11989.276 6474.221 2239.129 16480.892 18278.964 17716.663 12775.815 14152.430 25823.643
9680.742 19997.647 6838.708 5815.290 18027.819 5742.531 4911.717 3152.255 7351.672 2821.119 5801.237 5659.055 18242.586 0.000 5730.002 25711.308 16113.119 11022.837 20605.784 13444.856 12054.087 2286.783 12697.613 13222.302 8445.595 39046.590 5902.664 17111.890 60228.759 18749.385 55254.239 27128.679 3638.286 176.554 3388.436 19905.281 54951.483 5119.309 16791.921 8867.517 11030.719 8325.447 26971.448 2782.251 20221.183 8035.188 2636.673 2719.393 5085.411 29280.633 12648.880 7636.589 4661.413 14165.890 12088.402 3314.585 8989.651 4565.082 32330.797 1217.290 58238.216 9883.387 5253.598 1987.112 6962.070 5227.504 24533.787 20365.110 63613.486 7720.699 16252.361 8019.103 17951.918 9278.342 17686.888 8655.031 16762.429 11071.546 8216.685 24644.075 13354.446 8011.264 12661.120 9578.547 21787.794 13137.527 19340.951 12997.613 12653.677 5868.330 7800.532 3670.322 12513.934 13176.212 20691.926 255.750 13933.972 7698.536 6660.118 1177.594 2909.432 3304.807 5385.669 7831.825 21721.305 46346.881 19293.681 13134.263 17852.349 2973.590 56680.281 4188.692 8660.638 9958.903 13250.085 12681.752 18374.028 20379.444 1847.871 36500.079 16074.146 8087.534 4283.980 38247.031
8655.901 25441.010 8612.309 3911.758 14290.147 5841.377 5273.036 2790.255 8641.405 3832.334 3084.187 943.859 17188.130 5730.002 0.000 19987.001 14610.546 14056.916 18560.835 15876.831 6428.335 5027.990 6976.573 7538.807 14116.284 42942.280 1666.311 21310.691 60251.419 13045.967 55125.571 24998.525 3094.878 5598.591 8713.336 23876.597 55505.419 3720.743 16743.652 10541.401 5925.966 10175.671 24889.110 7736.439 18596.495 10567.374 7532.347 4024.178 4599.597 25419.658 6956.039 3292.504 5035.985 10971.149 8345.171 2568.218 11335.050 10225.705 27131.061 5537.706 58234.399 5770.738 3491.435 4792.838 10577.866 3780.280 22901.033 16448.647 63468.271 2963.271 14795.464 2942.203 21428.813 3617.874 16002.261 3915.400 16155.582 8814.650 10213.776 24070.354 7665.984 3450.649 8226.943 5618.699 25323.624 8679.944 19654.787 15924.793 12638.785 5091.471 7806.125 2520.184 6939.491 7447.040 18603.182 5720.015 16642.191 9323.830 5995.124 6738.164 3275.607 7095.987 6800.653 2558.253 21081.984 44557.930 15738.090 13602.877 19026.715 5199.859 57806.809 3389.263 3014.186 7640.508 12030.232 15695.327 19317.808 19427.257 4869.750 35188.774 10443.746 4544.720 4813.797 33673.121
22494.484 44816.594 25878.764 21381.468 16519.736 23276.572 23366.491 22639.845 25410.431 23422.663 20814.101 20109.841 25385.324 25711.308 19987.001 0.000 23174.831 30913.002 23297.468 31433.144 14011.807 24595.889 13013.751 12532.800 33995.148 58395.123 20206.365 38780.128 63498.060 7019.934 58239.653 26520.973 22519.649 25583.655 28465.664 40719.122 60802.341 21864.059 27480.606 26837.264 15961.073 26829.664 26619.553 27400.237 24551.666 27813.406 27195.890 23605.241 22600.073 19587.344 13251.241 18792.917 23323.511 18273.871 17379.253 22446.039 28114.587 30203.188 12154.242 25373.608 61530.556 17681.420 21587.350 24492.986 28873.748 21816.060 28532.703 15978.755 65951.155 18725.651 23353.087 18007.602 38488.173 16456.974 23241.302 17756.184 25936.495 20433.310 27015.087 30777.299 12394.118 18373.636 15685.165 18602.847 41210.033 15396.004 30064.718 32214.349 26404.130 22377.860 23673.418 22205.582 13412.393 12544.590 23182.509 25706.938 32443.020 26108.281 22564.550 26669.605 23126.321 26362.880 24691.047 18246.891 28642.367 42961.026 17327.456 26762.766 31475.721 24692.398 64741.818 22344.582 17074.764 20364.628 22953.131 32159.425 31206.285 26832.525 24602.472 36801.275 9896.474 19226.699 23381.916 21403.950
6453.675 26693.741 10057.225 11122.097 6979.251 10386.798 11238.319 14303.514 9333.431 13700.686 11733.100 13694.964 2729.773 16113.119 14610.546 23174.831 0.000 11468.145 4609.304 10366.611 16998.314 13832.388 15186.512 14698.960 19994.179 35432.963 16275.692 18179.777 45806.422 17598.004 40633.264 11045.768 13330.568 16162.611 15868.343 19230.744 41405.148 11678.771 4351.671 8919.441 18527.184 9388.695 10877.524 15033.827 4117.465 10494.926 14946.557 13699.974 11270.579 15427.271 16640.604 11530.306 11512.340 5317.991 7613.701 14373.683 9958.486 19300.452 23049.976 14916.492 43783.757 9624.478 11732.158 14175.490 12553.988 11568.652 37232.053 8649.815 48951.463 17082.020 208.190 12425.517 34031.847 13866.090 1596.052 11480.213 2762.629 5813.509 9633.424 9634.449 14806.143 11571.566 9150.032 19689.003 18955.767 9114.933 6927.982 11661.039 27176.845 10465.060 8346.474 13842.363 13550.425 15706.452 4724.753 16337.604 11332.385 9424.647 9546.698 15977.286 16283.925 13553.637 10867.142 16276.504 6715.856 30286.217 6915.327 5351.023 8462.615 18140.726 44216.831 12604.467 13806.856 6971.086 2866.310 11813.813 8085.442 4911.249 14303.261 20643.895 15129.115 10140.832 11908.280 25657.494
8470.521 15306.608 5526.352 10600.474 17264.104 8432.655 8820.871 11756.243 5738.122 10591.888 11435.585 13280.156 12025.896 11022.837 14056.916 30913.002 11468.145 0.000 15673.701 2695.137 19786.118 9685.210 19173.387 19220.377 9886.349 28917.110 15283.490 7869.181 50224.825 24144.961 45433.749 21310.435 11060.169 11178.072 8449.348 10038.123 44558.468 10482.394 9164.274 4085.934 19922.636 4179.944 21081.728 8404.915 14570.274 3499.481 8489.902 10434.347 9566.758 26895.160 19968.303 13033.738 9034.404 13648.916 13633.119 11972.245 2878.293 11433.442 33683.615 10052.503 48273.734 13348.327 10760.361 10090.788 4078.941 10459.569 35545.728 19441.024 53736.700 16978.795 11464.787 14115.002 26380.395 16085.072 12834.834 13862.841 10171.388 10677.533 4044.936 16443.716 19366.884 13398.249 15254.554 19490.753 11270.247 15582.372 10501.212 1976.014 23635.180 9344.444 7320.188 11727.101 18072.568 19776.097 15826.017 11268.275 2936.759 4999.137 8773.094 10093.060 13197.395 7789.319 7269.445 16603.461 14015.227 38803.426 17797.981 6150.600 8001.525 13985.994 45932.077 10668.379 15609.154 10563.918 9479.647 1678.116 8761.376 13458.907 10115.495 28581.562 21215.506 12099.244 9243.395 37087.387
10926.989 30636.920 14666.487 15360.478 7009.388 14863.309 15700.828 18599.122 13941.912 18094.954 15876.727 17688.425 3839.149 20605.784 18560.835 23297.468 4609.304 15673.701 0.000 14153.748 19874.773 18319.152 17797.657 17150.206 24552.217 36832.662 20201.368 21691.730 42690.761 18797.927 37448.723 6536.014 17645.951 20645.431 20474.236 22296.281 38808.995 15967.005 7026.803 13479.293 21728.838 13964.920 6394.139 19628.686 1518.092 15046.506 19537.203 18110.923 15656.033 11613.687 19359.104 15329.007 15963.485 7937.898 10676.498 18645.896 14455.078 23900.676 20777.446 19423.721 40667.196 13097.026 15983.592 18644.333 17115.526 15853.752 40665.221 7385.690 45676.764 20767.510 4518.383 16072.814 38552.830 17210.824 3021.071 15059.878 5607.191 9837.338 14206.308 7506.095 17229.403 15286.009 11786.557 23248.757 21526.686 11580.305 8140.022 15544.426 31199.606 14846.521 12900.631 18105.931 16136.440 18233.288 173.128 20822.913 15023.497 14029.248 13971.374 20527.071 20555.939 18140.652 15433.312 19914.566 5481.673 26014.346 5976.757 9547.617 10771.499 22482.484 42115.405 16923.233 17275.852 11034.273 7435.905 15755.802 10096.821 3912.813 18776.295 16728.764 16815.627 14016.257 16353.636 21995.119
9034.332 16483.243 7285.337 12171.690 16790.714 10062.823 10609.920 13810.736 7249.950 12676.145 13036.984 15033.273 10356.780 13444.856 15876.831 31433.144 10366.611 2695.137 14153.748 0.000 21205.374 11895.471 20334.339 20271.637 12473.655 27507.142 17233.228 7855.619 47530.781 24872.147 42739.116 19360.973 13021.426 13591.188 11066.786 9326.827 41886.184 12184.724 7263.551 5358.155 21604.992 5701.317 19120.262 10931.946 12904.969 5502.312 10997.794 12536.629 11284.239 25647.730 21287.243 14391.987 10861.303 13535.582 14057.677 14013.107 4610.207 14118.269 33207.213 12401.270 45578.996 14260.000 12441.632 12315.243 6624.642 12141.490 37880.109 18805.308 51041.565 18836.867 10316.817 15508.452 29072.825 17478.620 11531.677 15098.517 8546.723 11000.179 5674.125 14038.122 20414.720 14716.382 15778.078 21435.073 9901.932 16042.870 8092.407 1432.479 26097.050 10905.105 8473.977 13702.692 19082.197 20939.352 14316.595 13696.040 1026.067 6553.638 10167.693 12587.131 15407.544 10153.118 9122.517 18373.285 11792.562 36348.846 17099.740 5129.161 5395.007 16373.846 43330.260 12536.627 17061.756 11179.182 8968.225 1725.153 6195.581 11481.383 12358.780 26109.508 21983.869 13283.105 11132.190 35963.830
12651.128 31868.531 14266.092 9192.690 13800.396 11360.070 11077.313 9218.076 14077.939 10218.859 8380.120 6867.693 19727.785 12054.087 6428.335 14011.807 16998.314 19786.118 19874.773 21205.374 0.000 11426.366 2318.606 3181.469 20494.048 48652.325 6275.101 27367.159 62536.840 7459.280 57307.853 25724.719 9401.187 11907.005 15139.450 29792.056 58371.265 9393.372 20263.635 15899.785 2477.336 15662.158 25680.202 14163.400 20391.635 16312.170 13958.966 10411.483 10292.416 23691.688 897.878 6813.442 10918.628 12006.334 9404.410 8996.548 16932.464 16390.305 22792.372 11962.509 60512.283 7574.207 9103.691 11213.776 16701.921 9395.837 21027.174 15346.964 65550.372 4714.106 17205.485 5699.803 25154.925 3726.831 18011.568 6177.833 19236.180 11626.235 15763.465 26576.276 3188.740 6495.703 8090.362 5127.673 30984.622 8302.865 23253.388 21514.591 13968.829 10442.065 12733.590 8908.556 3839.306 2214.638 19860.561 12005.840 22084.635 14813.752 11064.223 13121.984 9284.530 13447.240 12618.006 4291.940 23707.007 45054.438 15324.685 17858.677 23352.152 10709.289 61198.809 9487.454 4176.969 10791.391 15111.160 21338.383 23450.293 21864.418 11294.851 36460.241 5676.519 7988.994 10818.017 30437.061
7394.930 20464.185 4868.387 3775.129 15880.845 3455.843 2627.544 2284.440 5277.991 1209.081 3982.153 4591.467 15992.168 2286.783 5027.990 24595.889 13832.388 9685.210 18319.152 11895.471 11426.366 0.000 11664.415 12067.943 9424.326 38287.188 5838.358 16475.603 58194.728 17580.478 53189.289 24842.901 2082.408 2330.242 3873.523 19142.557 53021.042 3099.567 14646.845 6956.288 10869.170 6448.031 24686.323 2806.193 17943.236 6393.527 2601.176 1017.074 2872.721 27107.948 11889.684 5983.251 2385.240 11971.537 10021.678 2516.694 7308.365 6340.237 30566.246 1144.505 56197.889 7983.622 3300.006 425.922 5829.242 3194.122 25995.695 18235.122 61551.290 7654.277 13973.457 6607.834 20238.254 8193.595 15403.610 7042.660 14545.807 8816.953 6382.734 22464.151 12208.700 6391.127 10757.135 9959.106 20796.885 11229.258 17274.385 11644.853 14424.303 3624.868 5542.867 2518.291 11213.395 12197.524 18405.159 2505.795 12500.903 5727.645 4379.907 2482.169 3518.972 2107.639 3224.007 7501.877 19523.690 44081.218 17109.515 11037.401 15962.120 4684.486 54888.811 2324.065 7586.749 7726.356 10971.444 11363.113 16432.032 18144.842 507.326 34262.572 14783.751 6153.989 2020.473 36213.751
11472.909 32072.782 13740.397 8800.920 11550.123 10897.271 10788.240 9637.498 13438.641 10470.842 8098.796 7116.545 17903.268 12697.613 6976.573 13013.751 15186.512 19173.387 17797.657 20334.339 2318.606 11664.415 0.000 881.212 21011.616 47841.419 7357.552 26924.808 60487.756 6081.437 55246.184 23523.289 9582.209 12570.523 15511.999 29210.608 56443.851 9161.539 18695.874 15158.119 4730.193 14995.968 23486.770 14468.001 18396.362 15781.029 14262.410 10657.843 9994.261 21380.734 1594.175 6208.157 10686.368 10035.555 7582.954 9439.528 16295.159 17200.636 20884.651 12385.345 58463.976 6191.651 8871.763 11529.894 16451.690 9135.632 23296.094 13041.496 63463.225 6184.658 15394.693 5229.584 27023.277 3471.739 16093.756 5312.505 17559.221 10125.924 15129.601 24671.060 921.994 5815.099 6088.809 7238.415 30210.939 6232.429 21666.575 20786.953 16148.584 9962.466 11913.802 9221.392 1664.263 605.273 17774.099 12695.093 21262.796 14176.420 10409.722 13663.203 10160.527 13540.171 12257.048 5508.130 21853.690 42792.042 13066.703 16585.857 22008.447 11852.868 59394.968 9491.214 4083.528 9453.474 13533.792 20646.200 22035.622 19987.453 11633.032 34293.661 3715.783 7085.130 10670.395 28289.818
11323.742 32397.175 13849.828 9016.562 10788.008 11056.758 11015.083 10120.108 13504.963 10890.584 8368.512 7587.011 17401.025 13222.302 7538.807 12532.800 14698.960 19220.377 17150.206 20271.637 3181.469 12067.943 881.212 0.000 21462.527 47766.137 8051.749 27018.369 59837.459 5532.651 54589.558 22788.510 9989.124 13102.103 15934.773 29245.667 55859.979 9430.975 18323.460 15171.416 5609.660 15041.042 22757.648 14873.766 17797.383 15875.608 14668.981 11073.759 10227.386 20510.454 2400.140 6401.818 10935.416 9479.208 7142.858 9931.809 16344.743 17755.216 20074.297 12843.275 57814.399 6029.349 9145.758 11960.276 16650.611 9395.064 24097.433 12219.247 62790.938 6975.122 14906.988 5513.886 27847.319 3943.969 15544.410 5431.389 17135.322 9833.681 15186.939 24114.068 147.631 5991.998 5553.052 8114.469 30167.148 5643.326 21277.636 20782.080 17026.954 10126.856 11918.381 9675.773 1214.050 1100.068 17120.821 13233.649 21217.757 14238.338 10498.775 14150.282 10771.708 13879.845 12442.089 6260.879 21328.368 42006.845 12295.518 16361.019 21733.930 12524.605 58873.447 9839.500 4561.864 9250.415 13176.757 20656.180 21728.152 19452.446 12069.688 33578.258 2958.413 7127.626 10950.462 27420.525
14593.903 11768.809 10227.103 12957.954 24105.799 11594.765 11158.809 11378.642 10966.931 10577.533 13346.951 13895.380 21259.612 8445.595 14116.284 33995.148 19994.179 9886.349 24552.217 12473.655 20494.048 9424.326 21011.616 21462.527 0.000 32969.491 14331.077 11728.288 59615.356 26988.156 54953.800 30665.256 11485.079 8597.998 5555.666 14638.198 53647.077 12360.199 18747.194 11076.534 19423.720 10608.753 30455.891 6648.779 23695.403 9505.834 6847.831 10397.687 11805.763 34916.866 21068.078 15377.287 11096.205 20101.063 18776.073 11582.750 10138.702 4665.830 39661.586 8626.399 57697.974 17144.270 12607.896 9504.257 7440.329 12432.217 30060.611 26474.143 63194.618 16123.885 20058.040 16031.384 17068.468 17546.771 21545.811 16438.952 19450.488 16705.023 10362.242 26293.010 21601.030 15791.245 19834.690 17712.217 17166.957 20288.491 20369.597 11271.120 17835.866 12294.599 12524.893 11792.870 20635.118 21519.706 24682.624 8511.949 12314.921 10677.560 12564.994 7379.239 11300.684 7905.788 10324.401 16275.384 23755.544 48656.914 25081.828 15247.520 17861.272 10477.563 54490.215 11726.569 16930.960 15916.353 17362.049 10901.152 18639.393 22984.279 9393.113 38449.538 24207.127 15338.040 10919.501 44615.578
36465.252 23795.612 34437.076 39499.520 42392.394 37336.768 37735.707 40498.261 34578.429 39328.087 40343.903 42188.973 33661.905 39046.590 42942.280 58395.123 35432.963 28917.110 36832.662 27507.142 48652.325 38287.188 47841.419 47766.137 32969.491 0.000 44074.443 21940.473 40921.484 52159.480 38445.649 38027.145 39894.441 39221.042 35778.794 19157.779 33586.419 39399.466 31081.920 32755.508 48833.869 32993.330 37770.726 36267.471 35326.353 32416.161 36423.886 39154.669 38483.808 47344.847 48774.070 41850.134 37943.160 40121.593 41261.507 40724.218 31735.538 37240.042 57591.686 38361.067 39659.853 41741.634 39676.942 38653.449 32464.687 39375.936 62939.486 43770.145 44600.429 45826.552 35276.644 42955.320 48180.731 44930.698 35732.983 42594.390 32702.340 38228.999 32900.262 30883.064 47908.176 42190.055 43022.148 48243.034 17668.386 43223.321 28871.758 27139.250 50679.861 38235.171 35959.001 40541.731 46569.791 48446.394 36995.501 39252.980 26588.634 33845.284 37588.643 37916.825 41667.587 36215.730 36181.892 45497.646 31544.177 44056.192 42083.323 31704.705 26986.750 41933.444 30913.113 39555.551 44482.706 38585.072 35448.508 27325.116 27355.917 32920.466 38644.661 36391.065 49332.954 40783.479 38134.336 57195.667
10299.043 25887.918 9947.943 5500.423 15752.846 7297.967 6644.207 3580.538 10052.234 4747.903 4705.523 2598.376 18854.215 5902.664 1666.311 20206.365 16275.692 15283.490 20201.368 17233.228 6275.101 5838.358 7357.552 8051.749 14331.077 44074.443 0.000 22309.091 61910.908 13406.003 56787.951 26621.402 4227.792 5743.034 9171.450 24950.881 57143.041 5220.142 18378.624 11944.106 5143.187 11543.681 26515.529 8307.517 20254.838 11829.802 8112.624 4924.245 6046.260 26794.514 6966.711 4888.032 6380.371 12550.965 9881.997 3352.407 12646.785 10122.059 27991.155 6052.254 59894.329 7303.139 5022.853 5513.858 11616.961 5294.567 21274.564 17855.891 65131.659 1843.884 16460.961 4348.958 20209.466 4395.797 17662.383 5374.787 17812.805 10476.553 11559.404 25734.050 8161.233 4991.691 9609.402 4210.400 26514.067 10044.649 21276.404 17192.379 11005.448 6620.173 9353.977 3556.501 7679.894 7732.688 20241.120 5820.582 17957.028 10704.873 7555.959 7033.877 3037.560 7944.862 8111.234 1983.468 22745.244 46186.637 17223.821 15186.199 20573.547 4502.921 59406.847 4703.876 3889.796 9305.046 13694.353 16943.806 20888.589 21093.334 5552.430 36845.107 11009.699 6188.889 6101.148 34814.034
16310.290 9538.889 13184.508 18201.087 24633.497 16052.493 16289.995 18732.133 13516.319 17573.587 18991.393 20637.692 17852.582 17111.890 21310.691 38780.128 18179.777 7869.181 21691.730 7855.619 27367.159 16475.603 26924.808 27018.369 11728.288 21940.473 22309.091 0.000 49230.158 32008.749 44870.270 26240.637 18219.786 17286.845 13840.512 2930.246 42869.288 17974.458 14666.008 11952.938 27236.562 12007.427 25983.127 14336.697 20333.628 11145.801 14497.215 17392.150 17075.269 33288.177 27622.662 20732.499 16455.138 21265.933 21468.728 18962.344 10705.636 15537.579 41060.087 16463.984 47390.502 21203.843 18263.687 16820.870 10732.854 17971.368 41157.861 26660.919 52908.621 24106.107 18117.213 21777.568 28490.849 23723.439 19255.490 21616.737 16139.088 18471.833 11845.514 19922.094 27165.558 21115.137 23111.826 26421.245 5491.106 23430.295 14468.207 6730.951 28919.882 16985.589 15168.765 18836.094 25889.176 27523.146 21860.637 17315.698 6858.713 12786.906 16523.194 15977.470 19777.141 14376.857 14751.492 23862.952 18372.082 41342.432 24954.351 12984.531 11405.686 19993.107 43221.780 17971.853 23209.805 18422.170 16792.504 6707.427 12250.519 18558.886 16800.249 31209.973 29077.067 19891.497 16584.025 43650.920
51636.861 57259.355 53392.599 56494.984 49310.080 55138.637 55969.894 59387.072 52920.391 58508.207 57230.010 59312.961 43129.967 60228.759 60251.419 63498.060 45806.422 50224.825 42690.761 47530.781 62536.840 58194.728 60487.756 59837.459 59615.356 40921.484 61910.908 49230.158 0.000 60825.966 5280.770 37461.771 58414.130 60339.563 58451.673 46964.347 7338.378 56922.716 43652.474 51369.657 64270.094 51919.714 37430.359 58115.356 42155.846 52376.692 58133.950 58442.718 56285.197 44208.191 62044.799 57304.744 56268.140 50534.591 53197.443 59514.326 51425.243 61635.756 54952.326 59041.676 2024.713 55409.928 57050.362 58608.699 54001.648 56825.605 83034.412 48619.569 3768.888 62858.439 45608.049 58228.476 76556.867 59641.453 44608.915 57286.275 44099.401 51587.285 52047.102 36203.978 59914.191 57367.701 54449.779 65488.754 44151.935 54263.615 40922.581 48515.674 72489.339 55551.944 52913.603 59030.073 58825.663 60922.959 42717.247 60483.106 47454.681 52531.212 54576.383 59621.266 61333.321 57007.214 54975.002 62069.660 39182.968 22356.462 47925.538 47164.980 42490.325 62871.272 11759.599 57721.255 59607.877 52699.739 48231.507 48888.935 41897.108 40903.201 58701.983 26756.321 59271.986 55901.143 56653.588 48229.830
15845.889 37813.955 18975.546 14377.910 11798.411 16310.071 16368.758 15652.713 18544.182 16411.789 13797.419 13119.657 20091.874 18749.385 13045.967 7019.934 17598.004 24144.961 18797.927 24872.147 7459.280 17580.478 6081.437 5532.651 26988.156 52159.480 13406.003 32008.749 60825.966 0.000 55545.968 23364.240 15506.752 18626.972 21452.033 34068.960 57432.523 14849.689 21712.410 20059.041 9732.071 20009.092 23397.453 20383.598 19805.505 20946.775 20179.489 16593.260 15596.852 18774.847 6605.670 11780.843 16318.161 12354.291 10898.052 15463.844 21306.701 23271.262 15616.718 18373.508 58818.920 10811.596 14571.642 17484.002 21918.628 14803.431 25722.725 12206.417 63560.936 12076.511 17794.841 10987.890 32556.159 9473.549 18011.935 10750.745 20292.372 13939.602 20182.008 26233.704 5397.649 11362.038 9139.016 12459.078 34743.434 8941.192 24504.970 25550.978 20985.783 15401.060 16844.698 15206.824 6394.052 5673.319 18720.039 18755.977 25862.471 19256.940 15636.447 19682.932 16241.911 19343.990 17720.550 11496.860 23740.093 41622.061 13025.477 20461.318 25510.140 17908.752 60902.261 15324.816 10091.886 13698.736 16829.692 25468.282 25353.426 21856.460 17595.291 34138.510 2936.363 12271.076 16368.851 23862.020
46534.565 53205.717 48415.630 51396.079 44041.120 50086.514 50923.889 54325.866 47923.953 53468.512 52119.313 54189.594 37971.811 55254.239 55125.571 58239.653 40633.264 45433.749 37448.723 42739.116 57307.853 53189.289 55246.184 54589.558 54953.800 38445.649 56787.951 44870.270 5280.770 55545.968 0.000 32181.727 53349.547 55360.787 53574.569 42733.807 6581.617 51837.869 38596.591 46413.295 59064.656 46967.577 32151.145 53201.161 36940.093 47465.941 53212.653 53408.189 51218.306 38996.827 56806.966 52148.066 51221.875 45311.235 47985.352 54447.957 46520.009 56805.735 49831.330 54059.408 3290.965 50220.987 51958.648 53600.063 49140.536 51739.192 77865.103 43339.631 8362.508 57703.180 40436.514 53058.761 71807.467 54446.656 39411.347 52108.470 38988.267 46427.108 47103.012 31058.184 54665.002 52202.528 49218.458 60321.983 39949.515 49026.377 35918.491 43774.642 67429.769 50475.862 47859.490 53957.498 53585.162 55676.845 37472.522 55507.648 42714.749 47556.813 49500.435 54678.972 56281.797 52058.129 49965.958 56906.847 34044.390 17660.834 42652.093 42151.963 37609.001 57856.042 12529.886 52651.100 54423.675 47549.485 43097.076 44148.425 36985.042 35739.266 53696.570 21480.148 54000.909 50747.590 51610.138 43327.637
17448.000 35598.857 21040.437 21885.728 12025.344 21387.795 22228.973 25128.713 20332.208 24630.878 22383.026 24145.520 9405.799 27128.679 24998.525 26520.973 11045.768 21310.435 6536.014 19360.973 25724.719 24842.901 23523.289 22788.510 30665.256 38027.145 26621.402 26240.637 37461.771 23364.240 32181.727 0.000 24178.468 27171.158 26870.519 26243.420 34312.857 22497.956 12159.001 19680.830 27755.966 20197.700 268.863 26064.472 7024.224 21213.036 25982.192 24646.267 22191.909 9591.425 25114.987 21734.224 22493.825 14146.526 16895.185 25172.075 20528.231 30318.049 20829.896 25941.124 35455.382 19409.033 22509.812 25172.628 23284.694 22384.463 46708.758 11157.955 40226.462 27076.676 10924.103 22410.202 45067.430 23388.572 9455.581 21382.069 11227.857 16350.356 20428.718 7250.497 22845.750 21659.904 17760.753 29471.929 24875.127 17476.682 11776.144 20793.305 37626.609 21382.378 19389.592 24631.321 21899.020 23888.474 6463.469 27348.029 20076.883 20353.469 20504.128 27021.310 27080.238 24593.089 21912.869 26207.628 7883.253 19570.228 10564.327 15428.250 14835.388 29015.486 38250.155 23456.487 23515.575 17545.484 13908.922 21065.155 13996.173 7882.564 25303.727 10834.946 21901.811 20459.570 22885.063 19173.630
6935.645 22529.331 5742.291 2339.050 14506.442 3299.741 2524.219 982.918 5907.322 911.401 2169.426 2536.384 15701.461 3638.286 3094.878 22519.649 13330.568 11060.169 17645.951 13021.426 9401.187 2082.408 9582.209 9989.124 11485.079 39894.441 4227.792 18219.786 58414.130 15506.752 53349.547 24178.468 0.000 3582.443 5946.023 20803.042 53436.205 1684.910 14761.719 7775.945 9017.961 7350.180 24040.069 4887.853 17436.836 7602.037 4682.561 1087.448 2131.968 25772.802 9834.369 4030.365 2235.821 10736.692 8513.475 1101.465 8425.117 8129.089 28717.364 2925.012 56406.495 6248.418 1721.736 1987.358 7488.131 1799.346 25165.356 16819.256 61709.394 5932.951 13492.715 4554.854 21162.664 6111.791 14846.954 5072.030 14427.036 7862.782 7352.757 22407.069 10129.397 4420.996 9024.010 8438.171 22304.882 9500.530 17552.202 12964.750 14080.275 2899.315 5508.079 682.773 9151.742 10116.802 17715.061 3755.153 13732.478 6525.440 3866.100 4303.309 2967.208 4046.088 3903.401 5643.167 19427.050 43600.001 15821.488 11342.547 16583.377 4837.125 55515.793 726.143 5506.188 6686.826 10539.309 12717.632 16961.552 17913.231 2108.062 33949.616 12725.470 4467.254 1907.512 34626.845
9723.697 20162.903 6947.201 5790.016 18007.976 5783.382 4945.776 3056.360 7449.242 2788.116 5750.096 5549.125 18308.568 176.554 5598.591 25583.655 16162.611 11178.072 20645.431 13591.188 11907.005 2330.242 12570.523 13102.103 8597.998 39221.042 5743.034 17286.845 60339.563 18626.972 55360.787 27171.158 3582.443 0.000 3564.132 20078.903 55074.025 5094.426 16883.515 8984.593 10867.367 8444.935 27015.310 2955.476 20273.097 8171.658 2807.901 2696.940 5092.193 29264.704 12507.347 7562.878 4689.765 14158.136 12056.575 3210.920 9124.796 4669.318 32253.579 1304.750 58348.164 9830.800 5219.909 2007.090 7120.978 5203.849 24374.683 20341.224 63720.564 7557.660 16303.461 7924.275 17919.335 9158.514 17733.630 8575.229 16838.777 11083.838 8339.696 24729.826 13233.599 7933.604 12606.113 9404.322 21957.302 13082.676 19445.191 13153.286 12510.278 5881.345 7862.147 3584.019 12404.081 13045.625 20730.319 181.438 14086.449 7808.353 6688.778 1352.912 2741.832 3444.439 5467.210 7677.593 21802.879 46406.737 19281.931 13232.668 17975.975 2812.246 56815.283 4153.125 8541.300 9963.938 13301.352 12838.701 18492.751 20450.982 1871.601 36571.276 15961.008 8042.062 4307.587 38203.734
9814.024 16745.905 5831.414 7444.630 19051.999 6316.452 5753.135 5929.899 6539.722 5045.179 7796.901 8403.981 17618.564 3388.436 8713.336 28465.664 15868.343 8449.348 20474.236 11066.786 15139.450 3873.523 15511.999 15934.773 5555.666 35778.794 9171.450 13840.512 58451.673 21452.033 53574.569 26870.519 5946.023 3564.132 0.000 16680.083 52928.173 6826.016 15652.365 7441.219 14314.193 6881.154 26687.210 1103.993 19851.197 6158.414 1296.763 4861.097 6332.287 30119.428 15658.778 9823.950 5647.955 15053.896 13453.682 6147.004 7080.481 3462.502 34240.986 3177.135 56481.928 11661.445 7066.119 3982.161 4462.650 6902.897 27482.975 21428.343 61911.529 11011.511 15972.107 10480.939 18563.624 12040.697 17463.435 10885.628 15950.980 11705.334 6690.635 23522.879 16074.762 10237.085 14392.017 12962.481 18691.785 14854.483 17878.952 10368.316 15364.635 6899.367 7714.775 6298.087 15086.856 16034.551 20583.829 3555.045 11379.106 6555.995 7323.468 2211.442 6263.699 2533.007 5241.807 11030.386 20719.565 45650.266 20152.958 11938.604 15967.403 6159.572 54379.996 6170.965 11428.745 10777.365 13051.419 10021.026 16596.408 19605.926 3881.387 35607.105 18656.641 9839.678 5428.428 39540.650
18240.268 10730.969 15530.084 20599.496 25962.055 18433.061 18748.187 21370.684 15775.974 20203.295 21417.455 23161.794 18496.217 19905.281 23876.597 40719.122 19230.744 10038.123 22296.281 9326.827 29792.056 19142.557 29210.608 29245.667 14638.198 19157.779 24950.881 2930.246 46964.347 34068.960 42733.807 26243.420 20803.042 20078.903 16680.083 0.000 40463.959 20429.722 15338.327 14076.061 29795.028 14214.768 25978.870 17123.511 20859.135 13481.546 17276.255 20026.734 19518.994 33894.841 29996.655 23066.944 18934.958 22847.898 23341.512 21598.473 12915.837 18462.100 42273.787 19203.538 45159.839 23323.870 20714.584 19503.682 13334.120 20417.035 44058.182 27854.381 50671.046 26723.577 19139.768 24141.056 31295.831 26106.368 20125.581 23900.792 16921.750 20294.802 14083.028 19520.995 29391.749 23434.444 25038.807 29101.643 2826.394 25323.413 14559.439 8518.529 31828.726 19355.907 17328.902 21438.153 28088.137 29813.596 22468.687 20116.135 8303.927 15037.131 18810.491 18787.326 22509.861 17062.996 17194.731 26434.741 18380.860 40195.253 26125.085 14322.362 11600.345 22814.949 40600.774 20505.408 25617.518 20383.351 18225.258 8606.795 12372.407 18861.640 19492.265 30209.427 31154.533 22132.425 19096.026 44277.919
46849.723 50538.246 48163.773 51659.161 45690.153 50137.262 50941.889 54391.375 47752.986 53443.161 52437.571 54561.602 38680.135 54951.483 55505.419 60802.341 41405.148 44558.468 38808.995 41886.184 58371.265 53021.042 56443.851 55859.979 53647.077 33586.419 57143.041 42869.288 7338.378 57432.523 6581.617 34312.857 53436.205 55074.025 52928.173 40463.959 0.000 52029.136 38764.481 46096.362 59923.668 46630.564 34232.872 52685.646 38064.179 46973.743 52722.466 53360.794 51328.810 42140.497 57957.345 52721.013 51239.106 46409.218 48967.253 54536.423 46014.938 55988.064 53362.657 53793.368 6294.020 51014.472 52182.522 53442.556 48466.040 51938.651 78402.354 45317.143 11025.871 58234.913 41200.070 53706.067 70689.963 55253.446 40364.230 52813.977 39420.583 47063.087 46734.837 31795.183 55949.708 52826.913 50356.123 60910.305 37638.076 50222.403 35893.511 42759.422 67427.474 50634.193 47934.824 54077.601 54782.133 56920.625 38861.291 55207.199 41704.425 47300.955 49664.780 54257.320 56292.904 51676.374 49832.463 57488.484 34690.670 22818.354 44408.438 42096.196 37099.641 57703.158 6027.804 52767.726 55157.077 48117.130 43612.417 43128.871 36591.607 36512.120 53525.303 24248.065 55613.211 51311.285 51612.494 47625.241
5334.357 22973.938 4970.224 695.981 12914.518 2125.759 1684.937 2633.421 4936.418 2309.610 1063.831 2849.601 14089.479 5119.309 3720.743 21864.059 11678.771 10482.394 15967.005 12184.724 9393.372 3099.567 9161.539 9430.975 12360.199 39399.466 5220.142 17974.458 56922.716 14849.689 51837.869 22497.956 1684.910 5094.426 6826.016 20429.722 52029.136 0.000 13289.766 6834.956 9453.580 6491.577 22360.847 5722.846 15777.483 6983.939 5529.750 2399.921 915.683 24174.483 9682.173 3072.592 1535.271 9093.463 6973.073 2694.949 7691.596 9432.929 27475.830 4184.270 54911.655 4885.751 292.069 3215.047 7331.800 114.697 26448.625 15246.971 60194.241 6681.261 11844.402 3933.424 22829.892 5796.255 13183.455 4121.804 12869.764 6177.932 6547.247 20847.013 9576.855 3492.170 7657.596 9335.126 21745.448 8129.705 16136.740 12299.251 15616.423 1404.939 4139.495 2165.233 8457.347 9736.432 16034.851 5274.030 12975.664 5634.657 2364.984 5566.727 4606.226 4519.614 3235.043 6188.564 17860.647 41933.197 14200.902 9989.273 15353.769 6519.603 54213.485 978.108 5253.060 5003.573 8912.022 12088.842 15676.846 16311.212 3357.439 32312.702 11980.599 3055.202 1520.829 33152.435
8091.844 23703.026 10023.550 12898.282 11317.954 11490.170 12327.682 15734.788 9448.077 14874.185 13673.119 15799.809 3188.477 16791.921 16743.652 27480.606 4351.671 9164.274 7026.803 7263.551 20263.635 14646.845 18695.874 18323.460 18747.194 31081.920 18378.624 14666.008 43652.474 21712.410 38596.591 12159.001 14761.719 16883.515 15652.365 15338.327 38764.481 13289.766 0.000 8211.485 21465.505 8772.779 11926.443 15053.325 5684.553 9577.915 15023.171 14817.405 12633.503 18634.320 20034.991 14067.350 12625.577 9360.337 11198.691 15862.101 8754.059 19090.799 27147.803 15579.327 41645.278 12691.226 13431.594 15048.807 11577.051 13195.788 39644.418 12856.975 46958.227 19511.995 4195.084 15108.839 34212.298 16819.239 4855.467 14301.035 1652.044 8637.530 8962.148 7887.971 18444.251 14220.159 12894.687 22203.461 14796.495 12953.197 2991.882 8687.715 28838.211 11907.665 9263.471 15380.483 17128.030 19256.014 7196.298 17040.367 8066.858 9197.429 10932.991 16353.721 17685.730 13741.443 11428.728 18797.219 5079.770 30059.232 11131.234 3717.394 4132.977 19283.634 41144.893 14070.669 16630.431 9545.230 5164.871 8939.553 3736.512 4294.657 15152.329 19961.272 19114.923 12668.619 13014.603 29010.080
4484.688 18836.824 2092.754 6814.649 13749.712 4709.938 5299.944 8628.323 1900.022 7545.767 7679.168 9684.550 10310.508 8867.517 10541.401 26837.264 8919.441 4085.934 13479.293 5358.155 15899.785 6956.288 15158.119 15171.416 11076.534 32755.508 11944.106 11952.938 51369.657 20059.041 46413.295 19680.830 7775.945 8984.593 7441.219 14076.061 46096.362 6834.956 8211.485 0.000 16247.011 563.814 19481.936 6868.277 12670.984 1578.153 6853.041 7429.691 5942.093 24047.342 16024.130 9094.699 5566.187 9926.835 9618.011 8815.462 1325.024 10885.728 30026.953 7697.948 49381.999 9265.810 7087.885 7381.588 3636.791 6788.606 32866.350 16033.013 54769.095 13504.482 8981.563 10200.802 26001.325 12175.924 10469.686 9864.210 8573.694 6752.242 758.379 16088.042 15317.270 9437.967 11201.073 16127.858 15091.271 11543.373 10539.003 5633.387 21378.073 5547.325 3253.141 8458.202 14012.096 15762.690 13608.142 9122.746 6192.422 1254.791 4836.494 8269.745 10370.279 5645.803 3890.896 13021.894 13279.314 38227.758 14482.083 4497.643 9011.071 11619.918 47933.727 7240.820 11737.722 6518.025 6366.349 5488.528 9508.817 12211.945 7454.239 28166.904 17129.894 8072.989 5868.906 34009.524
13551.627 31026.163 14423.250 9434.256 15960.523 11555.272 11102.016 8585.053 14361.846 9707.566 8568.053 6644.944 21246.478 11030.719 5925.966 15961.073 18527.184 19922.636 21728.838 21604.992 2477.336 10869.170 4730.193 5609.660 19423.720 48833.869 5143.187 27236.562 64270.094 9732.071 59064.656 27755.966 9017.961 10867.367 14314.193 29795.028 59923.668 9453.580 21465.505 16247.011 0.000 15933.577 27697.332 13436.316 22128.195 16423.631 13239.039 9895.604 10367.574 26096.658 3365.151 7481.540 10890.822 13794.431 11084.549 8352.900 17145.119 15079.129 25203.857 11182.224 62245.640 8909.221 9184.060 10581.568 16503.789 9485.804 18959.729 17629.158 67343.223 3310.159 18730.872 6388.199 22824.347 4674.100 19662.935 7166.175 20578.437 12899.648 15997.765 28159.543 5632.507 7273.325 9999.756 2727.131 31191.876 10280.850 24452.095 21752.769 11494.324 10699.910 13251.604 8415.809 6083.247 4689.284 21728.239 10934.571 22419.434 15075.251 11474.286 12172.707 8132.681 12968.673 12653.605 3377.514 25235.493 47188.301 17492.537 18751.356 24262.681 9189.139 62573.915 9290.315 4837.681 11921.910 16391.354 21540.010 24442.785 23434.656 10634.924 38411.665 8143.344 8836.817 10705.178 32912.517
4633.257 18640.169 1616.088 6519.787 14032.136 4378.328 4909.749 8179.859 1585.148 7079.465 7376.189 9337.061 10840.124 8325.447 10175.671 26829.664 9388.695 4179.944 13964.920 5701.317 15662.158 6448.031 14995.968 15041.042 10608.753 32993.330 11543.681 12007.427 51919.714 20009.092 46967.577 20197.700 7350.180 8444.935 6881.154 14214.768 46630.564 6491.577 8772.779 563.814 15933.577 0.000 20000.851 6304.601 13182.102 1187.997 6290.028 6956.878 5586.492 24438.796 15815.479 8878.077 5164.889 10161.505 9703.107 8372.433 1304.431 10328.598 30246.924 7163.184 49932.987 9199.069 6753.638 6873.879 3174.360 6452.438 32392.896 16335.469 55322.666 13135.567 9457.434 9971.825 25439.589 11946.405 10949.869 9687.586 9115.368 6916.543 252.586 16650.848 15187.625 9234.562 11241.940 15739.548 15324.957 11600.169 11099.887 5854.133 20861.667 5251.274 3164.427 8032.931 13896.210 15599.144 14091.321 8580.926 6486.117 858.354 4609.926 7712.831 9888.006 5090.553 3448.383 12678.145 13838.487 38781.733 14808.860 5057.578 9537.330 11098.441 48442.107 6841.635 11489.785 6586.438 6779.527 5677.972 10048.602 12758.468 6942.325 28726.087 17075.054 7919.375 5448.661 34356.589
17291.614 35346.473 20856.296 21752.129 12007.736 21232.054 22075.014 24992.636 20150.285 24485.039 22257.006 24032.114 9196.686 26971.448 24889.110 26619.553 10877.524 21081.728 6394.139 19120.262 25680.202 24686.323 23486.770 22757.648 30455.891 37770.726 26515.529 25983.127 37430.359 23397.453 32151.145 268.863 24040.069 27015.310 26687.210 25978.870 34232.872 22360.847 11926.443 19481.936 27697.332 20000.851 0.000 25886.887 6836.638 21010.754 25806.083 24498.665 22045.960 9818.549 25077.399 21629.552 22341.213 14059.591 16810.765 25038.111 20320.351 30136.892 21029.386 25781.736 35422.032 19316.241 22375.722 25018.411 23081.582 22247.532 46653.364 11191.894 40212.666 26987.486 10752.651 22315.664 44905.589 23313.128 9290.527 21289.064 11012.882 16221.179 20230.937 6984.766 22816.480 21559.981 17699.255 29393.931 24607.168 17420.925 11517.356 20552.692 37520.970 21236.401 19223.518 24497.771 21858.358 23857.367 6327.266 27191.849 19831.837 20164.444 20353.636 26854.759 26947.356 24418.534 21744.036 26120.231 7622.302 19671.448 10558.167 15214.986 14577.575 28876.621 38138.396 23317.369 23433.478 17417.143 13742.559 20826.034 13737.243 7645.062 25148.993 10840.950 21904.945 20347.936 22733.195 19432.451
8867.714 17705.146 5085.815 6340.694 18011.715 5264.399 4669.338 4946.239 5756.022 3998.420 6698.700 7376.606 16881.374 2782.251 7736.439 27400.237 15033.827 8404.915 19628.686 10931.946 14163.400 2806.193 14468.001 14873.766 6648.779 36267.471 8307.517 14336.697 58115.356 20383.598 53201.161 26064.472 4887.853 2955.476 1103.993 17123.511 52685.646 5722.846 15053.325 6868.277 13436.316 6304.601 25886.887 0.000 19057.901 5738.677 205.810 3810.446 5232.787 29114.675 14658.282 8728.539 4554.381 14021.539 12371.613 5170.004 6691.112 4281.086 33141.042 2255.323 56137.353 10558.583 5964.424 2956.568 4328.055 5799.250 27240.556 20386.824 61548.593 10151.351 15145.945 9403.360 19185.479 10996.490 16629.801 9790.192 15257.565 10693.321 6140.281 22940.136 15014.657 9142.723 13292.226 12220.557 19016.795 13755.506 17392.784 10366.070 15238.063 5814.169 6784.761 5277.818 14010.055 14997.799 19733.499 2998.413 11338.864 5870.510 6274.685 1709.696 5507.234 1517.288 4269.337 10115.152 20095.155 44968.406 19134.692 11337.104 15631.744 5725.559 54256.081 5081.514 10387.742 9737.346 12193.636 10035.758 16220.737 18914.233 2869.405 34972.542 17576.725 8736.103 4327.202 38485.026
10570.934 29375.361 14020.019 15206.818 8108.929 14501.613 15354.331 18406.710 13315.698 17817.332 15788.584 17697.008 2555.759 20221.183 18596.495 24551.666 4117.465 14570.274 1518.092 12904.969 20391.635 17943.236 18396.362 17797.383 23695.403 35326.353 20254.838 20333.628 42155.846 19805.505 36940.093 7024.224 17436.836 20273.097 19851.197 20859.135 38064.179 15777.483 5684.553 12670.984 22128.195 13182.102 6836.638 19057.901 0.000 14214.384 18980.117 17817.320 15385.684 13035.740 19929.633 15434.056 15629.155 8385.439 11045.640 18471.816 13559.407 23302.424 22292.131 19020.854 40131.134 13337.064 15821.639 18289.496 16288.079 15666.468 40995.303 8745.077 45215.350 20948.660 3970.235 16255.062 38121.854 17532.638 2601.852 15267.663 4403.475 9786.196 13415.356 6434.709 17886.083 15432.298 12320.219 23496.591 20038.790 12166.015 6625.707 14314.192 31208.953 14579.261 12437.558 17937.875 16732.448 18862.568 1687.291 20447.427 13740.444 13329.258 13663.879 20058.616 20383.688 17596.667 14942.580 20116.291 4101.752 26170.142 7237.981 8521.220 9300.451 22253.727 41208.629 16710.727 17544.821 10972.970 6971.797 14543.678 8607.349 2418.486 18416.541 16594.227 17685.996 14075.339 16025.326 23418.850
5784.679 17495.525 2049.494 7119.761 15218.006 4952.127 5321.643 8344.305 2404.014 7195.435 7946.075 9782.292 11823.818 8035.188 10567.374 27813.406 10494.926 3499.481 15046.506 5502.312 16312.170 6393.527 15781.029 15875.608 9505.834 32416.161 11829.802 11145.801 52376.692 20946.775 47465.941 21213.036 7602.037 8171.658 6158.414 13481.546 46973.743 6983.939 9577.915 1578.153 16423.631 1187.997 21010.754 5738.677 14214.384 0.000 5760.152 7049.773 6068.458 25610.205 16518.917 9600.091 5537.971 11337.583 10796.899 8553.188 959.116 9546.519 31413.231 6941.600 50398.776 10141.648 7262.943 6813.967 2073.870 6962.534 32384.082 17523.157 55811.741 13500.144 10554.836 10663.489 24699.157 12625.758 12040.657 10471.295 10057.408 8067.852 938.644 17407.470 16022.930 9976.781 12294.092 16040.198 14768.386 12666.127 11720.957 5364.653 20674.880 5874.565 4158.705 8276.415 14755.197 16380.359 15176.793 8289.838 6144.294 1714.960 5377.803 7283.948 9905.491 4731.448 3771.822 13109.375 14657.680 39634.618 15996.384 5905.075 9896.383 10918.816 48645.327 7182.032 12136.564 7677.876 7936.851 5128.080 10482.798 13671.493 6859.698 29532.863 18010.414 8752.041 5757.633 35542.153
8751.562 17909.659 5033.856 6151.674 17860.371 5112.529 4501.234 4742.252 5691.744 3792.675 6501.074 7170.811 16818.185 2636.673 7532.347 27195.890 14946.557 8489.902 19537.203 10997.794 13958.966 2601.176 14262.410 14668.981 6847.831 36423.886 8112.624 14497.215 58133.950 20179.489 53212.653 25982.192 4682.561 2807.901 1296.763 17276.255 52722.466 5529.750 15023.171 6853.041 13239.039 6290.028 25806.083 205.810 18980.117 5760.152 0.000 3604.771 5051.976 28975.305 14452.885 8529.639 4379.404 13873.824 12202.011 4966.373 6715.793 4389.982 32958.275 2060.761 56154.407 10372.461 5769.356 2751.079 4410.963 5607.245 27126.438 20234.774 61561.833 9956.311 15060.846 9200.158 19234.061 10790.871 16542.234 9591.328 15205.550 10554.059 6132.139 22910.991 14809.812 8943.420 13110.023 12038.146 19152.499 13574.096 17386.081 10455.477 15146.296 5644.399 6675.935 5072.187 13806.856 14792.059 19640.719 2859.754 11420.846 5831.295 6123.314 1604.540 5327.266 1401.576 4151.354 9915.069 20057.417 44914.567 18991.417 11308.861 15656.443 5594.203 54314.671 4880.415 10182.043 9587.763 12101.336 10128.371 16237.216 18861.309 2664.554 34930.166 17374.044 8548.458 4144.617 38326.586
7249.108 21481.152 5343.731 3095.900 15311.290 3368.725 2510.543 1344.040 5638.245 192.670 3137.813 3574.977 15968.780 2719.393 4024.178 23605.241 13699.974 10434.347 18110.923 12536.629 10411.483 1017.074 10657.843 11073.759 10397.687 39154.669 4924.245 17392.150 58442.718 16593.260 53408.189 24646.267 1087.448 2696.940 4861.097 20026.734 53360.794 2399.921 14817.405 7429.691 9895.604 6956.878 24498.665 3810.446 17817.320 7049.773 3604.771 0.000 2459.516 26567.853 10872.616 5080.634 2218.525 11466.684 9370.450 1571.996 7927.113 7108.027 29739.676 1863.769 56440.410 7206.666 2540.888 904.838 6693.138 2508.323 25437.633 17646.331 61770.531 6714.508 13851.825 5640.572 20527.435 7186.203 15247.993 6131.622 14602.941 8439.772 6923.920 22564.450 11213.679 5479.276 9987.906 9094.662 21618.369 10463.215 17528.718 12373.893 14071.311 3267.292 5579.249 1506.655 10239.062 11187.576 18188.619 2877.242 13191.728 6177.616 4153.731 3254.666 2948.640 3076.484 3557.067 6521.457 19601.142 43985.061 16586.705 11287.786 16377.042 4491.948 55327.718 1484.959 6577.320 7299.337 10863.168 12107.157 16804.538 18154.398 1032.252 34246.231 13812.628 5393.413 1820.438 35539.539
4837.541 22217.692 4055.686 1218.946 13010.138 1251.810 795.277 3112.076 4042.075 2439.079 1920.303 3750.650 13595.559 5085.411 4599.597 22600.073 11270.579 9566.758 15656.033 11284.239 10292.416 2872.721 9994.261 10227.386 11805.763 38483.808 6046.260 17075.269 56285.197 15596.852 51218.306 22191.909 2131.968 5092.193 6332.287 19518.994 51328.810 915.683 12633.503 5942.093 10367.574 5586.492 22045.960 5232.787 15385.684 6068.458 5051.976 2459.516 0.000 24235.437 10563.073 3829.076 727.652 9100.578 7192.420 3229.741 6778.372 9166.421 27908.719 4014.555 54277.058 5339.658 1196.038 3102.096 6464.619 898.189 27208.476 15367.199 59577.956 7562.850 11426.878 4767.908 22980.555 6668.578 12807.862 4846.110 12298.991 5993.897 5637.246 20278.272 10374.148 4244.129 8059.750 10198.778 20829.903 8522.719 15438.246 11385.278 16211.775 809.560 3394.217 2750.442 9217.572 10575.914 15732.448 5273.522 12067.483 4731.136 1744.059 5339.758 5088.329 3903.458 2326.644 7091.818 17299.961 41555.821 14237.604 9247.336 14554.997 6872.295 53454.273 1439.552 6138.606 4873.503 8452.403 11173.713 14902.851 15800.061 3243.954 31859.213 12705.190 3535.218 910.557 33375.118
20366.536 42088.874 24692.562 23480.820 11266.482 23880.302 24581.596 26564.887 23951.095 26484.065 23645.566 24782.986 15446.353 29280.633 25419.658 19587.344 15427.271 26895.160 11613.687 25647.730 23691.688 27107.948 21380.734 20510.454 34916.866 47344.847 26794.514 33288.177 44208.191 18774.847 38996.827 9591.425 25772.802 29264.704 30119.428 33894.841 42140.497 24174.483 18634.320 24047.342 26096.658 24438.796 9818.549 29114.675 13035.740 25610.205 28975.305 26567.853 24235.437 0.000 22878.374 22254.277 24772.369 15140.316 17285.009 26522.941 25213.652 33314.249 11483.011 28249.813 42277.323 19746.039 24069.411 27321.661 27586.874 24063.750 44232.887 8988.014 46505.822 26590.836 15435.758 22489.273 46785.259 22673.445 14125.605 21505.215 17154.255 18421.475 24691.276 16475.388 20505.203 22010.872 17197.471 28423.919 33008.365 16753.358 19515.022 27001.822 37271.446 23496.920 22466.864 26004.286 20061.805 21519.467 11442.656 29445.093 26557.045 24259.158 22873.088 29560.235 28265.237 27604.189 24879.032 25713.495 16070.964 23384.082 10000.852 20767.709 22323.786 30327.267 46627.086 25133.267 23034.432 19417.767 17685.928 27182.494 21602.092 15136.631 27464.947 17893.711 18500.315 21368.332 25103.621 10383.707
12586.576 32353.371 14469.423 9421.575 13144.225 11575.775 11355.634 9729.037 14237.253 10680.814 8642.771 7300.860 19365.424 12648.880 6956.039 13251.241 16640.604 19968.303 19359.104 21287.243 897.878 11889.684 1594.175 2400.140 21068.078 48774.070 6966.711 27622.662 62044.799 6605.670 56806.966 25114.987 9834.369 12507.347 15658.778 29996.655 57957.345 9682.173 20034.991 16024.130 3365.151 15815.479 25077.399 14658.282 19929.633 16518.917 14452.885 10872.616 10563.073 22878.374 0.000 6937.472 11216.675 11552.455 9027.054 9513.681 17099.930 17044.739 21896.677 12488.205 60020.702 7392.928 9390.308 11701.864 17013.363 9674.394 21707.378 14617.238 65031.787 5497.496 16848.530 5855.736 26042.545 3899.253 17595.035 6191.376 18951.787 11414.389 15929.568 26171.235 2384.886 6586.194 7609.588 6025.539 31114.533 7781.184 23017.797 21654.377 14859.423 10646.570 12817.475 9382.454 3228.929 1360.292 19338.454 12614.277 22187.535 14976.006 11205.617 13688.862 9936.977 13869.656 12877.015 4997.410 23330.826 44384.274 14660.311 17764.762 23232.590 11441.878 60857.393 9860.416 4429.752 10650.071 14871.093 21491.898 23297.909 21473.861 11790.503 35880.347 4780.853 8010.726 11145.805 29547.517
6074.041 26035.488 7552.640 2615.093 11058.026 4689.903 4614.019 4549.596 7300.066 4924.377 2036.688 2540.330 14176.680 7636.589 3292.504 18792.917 11530.306 13033.738 15329.007 14391.987 6813.442 5983.251 6208.157 6401.818 15377.287 41850.134 4888.032 20732.499 57304.744 11780.843 52148.066 21734.224 4030.365 7562.878 9823.950 23066.944 52721.013 3072.592 14067.350 9094.699 7481.540 8878.077 21629.552 8728.539 15434.056 9600.091 8529.639 5080.634 3829.076 22254.277 6937.472 0.000 4543.660 7678.950 5068.114 4446.513 10163.097 12158.054 24695.174 6943.105 55283.899 2515.266 2800.251 5982.250 10255.428 3023.144 25735.342 13267.238 60474.496 5555.137 11723.054 1123.524 24532.938 3086.638 12856.629 1061.693 13300.432 5721.792 8992.817 21101.077 6548.876 419.581 5156.079 8196.536 24185.511 5628.295 17039.161 14720.400 15892.443 3754.897 5921.809 3995.157 5392.637 6800.613 15365.233 7727.370 15273.389 8038.976 4268.388 8329.539 6037.249 7586.795 6052.429 4772.235 18127.313 41300.982 12483.385 11270.035 16782.009 8096.660 55211.924 3660.317 2700.964 4611.301 9110.977 14554.997 16963.891 16409.073 6112.656 32005.695 8908.024 1409.823 4589.009 30783.878
5059.126 21495.800 3580.895 1942.606 13576.246 1150.284 298.280 3158.045 3682.524 2255.318 2590.176 4246.363 13753.520 4661.413 5035.985 23323.511 11512.340 9034.404 15963.485 10861.303 10918.628 2385.240 10686.368 10935.416 11096.205 37943.160 6380.371 16455.138 56268.140 16318.161 51221.875 22493.825 2235.821 4689.765 5647.955 18934.958 51239.106 1535.271 12625.577 5566.187 10890.822 5164.889 22341.213 4554.381 15629.155 5537.971 4379.404 2218.525 727.652 24772.369 11216.675 4543.660 0.000 9632.305 7828.151 3317.705 6300.158 8570.720 28598.199 3523.613 54263.578 6048.688 1827.339 2683.576 5796.809 1551.813 27400.264 15941.713 59583.679 7984.585 11660.112 5456.817 22609.098 7331.478 13071.305 5567.898 12385.742 6436.407 5188.616 20350.659 11081.907 4960.388 8751.316 10574.878 20304.649 9211.083 15372.268 10889.696 16224.520 1284.040 3369.216 2911.075 9935.337 11264.253 16046.282 4868.989 11610.015 4324.520 1999.127 4789.870 5066.629 3190.539 1766.534 7571.808 17384.923 41790.165 14771.529 9143.874 14349.504 6710.143 53287.154 1676.884 6787.148 5363.232 8664.467 10663.676 14735.097 15936.472 2818.169 32032.033 13429.478 4254.159 398.910 33987.118
5598.342 28760.063 9973.525 8408.440 4009.009 8763.100 9444.552 11591.594 9267.871 11394.679 8684.506 10175.749 7961.679 14165.890 10971.149 18273.871 5317.991 13648.916 7937.898 13535.582 12006.334 11971.537 10035.555 9479.208 20101.063 40121.593 12550.965 21265.933 50534.591 12354.291 45311.235 14146.526 10736.692 14158.136 15053.896 22847.898 46409.218 9093.463 9360.337 9926.835 13794.431 10161.505 14059.591 14021.539 8385.439 11337.583 13873.824 11466.684 9100.578 15140.316 11552.455 7678.950 9632.305 0.000 2754.216 11580.452 11238.379 18184.847 20101.090 13114.723 48509.924 5273.586 9016.177 12195.253 13084.237 8980.495 32727.640 6384.178 53569.437 12930.458 5522.431 8277.297 31888.904 9283.733 6065.340 7244.633 7950.258 3396.470 10403.653 14638.779 9577.509 7560.775 3946.981 15346.674 23065.029 3841.271 12165.165 14536.988 23533.684 8356.743 7591.189 11044.866 8375.738 10522.122 7942.588 14339.270 14561.648 9741.020 7752.636 14419.955 13419.255 12523.683 9845.807 12061.186 11854.729 33709.730 5139.547 8589.293 13235.591 15455.003 49396.600 10065.961 9378.040 4287.915 4704.215 14564.624 13027.111 9974.844 12338.136 24651.536 9818.520 6520.268 9963.845 24524.831
5162.784 28259.752 9085.590 6278.073 6031.027 7184.146 7702.355 9281.910 8475.545 9268.986 6366.906 7603.931 10338.602 12088.402 8345.171 17379.253 7613.701 13633.119 10676.498 14057.677 9404.410 10021.678 7582.954 7142.858 18776.073 41261.507 9881.997 21468.728 53197.443 10898.052 47985.352 16895.185 8513.475 12056.575 13453.682 23341.512 48967.253 6973.073 11198.691 9618.011 11084.549 9703.107 16810.765 12371.613 11045.640 10796.899 12202.011 9370.450 7192.420 17285.009 9027.054 5068.114 7828.151 2754.216 0.000 9237.937 10933.347 16352.441 20913.740 11139.550 51172.782 2579.482 6836.675 10179.574 12248.882 6867.303 29992.824 8311.528 56259.210 10187.146 7821.677 5564.281 29523.493 6534.920 8614.376 4528.352 9992.979 3060.490 9917.178 17172.095 7259.111 4899.206 1764.614 12592.532 23880.478 1985.312 14140.159 14845.759 20829.583 6557.697 6684.003 8720.364 5965.596 8116.320 10686.206 12234.638 15065.048 9092.198 6212.906 12503.835 10998.095 10941.213 8473.330 9314.358 14308.685 36452.834 7424.296 9569.485 14748.445 13056.876 51830.518 7903.653 6624.153 3119.308 6087.975 14803.662 14678.671 12460.667 10322.789 27399.194 8098.983 4083.335 8099.473 26192.076
8007.606 22873.380 6757.697 3286.410 15263.784 4399.219 3610.597 232.271 6964.708 1396.132 2897.469 2349.393 16771.805 3314.585 2568.218 22446.039 14373.683 11972.245 18645.896 14013.107 8996.548 2516.694 9439.528 9931.809 11582.750 40724.218 3352.407 18962.344 59514.326 15463.844 54447.957 25172.075 1101.465 3210.920 6147.004 21598.473 54536.423 2694.949 15862.101 8815.462 8352.900 8372.433 25038.111 5170.004 18471.816 8553.188 4966.373 1571.996 3229.741 26522.941 9513.681 4446.513 3317.705 11580.452 9237.937 0.000 9405.395 7878.605 29085.522 2974.608 57506.440 6845.634 2662.388 2240.489 8264.600 2805.470 24087.008 17545.731 62807.489 5146.857 14539.052 4719.525 20315.357 5991.407 15876.863 5418.371 15515.931 8829.130 8361.275 23496.307 10066.200 4791.076 9579.845 7531.822 23177.795 10055.087 18653.436 13900.008 12982.476 3984.086 6609.543 542.351 9201.092 9939.168 18710.911 3359.632 14696.662 7561.408 4955.827 4223.983 1912.535 4620.668 4926.700 4989.043 20514.405 44624.047 16616.734 12441.769 17665.909 3883.085 56604.804 1800.808 5373.073 7640.402 11600.481 13640.664 18052.128 18988.381 2308.531 35005.778 12764.883 5154.658 2968.661 35216.754
5808.669 17521.827 2725.292 7764.059 15035.495 5603.909 6063.908 9201.746 2863.347 8065.976 8611.179 10521.735 11123.710 8989.651 11335.050 28114.587 9958.486 2878.293 14455.078 4610.207 16932.464 7308.365 16295.159 16344.743 10138.702 31735.538 12646.785 10705.636 51425.243 21306.701 46520.009 20528.231 8425.117 9124.796 7080.481 12915.837 46014.938 7691.596 8754.059 1325.024 17145.119 1304.431 20320.351 6691.112 13559.407 959.116 6715.793 7927.113 6778.372 25213.652 17099.930 10163.097 6300.158 11238.379 10933.347 9405.395 0.000 10439.087 31339.467 7887.709 49448.397 10498.667 7961.998 7731.211 2823.020 7660.232 33304.041 17303.358 54864.181 14284.142 10002.866 11250.342 25594.280 13223.093 11471.850 10984.959 9326.327 8077.256 1170.378 16543.507 16491.374 10524.295 12501.460 16854.727 14069.798 12850.229 10812.780 4608.685 21623.647 6499.944 4463.297 9104.587 15200.613 16897.942 14591.021 9244.542 5312.246 2124.214 5898.287 8242.977 10810.034 5687.290 4541.742 13860.209 13828.887 38810.774 15733.003 5134.455 8941.086 11863.398 47690.717 7966.293 12756.833 7826.626 7533.028 4410.438 9535.141 12905.817 7781.988 28686.211 18373.517 9221.683 6549.882 35231.252
13141.318 16413.142 9286.980 10114.129 22145.103 9435.178 8743.427 7717.030 9986.760 7249.220 10245.743 10218.234 21080.432 4565.082 10225.705 30203.188 19300.452 11433.442 23900.676 14118.269 16390.305 6340.237 17200.636 17755.216 4665.830 37240.042 10122.059 15537.579 61635.756 23271.262 56805.735 30318.049 8129.089 4669.318 3462.502 18462.100 55988.064 9432.929 19090.799 10885.728 15079.129 10328.598 30136.892 4281.086 23302.424 9546.519 4389.982 7108.027 9166.421 33314.249 17044.739 12158.054 8570.720 18184.847 16352.441 7878.605 10439.087 0.000 36844.174 5256.898 59677.216 14303.580 9616.580 6231.713 7694.619 9530.455 25699.716 24512.102 65126.838 11830.963 19408.709 12581.893 15155.275 13814.734 20896.427 13191.708 19412.409 14905.136 10131.168 26947.910 17884.919 12543.364 17083.036 13187.608 20756.091 17556.907 21251.173 13243.433 13440.092 9854.589 11064.435 8228.196 17072.779 17658.618 24007.166 4528.209 14292.005 10018.480 10441.274 3867.029 7108.985 5790.706 8541.163 12103.854 24163.961 49107.256 23318.103 15382.327 19213.118 5945.168 57250.071 8586.061 13198.997 13899.091 16468.099 12877.874 19879.347 23066.671 6092.534 39050.972 20626.761 12479.515 8267.133 42541.094
25632.733 48861.023 29901.964 26823.002 16443.462 28072.410 28514.638 29214.051 29238.208 29595.409 26605.340 26850.628 24190.557 32330.797 27131.061 12154.242 23049.976 33683.615 20777.446 33207.213 22792.372 30566.246 20884.651 20074.297 39661.586 57591.686 27991.155 41060.087 54952.326 15616.718 49831.330 20829.896 28717.364 32253.579 34240.986 42273.787 53362.657 27475.830 27147.803 30026.953 25203.857 30246.924 21029.386 33141.042 22292.131 31413.231 32958.275 29739.676 27908.719 11483.011 21896.677 24695.174 28598.199 20101.090 20913.740 29085.522 31339.467 36844.174 0.000 31599.735 53078.084 22594.551 27266.316 30626.953 33063.193 27387.698 40422.234 14422.883 56981.762 27048.693 23149.321 24389.794 47903.485 23618.575 22293.075 23678.891 25503.847 23355.210 30485.393 27158.570 19989.787 24320.092 19848.970 27911.826 41941.567 19387.236 28865.734 34367.988 36588.404 27372.926 27478.834 28672.651 20311.584 20695.111 20611.839 32415.385 34214.681 29774.705 27119.215 32992.796 30387.875 31774.965 29385.537 26312.881 26066.479 33221.712 16149.303 28078.901 31228.450 32321.236 58006.701 28270.290 24174.571 23910.891 24291.984 34447.208 30664.347 24682.317 30763.271 29189.281 17182.280 24424.795 28813.989 9319.343
8496.764 19918.967 5649.498 4871.936 17018.333 4568.491 3756.839 2761.877 6144.730 2019.721 4994.563 5268.983 17029.240 1217.290 5537.706 25373.608 14916.492 10052.503 19423.721 12401.270 11962.509 1144.505 12385.345 12843.275 8626.399 38361.067 6052.254 16463.984 59041.676 18373.508 54059.408 25941.124 2925.012 1304.750 3177.135 19203.538 53793.368 4184.270 15579.327 7697.948 11182.224 7163.184 25781.736 2255.323 19020.854 6941.600 2060.761 1863.769 4014.555 28249.813 12488.205 6943.105 3523.613 13114.723 11139.550 2974.608 7887.709 5256.898 31599.735 0.000 57049.474 9046.756 4360.727 974.857 6045.000 4284.703 25500.811 19369.990 62419.523 7896.061 15053.560 7468.684 19129.111 8920.814 16493.900 7991.832 15545.266 9958.807 7065.823 23428.242 12980.715 7339.789 11826.564 10000.784 20985.408 12300.700 18142.724 12027.703 13736.666 4769.309 6592.020 3168.034 12048.896 12896.083 19512.064 1461.866 12935.076 6511.753 5511.737 1393.211 3313.358 2263.441 4168.447 7869.778 20504.283 45137.457 18252.145 11928.170 16699.556 3977.549 55567.574 3331.147 8304.699 8870.782 12051.668 11724.448 17206.586 19163.356 836.657 35283.979 15623.465 7223.799 3163.975 37329.334
49622.860 55510.601 51400.973 54481.710 47292.657 53132.972 53965.361 57380.065 50924.876 56504.960 55215.015 57296.250 41108.590 58238.216 58234.399 61530.556 43783.757 48273.734 40667.196 45578.996 60512.283 56197.889 58463.976 57814.399 57697.974 39659.853 59894.329 47390.502 2024.713 58818.920 3290.965 35455.382 56406.495 58348.164 56481.928 45159.839 6294.020 54911.655 41645.278 49381.999 62245.640 49932.987 35422.032 56137.353 40131.134 50398.776 56154.407 56440.410 54277.058 42277.323 60020.702 55283.899 54263.578 48509.924 51172.782 57506.440 49448.397 59677.216 53078.084 57049.474 0.000 53386.249 55038.220 56611.273 52034.954 54814.289 81012.602 46612.564 5518.582 60837.854 43585.515 56206.348 74619.423 57617.461 42584.654 55263.430 42083.722 49565.950 50062.060 34183.552 57891.312 55345.990 52425.341 63467.011 42353.847 52239.520 38924.233 46576.201 70483.160 53542.236 50907.449 57021.118 56801.797 58899.663 40693.978 58492.391 45515.221 50540.016 52566.646 57637.369 59328.106 55021.648 52977.229 60048.263 37163.510 20674.028 45910.688 45165.746 40517.139 60872.849 11488.358 55712.641 57584.566 50679.487 46212.971 46949.676 39917.224 38881.199 56705.186 24768.444 57255.475 53880.606 54649.553 46469.588
5296.490 27271.653 8198.115 4228.469 8542.912 5717.840 6002.322 6917.730 7737.704 7078.984 4082.195 5055.006 12339.104 9883.387 5770.738 17681.420 9624.478 13348.327 13097.026 14260.000 7574.207 7983.622 6191.651 6029.349 17144.270 41741.634 7303.139 21203.843 55409.928 10811.596 50220.987 19409.033 6248.418 9830.800 11661.445 23323.870 51014.472 4885.751 12691.226 9265.810 8909.221 9199.069 19316.241 10558.583 13337.064 10141.648 10372.461 7206.666 5339.658 19746.039 7392.928 2515.266 6048.688 5273.586 2579.482 6845.634 10498.667 14303.580 22594.551 9046.756 53386.249 0.000 4688.241 8072.054 11234.307 4795.252 27663.034 10758.074 58521.403 7676.478 9827.066 3003.812 27039.226 4241.836 10814.198 1973.043 11704.674 4054.206 9370.479 19258.927 6169.928 2321.281 2781.240 10165.281 24161.109 3256.691 15682.009 14823.680 18264.074 4894.989 6035.401 6353.303 4828.371 6786.720 13119.464 10003.499 15217.673 8446.457 4912.324 10437.331 8525.144 9239.113 7123.816 6818.276 16327.408 38977.164 9973.339 10398.098 15844.448 10587.466 53703.341 5722.409 4208.631 3266.335 7547.723 14717.740 15905.281 14535.165 8211.751 29821.969 7876.513 1830.993 6235.078 28388.408
5433.719 23256.179 5243.482 625.582 12804.876 2378.811 1973.692 2625.784 5191.727 2432.806 777.270 2602.052 14170.577 5253.598 3491.435 21587.350 11732.158 10760.361 15983.592 12441.632 9103.691 3300.006 8871.763 9145.758 12607.896 39676.942 5022.853 18263.687 57050.362 14571.642 51958.648 22509.812 1721.736 5219.909 7066.119 20714.584 52182.522 292.069 13431.594 7087.885 9184.060 6753.638 22375.722 5964.424 15821.639 7262.943 5769.356 2540.888 1196.038 24069.411 9390.308 2800.251 1827.339 9016.177 6836.675 2662.388 7961.998 9616.580 27266.316 4360.727 55038.220 4688.241 0.000 3386.862 7623.815 301.774 26274.475 15128.113 60313.400 6445.366 11900.810 3644.620 22884.093 5504.193 13224.097 3854.190 12979.646 6170.133 6813.895 20952.113 9291.483 3219.650 7466.543 9109.982 22020.729 7940.327 16293.833 12570.450 15515.989 1602.396 4331.791 2122.500 8178.327 9445.969 16048.525 5397.989 13239.337 5895.866 2535.246 5749.756 4572.854 4786.758 3520.709 5934.284 17963.846 41965.929 14107.907 10167.786 15554.068 6524.543 54392.208 1067.232 4961.338 4985.207 8987.323 12362.680 15865.901 16397.062 3527.615 32373.294 11707.177 2863.088 1804.711 32998.670
7728.574 20657.295 5293.052 3905.543 16079.533 3789.030 2943.688 2011.051 5695.830 1076.134 4021.652 4424.364 16360.872 1987.112 4792.838 24492.986 14175.490 10090.788 18644.333 12315.243 11213.776 425.922 11529.894 11960.276 9504.257 38653.449 5513.858 16820.870 58608.699 17484.002 53600.063 25172.628 1987.358 2007.090 3982.161 19503.682 53442.556 3215.047 15048.807 7381.588 10581.568 6873.879 25018.411 2956.568 18289.496 6813.967 2751.079 904.838 3102.096 27321.661 11701.864 5982.250 2683.576 12195.253 10179.574 2240.489 7731.211 6231.713 30626.953 974.857 56611.273 8072.054 3386.862 0.000 6207.486 3317.098 25572.944 18426.018 61962.229 7341.938 14319.262 6542.211 19925.924 8058.756 15741.619 7034.811 14929.601 9084.505 6808.585 22857.073 12099.434 6382.381 10852.051 9602.612 21181.251 11326.303 17687.194 12053.244 14000.095 3881.386 5913.865 2321.817 11137.225 12052.970 18728.089 2186.976 12914.906 6151.740 4682.199 2367.371 3107.421 2444.302 3634.358 7225.883 19912.346 44437.560 17328.393 11448.255 16386.550 4265.941 55314.424 2357.087 7446.587 7974.854 11318.619 11768.892 16854.461 18520.789 143.566 34635.521 14711.445 6249.756 2300.512 36365.741
7485.899 16060.261 3167.207 7650.840 17029.935 5610.913 5669.343 8037.176 3828.398 6869.208 8379.666 9914.852 13891.519 6962.070 10577.866 28873.748 12553.988 4078.941 17115.526 6624.642 16701.921 5829.242 16451.690 16650.611 7440.329 32464.687 11616.961 10732.854 54001.648 21918.628 49140.536 23284.694 7488.131 7120.978 4462.650 13334.120 48466.040 7331.800 11577.051 3636.791 16503.789 3174.360 23081.582 4328.055 16288.079 2073.870 4410.963 6693.138 6464.619 27586.874 17013.363 10255.428 5796.809 13084.237 12248.882 8264.600 2823.020 7694.619 33063.193 6045.000 52034.954 11234.307 7623.815 6207.486 0.000 7343.099 31495.606 19364.335 57471.556 13392.827 12617.863 11230.950 22833.988 13126.969 14106.470 11224.834 12115.517 9731.416 2925.541 19354.895 16798.033 10660.716 13616.417 15778.551 14975.629 14021.617 13582.457 6046.395 19556.575 6530.572 5588.203 8111.309 15595.248 17036.606 17244.753 7204.330 7011.059 3362.970 6322.688 6014.262 9279.868 3803.686 4209.811 13130.957 16651.632 41633.455 17881.984 7941.731 11533.114 9933.004 49954.468 7249.541 12583.690 9170.581 9949.808 5723.587 12187.084 15715.214 6210.307 31504.139 18994.331 9650.118 5884.498 37445.446
5230.421 23015.913 4941.922 589.255 12804.481 2078.901 1682.795 2746.093 4891.749 2420.396 1038.403 2898.369 13983.114 5227.504 3780.280 21816.060 11568.652 10459.569 15853.752 12141.490 9395.837 3194.122 9135.632 9395.064 12432.217 39375.936 5294.567 17971.368 56825.605 14803.431 51739.192 22384.463 1799.346 5203.849 6902.897 20417.035 51938.651 114.697 13195.788 6788.606 9485.804 6452.438 22247.532 5799.250 15666.468 6962.534 5607.245 2508.323 898.189 24063.750 9674.394 3023.144 1551.813 8980.495 6867.303 2805.470 7660.232 9530.455 27387.698 4284.703 54814.289 4795.252 301.774 3317.098 7343.099 0.000 26532.363 15138.042 60095.225 6737.703 11734.634 3906.116 22944.311 5784.011 13072.052 4067.221 12768.449 6063.446 6512.213 20744.929 9541.195 3442.456 7564.337 9397.519 21719.321 8035.874 16047.057 12268.697 15718.749 1325.755 4060.669 2274.238 8412.766 9712.733 15921.422 5383.616 12937.989 5594.769 2277.211 5665.036 4717.257 4579.599 3224.648 6233.289 17758.154 41821.257 14089.074 9906.183 15279.127 6633.542 54130.956 1092.620 5247.061 4888.896 8804.588 12061.110 15597.777 16205.646 3459.758 32203.672 11929.554 2964.271 1565.908 33049.076
31554.327 40985.100 30781.211 26773.100 34827.510 28439.952 27689.569 24260.289 31044.703 25320.777 25977.038 23844.814 39904.894 24533.787 22901.033 28532.703 37232.053 35545.728 40665.221 37880.109 21027.174 25995.695 23296.094 24097.433 30060.611 62939.486 21274.564 41157.861 83034.412 25722.725 77865.103 46708.758 25165.356 24374.683 27482.975 44058.182 78402.354 26448.625 39644.418 32866.350 18959.729 32392.896 46653.364 27240.556 40995.303 32384.082 27126.438 25437.633 27208.476 44232.887 21707.378 25735.342 27400.264 32727.640 29992.824 24087.008 33304.041 25699.716 40422.234 25500.811 81012.602 27663.034 26274.475 25572.944 31495.606 26532.363 0.000 36309.952 86177.440 20188.753 37429.236 24806.958 20002.209 23468.096 38475.624 25758.700 39007.989 31448.079 32351.628 46833.872 24065.476 25666.744 28959.091 17545.688 46169.856 29232.595 42550.859 37521.740 12259.654 27853.148 30583.797 24496.493 24866.359 23012.070 40669.780 24292.974 38435.838 31612.924 28808.255 25530.864 22507.623 27763.148 28981.588 20966.176 43862.530 66081.524 36351.632 36437.870 41748.327 21563.023 80660.590 25786.758 23454.616 30345.436 34834.910 37211.226 42111.295 42131.450 25524.525 57367.419 25746.143 27142.116 27055.617 49311.973
11909.502 34727.902 16302.630 14551.240 2376.748 15122.686 15771.672 17592.828 15581.799 17554.167 14678.267 15798.295 10108.434 20365.110 16448.647 15978.755 8649.815 19441.024 7385.690 18805.308 15346.964 18235.122 13041.496 12219.247 26474.143 43770.145 17855.891 26660.919 48619.569 12206.417 43339.631 11157.955 16819.256 20341.224 21428.343 27854.381 45317.143 15246.971 12856.975 16033.013 17629.158 16335.469 11191.894 20386.824 8745.077 17523.157 20234.774 17646.331 15367.199 8988.014 14617.238 13267.238 15941.713 6384.178 8311.528 17545.731 17303.358 24512.102 14422.883 19369.990 46612.564 10758.074 15128.113 18426.018 19364.335 15138.042 36309.952 0.000 51368.719 17763.225 8760.573 13528.614 37797.263 13846.432 8057.500 12533.362 11204.997 9773.160 16584.643 14811.575 12246.603 13028.319 8246.548 19768.327 27596.995 7816.883 14903.547 19998.209 28500.745 14658.237 13951.504 17030.741 11550.108 13299.049 7257.642 20520.589 19806.896 16002.294 14112.176 20706.863 19278.030 18896.111 16229.417 16877.716 12837.782 29865.610 1734.628 13676.877 16983.001 21340.242 48975.138 16194.791 14162.133 10651.239 9968.027 20095.900 16493.546 11127.533 18569.582 21950.273 10878.272 12392.062 16253.893 18143.236
54887.123 60998.102 56774.783 59748.974 52171.977 58447.908 59285.720 62686.106 56285.165 61830.643 60468.406 62533.512 46301.677 63613.486 63468.271 65951.155 48951.463 53736.700 45676.764 51041.565 65550.372 61551.290 63463.225 62790.938 63194.618 44600.429 65131.659 52908.621 3768.888 63560.936 8362.508 40226.462 61709.394 63720.564 61911.529 50671.046 11025.871 60194.241 46958.227 54769.095 67343.223 55322.666 40212.666 61548.593 45215.350 55811.741 61561.833 61770.531 59577.956 46505.822 65031.787 60474.496 59583.679 53569.437 56259.210 62807.489 54864.181 65126.838 56981.762 62419.523 5518.582 58521.403 60313.400 61962.229 57471.556 60095.225 86177.440 51368.719 0.000 66029.337 48756.054 61375.507 80096.330 62739.456 47707.526 60418.752 47339.472 54752.720 55456.553 39397.999 62862.794 60522.978 57460.358 68639.328 47862.888 57256.444 44279.657 52054.000 75789.667 58834.089 56220.803 62316.081 61805.531 63882.407 45694.287 63867.027 50993.223 55915.561 57858.765 63032.894 64643.012 60413.133 58328.067 65227.907 42386.416 23934.214 50756.682 50514.050 45944.146 66218.476 14840.935 61010.168 62727.409 55881.110 51438.247 52427.647 45329.219 44066.343 62058.582 29422.432 62111.144 59076.382 59972.110 49867.248
11428.916 27716.135 11565.003 6829.150 15794.526 8803.976 8228.573 5378.160 11604.523 6532.527 5974.958 3849.986 19731.631 7720.699 2963.271 18725.651 17082.020 16978.795 20767.510 18836.867 4714.106 7654.277 6184.658 6975.122 16123.885 45826.552 1843.884 24106.107 62858.439 12076.511 57703.180 27076.676 5932.951 7557.660 11011.511 26723.577 58234.913 6681.261 19511.995 13504.482 3310.159 13135.567 26987.486 10151.351 20948.660 13500.144 9956.311 6714.508 7562.850 26590.836 5497.496 5555.137 7984.585 12930.458 10187.146 5146.857 14284.142 11830.963 27048.693 7896.061 60837.854 7676.478 6445.366 7341.938 13392.827 6737.703 20188.753 17763.225 66029.337 0.000 17275.753 4698.125 20896.637 3920.742 18385.826 5708.099 18823.108 11276.688 13169.931 26654.468 7063.017 5519.330 9594.278 2700.052 28234.473 9985.467 22455.080 18863.264 10747.410 8039.262 10734.001 5286.475 6857.786 6457.954 20792.685 7626.440 19594.601 12284.983 8920.671 8863.216 4825.904 9761.841 9743.908 888.232 23678.278 46639.209 17304.281 16482.120 21937.907 6025.544 60634.056 6320.277 3626.009 10159.544 14646.227 18626.878 22204.623 21964.204 7385.279 37484.392 9900.147 6957.309 7743.030 34205.674
6603.301 26670.628 10154.603 11292.238 7125.575 10531.478 11384.597 14466.924 9434.193 13854.513 11909.409 13878.340 2523.087 16252.361 14795.464 23353.087 208.190 11464.787 4518.383 10316.817 17205.485 13973.457 15394.693 14906.988 20058.040 35276.644 16460.961 18117.213 45608.049 17794.841 40436.514 10924.103 13492.715 16303.461 15972.107 19139.768 41200.070 11844.402 4195.084 8981.563 18730.872 9457.434 10752.651 15145.945 3970.235 10554.836 15060.846 13851.825 11426.878 15435.758 16848.530 11723.054 11660.112 5522.431 7821.677 14539.052 10002.866 19408.709 23149.321 15053.560 43585.515 9827.066 11900.810 14319.262 12617.863 11734.634 37429.236 8760.573 48756.054 17275.753 0.000 12622.370 34163.337 14068.821 1497.319 11679.341 2590.173 6004.192 9700.822 9432.114 15014.111 11767.010 9357.878 19885.482 18838.206 9321.889 6738.917 11622.397 27354.716 10622.433 8476.553 14008.717 13758.600 15914.631 4638.997 16477.995 11275.972 9510.918 9699.622 16104.938 16448.456 13669.915 10992.030 16471.898 6510.213 30133.237 7026.032 5332.800 8314.983 18298.348 44008.882 12766.729 14007.298 7157.499 3002.277 11781.119 7924.568 4710.007 14446.334 20472.944 15331.600 10331.851 12056.625 25683.965
7164.909 26884.092 8614.012 3587.908 11405.196 5725.300 5562.820 4868.055 8389.927 5466.159 2869.942 2469.663 15101.915 8019.103 2942.203 18007.602 12425.517 14115.002 16072.814 15508.452 5699.803 6607.834 5229.584 5513.886 16031.384 42955.320 4348.958 21777.568 58228.476 10987.890 53058.761 22410.202 4554.854 7924.275 10480.939 24141.056 53706.067 3933.424 15108.839 10200.802 6388.199 9971.825 22315.664 9403.360 16255.062 10663.489 9200.158 5640.572 4767.908 22489.273 5855.736 1123.524 5456.817 8277.297 5564.281 4719.525 11250.342 12581.893 24389.794 7468.684 56206.348 3003.812 3644.620 6542.211 11230.950 3906.116 24806.958 13528.614 61375.507 4698.125 12622.370 0.000 24370.500 1975.424 13699.642 1035.941 14293.421 6652.190 10080.099 22033.333 5658.505 888.878 5292.006 7263.829 25288.723 5741.091 18088.563 15820.476 15265.569 4793.544 7041.598 4355.471 4606.701 5808.470 16099.875 8076.828 16384.861 9127.716 5366.949 8826.441 6051.040 8367.783 7051.843 3861.883 19070.728 41979.301 12874.942 12372.259 17885.351 8065.983 56246.281 4336.991 1579.775 5594.630 10097.567 15649.783 18055.594 17325.320 6661.800 32786.593 8175.936 2449.852 5447.014 30758.725
27625.869 24497.978 24267.789 23500.712 35554.075 23692.730 22863.261 20297.827 24918.671 20570.648 23212.533 22012.741 36034.585 17951.918 21428.813 38488.173 34031.847 26380.395 38552.830 29072.825 25154.925 20238.254 27023.277 27847.319 17068.468 48180.731 20209.466 28490.849 76556.867 32556.159 71807.467 45067.430 21162.664 17919.335 18563.624 31295.831 70689.963 22829.892 34212.298 26001.325 22824.347 25439.589 44905.589 19185.479 38121.854 24699.157 19234.061 20527.435 22980.555 46785.259 26042.545 24532.938 22609.098 31888.904 29523.493 20315.357 25594.280 15155.275 47903.485 19129.111 74619.423 27039.226 22884.093 19925.924 22833.988 22944.311 20002.209 37797.263 80096.330 20896.637 34163.337 24370.500 0.000 24574.434 35615.278 25318.525 34439.484 28966.746 25253.172 42086.479 27925.612 24787.417 29638.447 20097.804 33981.781 30098.089 36405.656 28043.312 12392.311 23781.939 25686.795 20847.421 27738.622 27211.066 38640.937 17740.244 29104.266 25054.679 24608.059 18064.989 18525.906 20579.498 23181.242 21679.894 39271.284 64146.208 36927.800 30495.971 34300.415 16466.697 71543.970 21851.833 24095.997 27817.474 31165.553 27669.797 34993.056 38094.762 19790.934 54154.792 30721.223 25449.471 22225.719 55020.559
9012.550 28619.488 10576.571 5522.366 11910.701 7678.715 7462.455 6183.148 10363.867 6999.112 4748.968 3653.271 16580.629 9278.342 3617.874 16456.974 13866.090 16085.072 17210.824 17478.620 3726.831 8193.595 3471.739 3943.969 17546.771 44930.698 4395.797 23723.439 59641.453 9473.549 54446.656 23388.572 6111.791 9158.514 12040.697 26106.368 55253.446 5796.255 16819.239 12175.924 4674.100 11946.405 23313.128 10996.490 17532.638 12625.758 10790.871 7186.203 6668.578 22673.445 3899.253 3086.638 7331.478 9283.733 6534.920 5991.407 13223.093 13814.734 23618.575 8920.814 57617.461 4241.836 5504.193 8058.756 13126.969 5784.011 23468.096 13846.432 62739.456 3920.742 14068.821 1975.424 24574.434 0.000 15035.308 2533.434 15907.108 8228.814 12053.047 23500.495 4076.600 2777.210 5725.945 6087.699 27264.147 6095.800 19809.412 17795.777 14655.470 6751.460 9007.573 5754.026 3337.335 4007.066 17221.124 9290.930 18358.579 11101.244 7342.369 10213.482 6882.704 10089.809 8978.711 3040.212 20568.508 42915.960 13429.635 14230.991 19740.475 8726.917 57905.959 6045.466 618.384 7275.878 11723.934 17624.255 19878.142 18776.432 8162.740 33933.890 6826.811 4302.709 7278.723 30448.236
8013.485 27964.598 11649.418 12608.168 6764.356 11952.798 12800.635 15814.453 10927.270 15243.387 13186.751 15099.806 2145.009 17686.888 16002.261 23241.302 1596.052 12834.834 3021.071 11531.677 18011.568 15403.610 16093.756 15544.410 21545.811 35732.983 17662.383 19255.490 44608.915 18011.935 39411.347 9455.581 14846.954 17733.630 17463.435 20125.581 40364.230 13183.455 4855.467 10469.686 19662.935 10949.869 9290.527 16629.801 2601.852 12040.657 16542.234 15247.993 12807.862 14125.605 17595.035 12856.629 13071.305 6065.340 8614.376 15876.863 11471.850 20896.427 22293.075 16493.900 42584.654 10814.198 13224.097 15741.619 14106.470 13072.052 38475.624 8057.500 47707.526 18385.826 1497.319 13699.642 35615.278 15035.308 0.000 12724.151 3219.003 7188.854 11192.413 8577.582 15642.092 12866.605 10006.472 20954.503 19651.843 9903.730 6909.930 12876.922 28609.059 11999.887 9934.021 15341.925 14436.992 16586.119 3142.649 17909.386 12459.132 11008.230 11094.864 17565.730 17789.163 15148.875 12458.377 17561.296 5807.871 28753.511 6353.351 6684.295 8949.536 19669.986 43335.023 14121.048 15021.501 8373.248 4453.436 13057.284 8437.439 3918.614 15870.690 19193.277 15698.950 11489.282 13465.746 24432.803
6488.248 27063.497 8434.556 3627.175 10388.553 5625.509 5620.440 5538.175 8126.652 5972.135 3096.085 3324.498 14173.050 8655.031 3915.400 17756.184 11480.213 13862.841 15059.878 15098.517 6177.833 7042.660 5312.505 5431.389 16438.952 42594.390 5374.787 21616.737 57286.275 10750.745 52108.470 21382.069 5072.030 8575.229 10885.628 23900.792 52813.977 4121.804 14301.035 9864.210 7166.175 9687.586 21289.064 9790.192 15267.663 10471.295 9591.328 6131.622 4846.110 21505.215 6191.376 1061.693 5567.898 7244.633 4528.352 5418.371 10984.959 13191.708 23678.891 7991.832 55263.430 1973.043 3854.190 7034.811 11224.834 4067.221 25758.700 12533.362 60418.752 5708.099 11679.341 1035.941 25318.525 2533.434 12724.151 0.000 13425.194 5752.743 9818.340 21104.068 5579.001 652.463 4320.250 8230.776 24943.062 4779.980 17289.233 15497.390 16301.388 4696.673 6636.062 4993.894 4377.781 5914.087 15084.613 8736.533 16005.757 8864.767 5097.393 9374.977 6903.682 8640.362 7015.061 4856.693 18151.783 40950.150 11851.403 11705.443 17212.184 8946.382 55411.253 4720.733 2344.670 4756.146 9232.355 15348.114 17345.094 16387.953 7163.868 31780.069 7864.531 1820.094 5631.945 29880.406
7548.537 25029.966 10172.377 12410.343 9690.165 11235.785 12092.454 15409.377 9525.878 14638.949 13132.116 15215.620 1854.602 16762.429 16155.582 25936.495 2762.629 10171.388 5607.191 8546.723 19236.180 14545.807 17559.221 17135.322 19450.488 32702.340 17812.805 16139.088 44099.401 20292.372 38988.267 11227.857 14427.036 16838.777 15950.980 16921.750 39420.583 12869.764 1652.044 8573.694 20578.437 9115.368 11012.882 15257.565 4403.475 10057.408 15205.550 14602.941 12298.991 17154.255 18951.787 13300.432 12385.742 7950.258 9992.979 15515.931 9326.327 19412.409 25503.847 15545.266 42083.722 11704.674 12979.646 14929.601 12115.517 12768.449 39007.989 11204.997 47339.472 18823.108 2590.173 14293.421 34439.484 15907.108 3219.003 13425.194 0.000 7678.792 9331.423 7980.377 17250.399 13411.164 11634.081 21491.655 16437.880 11652.189 4214.963 9940.962 28485.352 11531.864 9029.583 15010.926 15956.926 18103.341 5770.560 17003.764 9420.698 9400.487 10561.136 16435.133 17387.092 13867.661 11378.885 18068.748 5001.732 29711.112 9479.703 4203.574 5781.701 19094.689 42001.043 13715.171 15769.378 8699.712 4196.060 10158.991 5346.443 3657.096 15043.384 19751.213 17759.901 11890.724 12782.882 27511.842
2283.863 25556.581 6596.097 5544.665 7401.585 5473.502 6217.667 8795.276 5904.111 8397.180 6039.723 7911.060 8457.362 11071.546 8814.650 20433.310 5813.509 10677.533 9837.338 11000.179 11626.235 8816.953 10125.924 9833.681 16705.023 38228.999 10476.553 18471.833 51587.285 13939.602 46427.108 16350.356 7862.782 11083.838 11705.334 20294.802 47063.087 6177.932 8637.530 6752.242 12899.648 6916.543 16221.179 10693.321 9786.196 8067.852 10554.059 8439.772 5993.897 18421.475 11414.389 5721.792 6436.407 3396.470 3060.490 8829.130 8077.256 14905.136 23355.210 9958.807 49565.950 4054.206 6170.133 9084.505 9731.416 6063.446 31448.079 9773.160 54752.720 11276.688 6004.192 6652.190 28966.746 8228.814 7188.854 5752.743 7678.792 0.000 7148.735 15385.960 9963.750 5782.940 4803.016 13902.791 20821.472 5045.349 11627.950 11813.861 21424.021 5203.270 4198.511 8287.311 8621.425 10702.825 9895.802 11264.985 12009.850 6419.681 4476.028 11209.991 10733.303 9184.172 6474.844 10482.392 12419.267 35846.755 8448.103 6577.640 11900.270 12692.593 49677.348 7149.941 8097.262 1197.067 3498.838 11784.705 11909.861 10687.845 9224.418 26380.422 11105.594 4327.668 6797.004 27916.331
4864.902 18408.238 1611.608 6601.280 14279.549 4446.710 4941.471 8164.829 1693.576 7051.750 7452.039 9386.467 11064.430 8216.685 10213.776 27015.087 9633.424 4044.936 14206.308 5674.125 15763.465 6382.734 15129.601 15186.939 10362.242 32900.262 11559.404 11845.514 52047.102 20182.008 47103.012 20428.718 7352.757 8339.696 6690.635 14083.028 46734.837 6547.247 8962.148 758.379 15997.765 252.586 20230.937 6140.281 13415.356 938.644 6132.139 6923.920 5637.246 24691.276 15929.568 8992.817 5188.616 10403.653 9917.178 8361.275 1170.378 10131.168 30485.393 7065.823 50062.060 9370.479 6813.895 6808.585 2925.541 6512.213 32351.628 16584.643 55456.553 13169.931 9700.822 10080.099 25253.172 12053.047 11192.413 9818.340 9331.423 7148.735 0.000 16833.910 15333.748 9354.625 11444.176 15761.066 15233.087 11806.431 11254.012 5765.913 20781.606 5335.263 3342.342 8034.960 14047.896 15732.014 14333.320 8472.389 6431.090 954.384 4728.789 7576.392 9844.036 4960.386 3450.259 12727.267 14032.883 38984.865 15059.866 5251.160 9636.282 11015.071 48517.844 6862.956 11588.336 6798.800 7030.784 5576.406 10163.681 12970.307 6872.520 28920.198 17246.953 8061.037 5458.774 34608.431
15518.410 29444.367 17907.967 20376.318 14489.417 19202.153 20055.766 23389.252 17319.168 22605.725 21079.699 23136.106 6931.812 24644.075 24070.354 30777.299 9634.449 16443.716 7506.095 14038.122 26576.276 22464.151 24671.060 24114.068 26293.010 30883.064 25734.050 19922.094 36203.978 26233.704 31058.184 7250.497 22407.069 24729.826 23522.879 19520.995 31795.183 20847.013 7887.971 16088.042 28159.543 16650.848 6984.766 22940.136 6434.709 17407.470 22910.991 22564.450 20278.272 16475.388 26171.235 21101.077 20350.659 14638.779 17172.095 23496.307 16543.507 26947.910 27158.570 23428.242 34183.552 19258.927 20952.113 22857.073 19354.895 20744.929 46833.872 14811.575 39397.999 26654.468 9432.114 22033.333 42086.479 23500.495 8577.582 21104.068 7980.377 15385.960 16833.910 0.000 24209.488 21168.389 18583.063 29288.752 17895.714 18470.849 5951.998 15418.109 36463.422 19512.241 16985.331 22990.897 23013.461 25160.891 7609.756 24890.085 14517.130 17084.984 18541.353 24235.151 25365.818 21626.875 19263.496 25867.778 2990.430 22364.450 13477.776 11603.032 8807.469 27053.251 34796.849 21695.543 23436.640 16495.962 12040.248 15748.898 7946.460 4724.901 22966.286 12167.014 24113.080 19697.167 20746.418 26382.313
11463.410 32542.175 13997.317 9163.542 10838.952 11204.357 11162.000 10255.306 13651.973 11030.249 8514.257 7722.462 17505.667 13354.446 7665.984 12394.118 14806.143 19366.884 17229.403 20414.720 3188.740 12208.700 921.994 147.631 21601.030 47908.176 8161.233 27165.558 59914.191 5397.649 54665.002 22845.750 10129.397 13233.599 16074.762 29391.749 55949.708 9576.855 18444.251 15317.270 5632.507 15187.625 22816.480 15014.657 17886.083 16022.930 14809.812 11213.679 10374.148 20505.203 2384.886 6548.876 11081.907 9577.509 7259.111 10066.200 16491.374 17884.919 19989.787 12980.715 57891.312 6169.928 9291.483 12099.434 16798.033 9541.195 24065.476 12246.603 62862.794 7063.017 15014.111 5658.505 27925.612 4076.600 15642.092 5579.001 17250.399 9963.750 15333.748 24209.488 0.000 6139.228 5657.714 8159.655 30310.729 5738.992 21396.335 20927.222 17068.121 10274.420 12064.195 9812.969 1348.781 1054.102 17198.777 13364.503 21361.506 14385.253 10646.169 14285.703 10894.190 14023.794 12589.565 6358.005 21429.100 42047.273 12343.025 16495.188 21863.758 12638.840 58973.451 9982.693 4694.793 9387.314 13299.928 20801.758 21855.083 19551.864 12208.462 33640.192 2853.446 7274.671 11096.194 27367.834
6284.289 26453.614 7931.696 3028.188 10845.902 5083.390 5027.013 4904.361 7661.075 5320.141 2454.780 2774.680 14238.305 8011.264 3450.649 18373.636 11571.566 13398.249 15286.009 14716.382 6495.703 6391.127 5815.099 5991.998 15791.245 42190.055 4991.691 21115.137 57367.701 11362.038 52202.528 21659.904 4420.996 7933.604 10237.085 23434.444 52826.913 3492.170 14220.159 9437.967 7273.325 9234.562 21559.981 9142.723 15432.298 9976.781 8943.420 5479.276 4244.129 22010.872 6586.194 419.581 4960.388 7560.775 4899.206 4791.076 10524.295 12543.364 24320.092 7339.789 55345.990 2321.281 3219.650 6382.381 10660.716 3442.456 25666.744 13028.319 60522.978 5519.330 11767.010 888.878 24787.417 2777.210 12866.605 652.463 13411.164 5782.940 9354.625 21168.389 6139.228 0.000 4864.181 8121.058 24528.722 5331.924 17199.694 15068.470 15977.454 4149.150 6242.413 4355.876 4975.066 6410.346 15317.614 8096.103 15606.778 8400.282 4626.032 8723.525 6325.329 8006.034 6454.763 4704.938 18201.941 41229.886 12288.289 11496.196 17009.333 8378.006 55358.415 4070.028 2448.640 4711.472 9215.898 14908.299 17173.299 16465.156 6511.527 31984.650 8488.443 1563.546 5008.353 30468.991
6810.087 29672.698 10483.555 6989.997 6200.841 8289.150 8676.299 9664.635 9924.119 9859.817 6861.086 7632.909 11848.127 12661.120 8226.943 15685.165 9150.032 15254.554 11786.557 15778.078 8090.362 10757.135 6088.809 5553.052 19834.690 43022.148 9609.402 23111.826 54449.779 9139.016 49218.458 17760.753 9024.010 12606.113 14392.017 25038.807 50356.123 7657.596 12894.687 11201.073 9999.756 11241.940 17699.255 13292.226 12320.219 12294.092 13110.023 9987.906 8059.750 17197.471 7609.588 5156.079 8751.316 3946.981 1764.614 9579.845 12501.460 17083.036 19848.970 11826.564 52425.341 2781.240 7466.543 10852.051 13616.417 7564.337 28959.091 8246.548 57460.358 9594.278 9357.878 5292.006 29638.447 5725.945 10006.472 4320.250 11634.081 4803.016 11444.176 18583.063 5657.714 4864.181 0.000 11792.800 25621.482 476.646 15812.463 16529.760 20339.072 7541.012 8139.360 9101.920 4430.522 6581.121 11774.962 12777.853 16779.980 10579.503 7386.723 13216.298 11187.045 11934.412 9655.544 8706.097 15778.754 37237.841 7710.869 11333.692 16498.525 13241.848 53324.230 8503.602 5969.234 4690.697 7822.361 16474.698 16413.524 13906.454 10992.019 28420.668 6334.898 4604.232 8965.447 25636.914
14125.053 29446.618 14150.414 9515.595 17938.210 11447.494 10831.709 7754.221 14230.625 8925.424 8666.909 6530.808 22359.255 9578.547 5618.699 18602.847 19689.003 19490.753 23248.757 21435.073 5127.673 9959.106 7238.415 8114.469 17712.217 48243.034 4210.400 26421.245 65488.754 12459.078 60321.983 29471.929 8438.171 9404.322 12962.481 29101.643 60910.305 9335.126 22203.461 16127.858 2727.131 15739.548 29393.931 12220.557 23496.591 16040.198 12038.146 9094.662 10198.778 28423.919 6025.539 8196.536 10574.878 15346.674 12592.532 7531.822 16854.727 13187.608 27911.826 10000.784 63467.011 10165.281 9109.982 9602.612 15778.551 9397.519 17545.688 19768.327 68639.328 2700.052 19885.482 7263.829 20097.804 6087.699 20954.503 8230.776 21491.655 13902.791 15761.066 29288.752 8159.655 8121.058 11792.800 0.000 30709.583 12139.628 25150.882 21402.532 8916.944 10710.069 13418.593 7765.608 8374.073 7294.695 23265.533 9431.985 22165.916 14895.829 11605.606 10755.528 6715.291 12046.753 12316.159 3424.314 26319.629 49003.652 19465.868 19180.745 24630.871 7248.395 63331.462 8898.668 5973.243 12807.718 17306.229 21152.841 24902.803 24586.003 9621.040 39977.498 10797.569 9605.676 10306.075 35521.749
18927.959 13367.817 16777.777 21833.631 25866.278 19672.978 20089.881 22956.036 16910.069 21785.204 22680.427 24550.307 17837.062 21787.794 25323.624 41210.033 18955.767 11270.247 21526.686 9901.932 30984.622 20796.885 30210.939 30167.148 17166.957 17668.386 26514.067 5491.106 44151.935 34743.434 39949.515 24875.127 22304.882 21957.302 18691.785 2826.394 37638.076 21745.448 14796.495 15091.271 31191.876 15324.957 24607.168 19016.795 20038.790 14768.386 19152.499 21618.369 20829.903 33008.365 31114.533 24185.511 20304.649 23065.029 23880.478 23177.795 14069.798 20756.091 41941.567 20985.408 42353.847 24161.109 22020.729 21181.251 14975.629 21719.321 46169.856 27596.995 47862.888 28234.473 18838.206 25288.723 33981.781 27264.147 19651.843 24943.062 16437.880 20821.472 15233.087 17895.714 30310.729 24528.722 25621.482 30709.583 0.000 25862.863 13495.036 9470.863 33995.678 20568.329 18307.520 22963.530 28980.880 30816.211 21699.723 22012.101 8950.190 16177.189 19921.785 20713.843 24252.532 18773.472 18539.542 27872.664 17134.055 37882.558 25862.975 14480.518 10771.477 24742.144 37800.195 21934.379 26814.361 21068.545 18366.403 9660.282 11431.543 17872.391 21185.856 28025.804 31868.882 23137.591 20509.945 43358.043
7120.151 30072.131 10879.578 7460.269 5814.963 8730.535 9131.775 10140.564 10307.379 10335.585 7337.282 8097.465 11791.286 13137.527 8679.944 15396.004 9114.933 15582.372 11580.305 16042.870 8302.865 11229.258 6232.429 5643.326 20288.491 43223.321 10044.649 23430.295 54263.615 8941.192 49026.377 17476.682 9500.530 13082.676 14854.483 25323.413 50222.403 8129.705 12953.197 11543.373 10280.850 11600.169 17420.925 13755.506 12166.015 12666.127 13574.096 10463.215 8522.719 16753.358 7781.184 5628.295 9211.083 3841.271 1985.312 10055.087 12850.229 17556.907 19387.236 12300.700 52239.520 3256.691 7940.327 11326.303 14021.617 8035.874 29232.595 7816.883 57256.444 9985.467 9321.889 5741.091 30098.089 6095.800 9903.730 4779.980 11652.189 5045.349 11806.431 18470.849 5738.992 5331.924 476.646 12139.628 25862.863 0.000 15847.425 16823.253 20732.830 7993.894 8518.350 9577.972 4568.169 6698.250 11562.384 13254.452 17049.807 10953.016 7817.489 13690.030 11656.396 12391.200 10088.971 9097.388 15695.961 36924.032 7334.773 11521.057 16619.917 13709.914 53237.386 8978.751 6365.484 5025.383 7931.607 16776.470 16510.715 13815.797 11466.404 28169.177 6193.527 5077.536 9429.538 25161.723
11026.167 23877.689 12505.220 15780.248 13661.780 14257.193 15074.173 18514.002 12005.510 17599.566 16574.636 18711.877 4799.103 19340.951 19654.787 30064.718 6927.982 10501.212 8140.022 8092.407 23253.388 17274.385 21666.575 21277.636 20369.597 28871.758 21276.404 14468.207 40922.581 24504.970 35918.491 11776.144 17552.202 19445.191 17878.952 14559.439 35893.511 16136.740 2991.882 10539.003 24452.095 11099.887 11517.356 17392.784 6625.707 11720.957 17386.081 17528.718 15438.246 19515.022 23017.797 17039.161 15372.268 12165.165 14140.159 18653.436 10812.780 21251.173 28865.734 18142.724 38924.233 15682.009 16293.833 17687.194 13582.457 16047.057 42550.859 14903.547 44279.657 22455.080 6738.917 18088.563 36405.656 19809.412 6909.930 17289.233 4214.963 11627.950 11254.012 5951.998 21396.335 17199.694 15812.463 25150.882 13495.036 15847.425 0.000 9484.123 31593.845 14740.761 12045.686 18188.256 20087.592 22222.436 8310.942 19593.697 8613.846 11650.003 13771.982 18803.735 20437.676 16177.980 14053.032 21753.324 3905.421 28302.603 13230.789 6243.110 3064.509 21948.773 38182.540 16877.672 19615.760 12534.299 8147.236 9808.768 2220.107 4378.473 17781.709 18081.811 21971.933 15644.677 15752.430 29863.993
9724.866 15099.351 7329.801 12367.028 17928.490 10211.108 10661.870 13686.979 7439.269 12527.587 13217.580 15123.920 11762.327 12997.613 15924.793 32214.349 11661.039 1976.014 15544.426 1432.479 21514.591 11644.853 20786.953 20782.080 11271.120 27139.250 17192.379 6730.951 48515.674 25550.978 43774.642 20793.305 12964.750 13153.286 10368.316 8518.529 42759.422 12299.251 8687.715 5633.387 21752.769 5854.133 20552.692 10366.070 14314.192 5364.653 10455.477 12373.893 11385.278 27001.822 21654.377 14720.400 10889.696 14536.988 14845.759 13900.008 4608.685 13243.433 34367.988 12027.703 46576.201 14823.680 12570.450 12053.244 6046.395 12268.697 37521.740 19998.209 52054.000 18863.264 11622.397 15820.476 28043.312 17795.777 12876.922 15497.390 9940.962 11813.861 5765.913 15418.109 20927.222 15068.470 16529.760 21402.532 9470.863 16823.253 9484.123 0.000 25601.759 11100.306 8873.509 13637.228 19611.592 21391.838 15705.865 13242.596 1061.008 6707.107 10453.879 12059.626 15160.631 9764.353 9124.156 18459.214 13214.047 37696.005 18307.500 6348.540 6698.444 15961.716 44040.646 12543.567 17343.557 11866.045 10079.687 373.785 7525.117 12913.314 12080.744 27452.644 22638.545 13702.719 11120.234 37297.756
20947.860 29015.728 19292.565 16102.258 26539.911 17350.877 16522.791 13104.203 19677.028 13995.404 15446.719 13518.624 29676.961 12653.677 12638.785 26404.130 27176.845 23635.180 31199.606 26097.050 13968.829 14424.303 16148.584 17026.954 17835.866 50679.861 11005.448 28919.882 72489.339 20985.783 67429.769 37626.609 14080.275 12510.278 15364.635 31828.726 67427.474 15616.423 28838.211 21378.073 11494.324 20861.667 37520.970 15238.063 31208.953 20674.880 15146.296 14071.311 16211.775 37271.446 14859.423 15892.443 16224.520 23533.684 20829.583 12982.476 21623.647 13440.092 36588.404 13736.666 70483.160 18264.074 15515.989 14000.095 19556.575 15718.749 12259.654 28500.745 75789.667 10747.410 27354.716 15265.569 12392.311 14655.470 28609.059 16301.388 28485.352 21424.021 20781.606 36463.422 17068.121 15977.454 20339.072 8916.944 33995.678 20732.830 31593.845 25601.759 0.000 16960.426 19575.774 13477.868 17270.209 16171.658 31241.778 12401.676 26562.416 20151.829 17934.840 13542.359 11157.905 15954.383 17595.723 11635.444 33476.903 57191.986 28046.093 25356.626 30386.373 9767.442 69298.757 14780.988 14369.986 20236.010 24491.026 25273.482 30849.759 31908.072 13924.259 47802.296 19636.274 17183.464 15842.029 44405.851
4041.350 22455.565 3825.890 1269.023 12293.587 935.039 1146.376 3882.177 3669.745 3248.638 2131.879 4190.051 12805.243 5868.330 5091.471 22377.860 10465.060 9344.444 14846.521 10905.105 10442.065 3624.868 9962.466 10126.856 12294.599 38235.171 6620.173 16985.589 55551.944 15401.060 50475.862 21382.378 2899.315 5881.345 6899.367 19355.907 50634.193 1404.939 11907.665 5547.325 10699.910 5251.274 21236.401 5814.169 14579.261 5874.565 5644.399 3267.292 809.560 23496.920 10646.570 3754.897 1284.040 8356.743 6557.697 3984.086 6499.944 9854.589 27372.926 4769.309 53542.236 4894.989 1602.396 3881.386 6530.572 1325.755 27853.148 14658.237 58834.089 8039.262 10622.433 4793.544 23781.939 6751.460 11999.887 4696.673 11531.864 5203.270 5335.263 19512.241 10274.420 4149.150 7541.012 10710.069 20568.329 7993.894 14740.761 11100.306 16960.426 0.000 2735.176 3482.663 9064.691 10555.497 14923.067 6062.374 11728.629 4394.719 975.600 6063.375 5865.930 4403.542 2321.961 7502.609 16530.457 40749.247 13496.280 8584.737 13953.840 7675.925 52808.648 2183.427 6265.167 4101.490 7652.877 10910.292 14272.542 15014.674 4021.579 31062.481 12485.361 3168.839 1608.106 32704.912
2105.028 21576.307 2423.210 3904.863 11587.028 2227.277 3072.767 6475.391 1792.346 5623.999 4763.738 6887.895 10449.306 7800.532 7806.125 23673.418 8346.474 7320.188 12900.631 8473.977 12733.590 5542.867 11913.802 11918.381 12524.893 35959.001 9353.977 15168.765 52913.603 16844.698 47859.490 19389.592 5508.079 7862.147 7714.775 17328.902 47934.824 4139.495 9263.471 3253.141 13251.604 3164.427 19223.518 6784.761 12437.558 4158.705 6675.935 5579.249 3394.217 22466.864 12817.475 5921.809 3369.216 7591.189 6684.003 6609.543 4463.297 11064.435 27478.834 6592.020 50907.449 6035.401 4331.791 5913.865 5588.203 4060.669 30583.797 13951.504 56220.803 10734.001 8476.553 7041.598 25686.795 9007.573 9934.021 6636.062 9029.583 4198.511 3342.342 16985.331 12064.195 6242.413 8139.360 13418.593 18307.520 8518.350 12045.686 8873.509 19575.774 2735.176 0.000 6142.993 10759.606 12518.792 12997.999 8033.039 9370.698 2444.131 1813.359 7631.735 8422.351 5274.398 2536.265 10153.524 14024.334 38546.365 12565.638 5857.372 11223.272 10068.459 50076.905 4832.902 8605.054 3585.202 5480.975 8739.075 11537.409 12607.512 6032.457 28721.768 13910.840 4831.494 3762.926 32091.034
7490.684 22972.412 6424.723 2745.657 14742.319 3951.720 3196.079 564.653 6587.546 1314.192 2366.167 2106.521 16251.612 3670.322 2520.184 22205.582 13842.363 11727.101 18105.931 13702.692 8908.556 2518.291 9221.392 9675.773 11792.870 40541.731 3556.501 18836.094 59030.073 15206.824 53957.498 24631.321 682.773 3584.019 6298.087 21438.153 54077.601 2165.233 15380.483 8458.202 8415.809 8032.931 24497.771 5277.818 17937.875 8276.415 5072.187 1506.655 2750.442 26004.286 9382.454 3995.157 2911.075 11044.866 8720.364 542.351 9104.587 8228.196 28672.651 3168.034 57021.118 6353.303 2122.500 2321.817 8111.309 2274.238 24496.493 17030.741 62316.081 5286.475 14008.717 4355.471 20847.421 5754.026 15341.925 4993.894 15010.926 8287.311 8034.960 22990.897 9812.969 4355.876 9101.920 7765.608 22963.530 9577.972 18188.256 13637.228 13477.868 3482.663 6142.993 0.000 8898.135 9738.183 18170.523 3743.422 14410.298 7208.005 4457.533 4488.794 2450.382 4575.829 4585.946 5038.372 20007.095 44087.069 16088.923 11989.819 17251.946 4423.997 56177.896 1310.934 5138.770 7098.244 11076.416 13387.455 17623.093 18470.946 2416.948 34477.845 12470.561 4638.882 2589.384 34736.527
10118.407 31427.897 12741.056 7999.694 9961.153 9987.364 9996.312 9374.882 12372.924 10061.528 7403.620 6855.153 16261.785 12513.934 6939.491 13412.393 13550.425 18072.568 16136.440 19082.197 3839.306 11213.395 1664.263 1214.050 20635.118 46569.791 7679.894 25889.176 58825.663 6394.052 53585.162 21899.020 9151.742 12404.081 15086.856 28088.137 54782.133 8457.347 17128.030 14012.096 6083.247 13896.210 21858.358 14010.055 16732.448 14755.197 13806.856 10239.062 9217.572 20061.805 3228.929 5392.637 9935.337 8375.738 5965.596 9201.092 15200.613 17072.779 20311.584 12048.896 56801.797 4828.371 8178.327 11137.225 15595.248 8412.766 24866.359 11550.108 61805.531 6857.786 13758.600 4606.701 27738.622 3337.335 14436.992 4377.781 15956.926 8621.425 14047.896 23013.461 1348.781 4975.066 4430.522 8374.073 28980.880 4568.169 20087.592 19611.592 17270.209 9064.691 10759.606 8898.135 0.000 2156.098 16113.987 12544.938 20033.265 13102.879 9386.337 13386.905 10212.598 12950.487 11386.161 6058.734 20204.538 41215.444 11486.019 15147.082 20521.646 12062.525 57748.743 8939.199 3926.838 8038.775 11976.089 19491.524 20519.577 18335.079 11253.483 32654.673 3574.723 6004.263 9977.342 27352.858
12072.148 32624.588 14338.643 9386.840 11887.457 11490.478 11370.504 10141.223 14040.677 10999.385 8674.938 7631.666 18417.731 13176.212 7447.040 12544.590 15706.452 19776.097 18233.288 20939.352 2214.638 12197.524 605.273 1100.068 21519.706 48446.394 7732.688 27523.146 60922.959 5673.319 55676.845 23888.474 10116.802 13045.625 16034.551 29813.596 56920.625 9736.432 19256.014 15762.690 4689.284 15599.144 23857.367 14997.799 18862.568 16380.359 14792.059 11187.576 10575.914 21519.467 1360.292 6800.613 11264.253 10522.122 8116.320 9939.168 16897.942 17658.618 20695.111 12896.083 58899.663 6786.720 9445.969 12052.970 17036.606 9712.733 23012.070 13299.049 63882.407 6457.954 15914.631 5808.470 27211.066 4007.066 16586.119 5914.087 18103.341 10702.825 15732.014 25160.891 1054.102 6410.346 6581.121 7294.695 30816.211 6698.250 22222.436 21391.838 16171.658 10555.497 12518.792 9738.183 2156.098 0.000 18205.714 13166.272 21868.047 14778.650 11010.723 14159.477 10591.655 14092.855 12845.829 5834.522 22358.555 43100.962 13393.819 17176.962 22591.928 12235.443 59903.415 10045.234 4610.781 10045.636 14096.802 21250.645 22612.413 20487.517 12153.486 34677.005 3518.949 7689.726 11241.357 28236.422
11015.537 30799.566 14780.242 15424.876 6926.092 14949.444 15784.988 18666.091 14054.145 18171.009 15933.851 17734.134 4008.222 20691.926 18603.182 23182.509 4724.753 15826.017 173.128 14316.595 19860.561 18405.159 17774.099 17120.821 24682.624 36995.501 20241.120 21860.637 42717.247 18720.039 37472.522 6463.469 17715.061 20730.319 20583.829 22468.687 38861.291 16034.851 7196.298 13608.142 21728.239 14091.321 6327.266 19733.499 1687.291 15176.793 19640.719 18188.619 15732.448 11442.656 19338.454 15365.233 16046.282 7942.588 10686.206 18710.911 14591.021 24007.166 20611.839 19512.064 40693.978 13119.464 16048.525 18728.089 17244.753 15921.422 40669.780 7257.642 45694.287 20792.685 4638.997 16099.875 38640.937 17221.124 3142.649 15084.613 5770.560 9895.802 14333.320 7609.756 17198.777 15317.614 11774.962 23265.533 21699.723 11562.384 8310.942 15705.865 31241.778 14923.067 12997.999 18170.523 16113.987 18205.714 0.000 20908.070 15188.407 14148.211 14052.571 20621.632 20620.090 18243.333 15531.910 19937.683 5626.054 25963.872 5868.349 9696.269 10944.624 22552.043 42187.789 16993.019 17292.303 11092.312 7539.864 15915.981 10269.770 4075.059 18860.503 16713.893 16757.241 14058.476 16435.635 21823.723
9900.279 20103.538 7092.355 5969.501 18187.937 5960.272 5124.026 3210.543 7602.156 2966.874 5923.684 5691.318 18478.042 255.750 5720.015 25706.938 16337.604 11268.275 20822.913 13696.040 12005.840 2505.795 12695.093 13233.649 8511.949 39252.980 5820.582 17315.698 60483.106 18755.977 55507.648 27348.029 3755.153 181.438 3555.045 20116.135 55207.199 5274.030 17040.367 9122.746 10934.571 8580.926 27191.849 2998.413 20447.427 8289.838 2859.754 2877.242 5273.522 29445.093 12614.277 7727.370 4868.989 14339.270 12234.638 3359.632 9244.542 4528.209 32415.385 1461.866 58492.391 10003.499 5397.989 2186.976 7204.330 5383.616 24292.974 20520.589 63867.027 7626.440 16477.995 8076.828 17740.244 9290.930 17909.386 8736.533 17003.764 11264.985 8472.389 24890.085 13364.503 8096.103 12777.853 9431.985 22012.101 13254.452 19593.697 13242.596 12401.676 6062.374 8033.039 3743.422 12544.938 13166.272 20908.070 0.000 14181.475 7952.507 6868.083 1348.798 2802.384 3559.022 5629.262 7765.159 21965.338 46578.591 19462.756 13385.175 18108.086 2737.996 56935.064 4331.005 8674.303 10145.351 13475.796 12925.578 18629.483 20618.178 2050.894 36738.688 16098.818 8217.048 4487.467 38378.817
10018.112 15636.569 8030.107 12997.578 17805.373 10864.365 11369.182 14488.444 8059.804 13339.064 13857.984 15817.381 11204.935 13933.972 16642.191 32443.020 11332.385 2936.759 15023.497 1026.067 22084.635 12500.903 21262.796 21217.757 12314.921 26588.634 17957.028 6858.713 47454.681 25862.471 42714.749 20076.883 13732.478 14086.449 11379.106 8303.927 41704.425 12975.664 8066.858 6192.422 22419.434 6486.117 19831.837 11338.864 13740.444 6144.294 11420.846 13191.728 12067.483 26557.045 22187.535 15273.389 11610.015 14561.648 15065.048 14696.662 5312.246 14292.005 34214.681 12935.076 45515.221 15217.673 13239.337 12914.906 7011.059 12937.989 38435.838 19806.896 50993.223 19594.601 11275.972 16384.861 29104.266 18358.579 12459.132 16005.757 9420.698 12009.850 6431.090 14517.130 21361.506 15606.778 16779.980 22165.916 8950.190 17049.807 8613.846 1061.008 26562.416 11728.629 9370.698 14410.298 20033.265 21868.047 15188.407 14181.475 0.000 7344.342 11026.531 13022.504 16019.859 10673.410 9853.886 19158.303 12406.736 36746.560 18097.498 6136.357 5743.845 16888.232 43011.046 13278.228 17928.005 12164.881 9989.632 1434.475 6587.232 12216.453 12949.299 26501.700 22968.203 14195.536 11862.040 36889.611
4149.108 19179.534 863.348 5662.825 13671.389 3520.035 4064.121 7373.719 739.207 6292.148 6518.319 8481.261 11064.072 7698.536 9323.830 26108.281 9424.647 4999.137 14029.248 6553.638 14813.752 5727.645 14176.420 14238.338 10677.560 33845.284 10704.873 12786.906 52531.212 19256.940 47556.813 20353.469 6525.440 7808.353 6555.995 15037.131 47300.955 5634.657 9197.429 1254.791 15075.251 858.354 20164.444 5870.510 13329.258 1714.960 5831.295 6177.616 4731.136 24259.158 14976.006 8038.976 4324.520 9741.020 9092.198 7561.408 2124.214 10018.480 29774.705 6511.753 50540.016 8446.457 5895.866 6151.740 3362.970 5594.769 31612.924 16002.294 55915.561 12284.983 9510.918 9127.716 25054.679 11101.244 11008.230 8864.767 9400.487 6419.681 954.384 17084.984 14385.253 8400.282 10579.503 14895.829 16177.189 10953.016 11650.003 6707.107 20151.829 4394.719 2444.131 7208.005 13102.879 14778.650 14148.211 7952.507 7344.342 0.000 3774.409 7169.578 9120.617 4548.431 2636.150 11822.122 14226.223 39109.221 14520.529 5490.155 10235.036 10403.529 49171.830 6001.105 10639.691 5975.071 6702.943 6524.649 10709.395 13057.243 6229.088 29102.038 16321.004 7111.275 4619.477 34084.656
3100.190 22363.275 3354.749 2091.591 11737.300 1010.817 1754.973 4848.740 3035.217 4155.175 2952.527 5074.809 11852.096 6660.118 5995.124 22564.550 9546.698 8773.094 13971.374 10167.693 11064.223 4379.907 10409.722 10498.775 12564.994 37588.643 7555.959 16523.194 54576.383 15636.447 49500.435 20504.128 3866.100 6688.778 7323.468 18810.491 49664.780 2364.984 10932.991 4836.494 11474.286 4609.926 20353.636 6274.685 13663.879 5377.803 6123.314 4153.731 1744.059 22873.088 11205.617 4268.388 1999.127 7752.636 6212.906 4955.827 5898.287 10441.274 27119.215 5511.737 52566.646 4912.324 2535.246 4682.199 6322.688 2277.211 28808.255 14112.176 57858.765 8920.671 9699.622 5366.949 24608.059 7342.369 11094.864 5097.393 10561.136 4476.028 4728.789 18541.353 10646.169 4626.032 7386.723 11605.606 19921.785 7817.489 13771.982 10453.879 17934.840 975.600 1813.359 4457.533 9386.337 11010.723 14052.571 6868.083 11026.531 3774.409 0.000 6736.584 6829.481 4790.790 2273.190 8345.510 15560.952 39832.545 12878.915 7632.542 13031.783 8608.198 51857.079 3155.159 6901.594 3465.100 6716.544 10286.622 13333.201 14056.007 4817.219 30118.514 12703.875 3383.186 2384.022 32217.181
9622.872 18854.225 6331.328 6250.008 18348.360 5755.451 4993.773 4030.554 6922.674 3405.476 6387.744 6563.284 17985.563 1177.594 6738.164 26669.605 15977.286 10093.060 20527.071 12587.131 13121.984 2482.169 13663.203 14150.282 7379.239 37916.825 7033.877 15977.470 59621.266 19682.932 54678.972 27021.310 4303.309 1352.912 2211.442 18787.326 54257.320 5566.727 16353.721 8269.745 12172.707 7712.831 26854.759 1709.696 20058.616 7283.948 1604.540 3254.666 5339.758 29560.235 13688.862 8329.539 4789.870 14419.955 12503.835 4223.983 8242.977 3867.029 32992.796 1393.211 57637.369 10437.331 5749.756 2367.371 6014.262 5665.036 25530.864 20706.863 63032.894 8863.216 16104.938 8826.441 18064.989 10213.482 17565.730 9374.977 16435.133 11209.991 7576.392 24235.151 14285.703 8723.525 13216.298 10755.528 20713.843 13690.030 18803.735 12059.626 13542.359 6063.375 7631.735 4488.794 13386.905 14159.477 20621.632 1348.798 13022.504 7169.578 6736.584 0.000 4072.965 2625.792 5116.408 8937.652 21346.415 46107.458 19559.498 12656.906 17169.909 4032.569 55890.712 4724.244 9595.360 10152.663 13112.501 11732.885 17728.660 20078.638 2229.857 36185.532 16959.244 8612.563 4457.812 38695.911
9902.571 22903.765 8280.007 5195.462 17028.267 6195.615 5364.896 1985.515 8586.778 2852.851 4747.991 3588.658 18668.447 2909.432 3275.607 23126.321 16283.925 13197.395 20555.939 15407.544 9284.530 3518.972 10160.527 10771.708 11300.684 41667.587 3037.560 19777.141 61333.321 16241.911 56281.797 27080.238 2967.208 2741.832 6263.699 22509.861 56292.904 4606.226 17685.730 10370.279 8132.681 9888.006 26947.356 5507.234 20383.688 9905.491 5327.266 2948.640 5088.329 28265.237 9936.977 6037.249 5066.629 13419.255 10998.095 1912.535 10810.034 7108.985 30387.875 3313.358 59328.106 8525.144 4572.854 3107.421 9279.868 4717.257 22507.623 19278.030 64643.012 4825.904 16448.456 6051.040 18525.906 6882.704 17789.163 6903.682 17387.092 10733.303 9844.036 25365.818 10894.190 6325.329 11187.045 6715.291 24252.532 11656.396 20437.676 15160.631 11157.905 5865.930 8422.351 2450.382 10212.598 10591.655 20620.090 2802.384 16019.859 9120.617 6829.481 4072.965 0.000 5479.063 6505.546 5007.303 22388.235 46536.548 18410.097 14204.348 19325.565 2062.423 58276.336 3689.335 6285.793 9541.867 13503.402 14875.508 19749.368 20880.367 3083.229 36912.033 13698.168 6930.795 4685.322 36783.907
7352.281 18532.641 3719.167 5076.676 16519.934 3784.864 3260.333 4388.474 4341.845 3266.732 5553.732 6580.836 15457.266 3304.807 7095.987 26362.880 13553.637 7789.319 18140.652 10153.118 13447.240 2107.639 13540.171 13879.845 7905.788 36215.730 7944.862 14376.857 57007.214 19343.990 52058.129 24593.089 4046.088 3444.439 2533.007 17062.996 51676.374 4519.614 13741.443 5645.803 12968.673 5090.553 24418.534 1517.288 17596.667 4731.448 1401.576 3076.484 3903.458 27604.189 13869.656 7586.795 3190.539 12523.683 10941.213 4620.668 5687.290 5790.706 31774.965 2263.441 55021.648 9239.113 4786.758 2444.302 3803.686 4579.599 27763.148 18896.111 60413.133 9761.841 13669.915 8367.783 20579.498 10089.809 15148.875 8640.362 13867.661 9184.172 4960.386 21626.875 14023.794 8006.034 11934.412 12046.753 18773.472 12391.200 16177.980 9764.353 15954.383 4403.542 5274.398 4575.829 12950.487 14092.855 18243.333 3559.022 10673.410 4548.431 4790.790 2625.792 5479.063 0.000 2752.723 9596.647 18751.219 43567.343 17629.168 10038.294 14578.591 6221.921 53376.712 4049.010 9498.390 8244.914 10704.836 9461.992 15121.958 17519.740 2429.269 33608.721 16491.218 7438.544 3031.674 37007.878
4600.208 20161.199 1839.067 3463.960 13853.144 1415.988 1555.546 4737.713 2084.086 3663.523 4239.903 6010.766 12885.824 5385.669 6800.653 24691.047 10867.142 7269.445 15433.312 9122.517 12618.006 3224.007 12257.048 12442.089 10324.401 36181.892 8111.234 14751.492 54975.002 17720.550 49965.958 21912.869 3903.401 5467.210 5241.807 17194.731 49832.463 3235.043 11428.728 3890.896 12653.605 3448.383 21744.036 4269.337 14942.580 3771.822 4151.354 3557.067 2326.644 24879.032 12877.015 6052.429 1766.534 9845.807 8473.330 4926.700 4541.742 8541.163 29385.537 4168.447 52977.229 7123.816 3520.709 3634.358 4209.811 3224.648 28981.588 16229.417 58328.067 9743.908 10992.030 7051.843 23181.242 8978.711 12458.377 7015.061 11378.885 6474.844 3450.259 19263.496 12589.565 6454.763 9655.544 12316.159 18539.542 10088.971 14053.032 9124.156 17595.723 2321.961 2536.265 4585.946 11386.161 12845.829 15531.910 5629.262 9853.886 2636.150 2273.190 5116.408 6505.546 2752.723 0.000 9338.341 16336.077 41006.115 14921.749 7814.020 12821.255 7896.810 51771.266 3424.676 8458.629 5603.952 8005.460 8897.152 13258.262 15003.803 3731.090 31123.191 14801.879 5466.813 2010.231 34364.558
10733.662 27773.117 11134.959 6261.008 14906.299 8312.054 7797.626 5220.616 11124.502 6332.696 5394.177 3341.181 18939.698 7831.825 2558.253 18246.891 16276.504 16603.461 19914.566 18373.285 4291.940 7501.877 5508.130 6260.879 16275.384 45497.646 1983.468 23862.952 62069.660 11496.860 56906.847 26207.628 5643.167 7677.593 11030.386 26434.741 57488.484 6188.564 18797.219 13021.894 3377.514 12678.145 26120.231 10115.152 20116.291 13109.375 9915.069 6521.457 7091.818 25713.495 4997.410 4772.235 7571.808 12061.186 9314.358 4989.043 13860.209 12103.854 26312.881 7869.778 60048.263 6818.276 5934.284 7225.883 13130.957 6233.289 20966.176 16877.716 65227.907 888.232 16471.898 3861.883 21679.894 3040.212 17561.296 4856.693 18068.748 10482.392 12727.267 25867.778 6358.005 4704.938 8706.097 3424.314 27872.664 9097.388 21753.324 18459.214 11635.444 7502.609 10153.524 5038.372 6058.734 5834.522 19937.683 7765.159 19158.303 11822.122 8345.510 8937.652 5007.303 9596.647 9338.341 0.000 22896.933 45767.159 16416.220 15838.848 21318.096 6445.577 59935.830 5942.124 2738.250 9383.469 13882.165 18235.442 21561.036 21168.503 7285.387 36636.608 9209.358 6181.384 7364.454 33385.414
12530.182 27778.472 15034.140 17386.846 12160.377 16235.335 17091.024 20409.613 14423.792 19638.936 18089.272 20147.124 3989.497 21721.305 21081.984 28642.367 6715.856 14015.227 5481.673 11792.562 23707.007 19523.690 21853.690 21328.368 23755.544 31544.177 22745.244 18372.082 39182.968 23740.093 34044.390 7883.253 19427.050 21802.879 20719.565 18380.860 34690.670 17860.647 5079.770 13279.314 25235.493 13838.487 7622.302 20095.155 4101.752 14657.680 20057.417 19601.142 17299.961 16070.964 23330.826 18127.313 17384.923 11854.729 14308.685 20514.405 13828.887 24163.961 26066.479 20504.283 37163.510 16327.408 17963.846 19912.346 16651.632 17758.154 43862.530 12837.782 42386.416 23678.278 6510.213 19070.728 39271.284 20568.508 5807.871 18151.783 5001.732 12419.267 14032.883 2990.430 21429.100 18201.941 15778.754 26319.629 17134.055 15695.961 3905.421 13214.047 33476.903 16530.457 14024.334 20007.095 20204.538 22358.555 5626.054 21965.338 12406.736 14226.223 15560.952 21346.415 22388.235 18751.219 16336.077 22896.933 0.000 24981.893 11338.743 8781.820 6969.930 24092.215 37545.514 18713.883 20489.339 13518.735 9052.686 13517.504 6121.583 1892.765 20023.822 14887.620 21492.211 16721.493 17781.618 26321.890
36736.262 50791.032 39882.773 41346.290 31254.572 40655.886 41512.042 44565.703 39227.538 43986.893 41885.999 43695.735 28122.139 46346.881 44557.930 42961.026 30286.217 38803.426 26014.346 36348.846 45054.438 44081.218 42792.042 42006.845 48656.914 44056.192 46186.637 41342.432 22356.462 41622.061 17660.834 19570.228 43600.001 46406.737 45650.266 40195.253 22818.354 41933.197 30059.232 38227.758 47188.301 38781.733 19671.448 44968.406 26170.142 39634.618 44914.567 43985.061 41555.821 23384.082 44384.274 41300.982 41790.165 33709.730 36452.834 44624.047 38810.774 49107.256 33221.712 45137.457 20674.028 38977.164 41965.929 44437.560 41633.455 41821.257 66081.524 29865.610 23934.214 46639.209 30133.237 41979.301 64146.208 42915.960 28753.511 40950.150 29711.112 35846.755 38984.865 22364.450 42047.273 41229.886 37237.841 49003.652 37882.558 36924.032 28302.603 37696.005 57191.986 40749.247 38546.365 44087.069 41215.444 43100.962 25963.872 46578.591 36746.560 39109.221 39832.545 46107.458 46536.548 43567.343 41006.115 45767.159 24981.893 0.000 29729.907 33740.538 31004.269 48422.677 28555.839 42874.220 43064.015 37043.750 33125.698 38039.336 30170.960 26054.212 44561.922 10244.890 40707.873 40014.929 42187.415 25943.138
10488.017 33098.653 14869.672 13510.209 1532.552 13887.752 14581.673 16644.268 14138.503 16508.500 13722.951 15022.945 8431.689 19293.681 15738.090 17327.456 6915.327 17797.981 5976.757 17099.740 15324.685 17109.515 13066.703 12295.518 25081.828 42083.323 17223.821 24954.351 47925.538 13025.477 42652.093 10564.327 15821.488 19281.931 20152.958 26125.085 44408.438 14200.902 11131.234 14482.083 17492.537 14808.860 10558.167 19134.692 7237.981 15996.384 18991.417 16586.705 14237.604 10000.852 14660.311 12483.385 14771.529 5139.547 7424.296 16616.734 15733.003 23318.103 16149.303 18252.145 45910.688 9973.339 14107.907 17328.393 17881.984 14089.074 36351.632 1734.628 50756.682 17304.281 7026.032 12874.942 36927.800 13429.635 6353.351 11851.403 9479.703 8448.103 15059.866 13477.776 12343.025 12288.289 7710.869 19465.868 25862.975 7334.773 13230.789 18307.500 28046.093 13496.280 12565.638 16088.923 11486.019 13393.819 5868.349 19462.756 18097.498 14520.529 12878.915 19559.498 18410.097 17629.168 14921.749 16416.220 11338.743 29729.907 0.000 11974.334 15260.134 20464.194 47917.941 15166.840 13678.467 9419.259 8318.430 18412.761 14781.592 9573.433 17471.497 21397.506 11354.752 11480.024 15103.262 19564.375
5218.443 21342.937 6326.518 9693.558 11673.371 8042.821 8846.372 12295.233 5783.440 11361.222 10523.062 12668.594 6027.883 13134.263 13602.877 26762.766 5351.023 6150.600 9547.617 5129.161 17858.677 11037.401 16585.857 16361.019 15247.520 31704.705 15186.199 12984.531 47164.980 20461.318 42151.963 15428.250 11342.547 13232.668 11938.604 14322.362 42096.196 9989.273 3717.394 4497.643 18751.356 5057.578 15214.986 11337.104 8521.220 5905.075 11308.861 11287.786 9247.336 20767.709 17764.762 11270.035 9143.874 8589.293 9569.485 12441.769 5134.455 15382.327 28078.901 11928.170 45165.746 10398.098 10167.786 11448.255 7941.731 9906.183 36437.870 13676.877 50514.050 16482.120 5332.800 12372.259 30495.971 14230.991 6684.295 11705.443 4203.574 6577.640 5251.160 11603.032 16495.188 11496.196 11333.692 19180.745 14480.518 11521.057 6243.110 6348.540 25356.626 8584.737 5857.372 11989.819 15147.082 17176.962 9696.269 13385.175 6136.357 5490.155 7632.542 12656.906 14204.348 10038.294 7814.020 15838.848 8781.820 33740.538 11974.334 0.000 5513.192 15707.342 44224.861 10682.778 13944.796 7132.733 3910.418 6479.999 5723.113 7773.621 11544.660 23669.330 17664.012 9938.606 9519.864 31007.919
10729.226 20817.984 11093.809 15117.423 15440.352 13314.396 14059.227 17498.596 10738.800 16476.807 15964.074 18102.446 7068.751 17852.349 19026.715 31475.721 8462.615 8001.525 10771.499 5395.007 23352.152 15962.120 22008.447 21733.930 17861.272 26986.750 20573.547 11405.686 42490.325 25510.140 37609.001 14835.388 16583.377 17975.975 15967.403 11600.345 37099.641 15353.769 4132.977 9011.071 24262.681 9537.330 14577.575 15631.744 9300.451 9896.383 15656.443 16377.042 14554.997 22323.786 23232.590 16782.009 14349.504 13235.591 14748.445 17665.909 8941.086 19213.118 31228.450 16699.556 40517.139 15844.448 15554.068 16386.550 11533.114 15279.127 41748.327 16983.001 45944.146 21937.907 8314.983 17885.351 34300.415 19740.475 8949.536 17212.184 5781.701 11900.270 9636.282 8807.469 21863.758 17009.333 16498.525 24630.871 10771.477 16619.917 3064.509 6698.444 30386.373 13953.840 11223.272 17251.946 20521.646 22591.928 10944.624 18108.086 5743.845 10235.036 13031.783 17169.909 19325.565 14578.591 12821.255 21318.096 6969.930 31004.269 15260.134 5513.192 0.000 20630.973 38951.061 15965.775 19457.951 12582.563 8689.196 7048.507 866.725 7263.544 16462.336 20759.653 22813.339 15451.214 14699.600 32701.083
11707.773 22234.331 9541.503 7150.031 19087.666 7860.427 7002.473 3898.973 9961.699 4463.252 6771.462 5622.760 20451.793 2973.590 5199.859 24692.398 18140.726 13985.994 22482.484 16373.846 10709.289 4684.486 11852.868 12524.605 10477.563 41933.444 4502.921 19993.107 62871.272 17908.752 57856.042 29015.486 4837.125 2812.246 6159.572 22814.949 57703.158 6519.603 19283.634 11619.918 9189.139 11098.441 28876.621 5725.559 22253.727 10918.816 5594.203 4491.948 6872.295 30327.267 11441.878 8096.660 6710.143 15455.003 13056.876 3883.085 11863.398 5945.168 32321.236 3977.549 60872.849 10587.466 6524.543 4265.941 9933.004 6633.542 21563.023 21340.242 66218.476 6025.544 18298.348 8065.983 16466.697 8726.917 19669.986 8946.382 19094.689 12692.593 11015.071 27053.251 12638.840 8378.006 13241.848 7248.395 24742.144 13709.914 21948.773 15961.716 9767.442 7675.925 10068.459 4423.997 12062.525 12235.443 22552.043 2737.996 16888.232 10403.529 8608.198 4032.569 2062.423 6221.921 7896.810 6445.577 24092.215 48422.677 20464.194 15707.342 20630.973 0.000 59531.369 5559.254 8153.807 11509.705 15323.791 15648.925 21112.326 22643.044 4178.859 38725.009 15476.742 8984.262 6312.341 38820.053
49206.647 50093.251 50025.105 53907.913 49103.942 52228.021 52994.431 56442.014 49689.610 55427.848 54722.627 56866.750 41493.704 56680.281 57806.809 64741.818 44216.831 45932.077 42115.405 43330.260 61198.809 54888.811 59394.968 58873.447 54490.215 30913.113 59406.847 43221.780 11759.599 60902.261 12529.886 38250.155 55515.793 56815.283 54379.996 40600.774 6027.804 54213.485 41144.893 47933.727 62573.915 48442.107 38138.396 54256.081 41208.629 48645.327 54314.671 55327.718 53454.273 46627.086 60857.393 55211.924 53287.154 49396.600 51830.518 56604.804 47690.717 57250.071 58006.701 55567.574 11488.358 53703.341 54392.208 55314.424 49954.468 54130.956 80660.590 48975.138 14840.935 60634.056 44008.882 56246.281 71543.970 57905.959 43335.023 55411.253 42001.043 49677.348 48517.844 34796.849 58973.451 55358.415 53324.230 63331.462 37800.195 53237.386 38182.540 44040.646 69298.757 52808.648 50076.905 56177.896 57748.743 59903.415 42187.789 56935.064 43011.046 49171.830 51857.079 55890.712 58276.336 53376.712 51771.266 59935.830 37545.514 28555.839 47917.941 44224.861 38951.061 59531.369 0.000 54880.519 57751.433 50661.668 46182.749 44399.062 38554.803 39421.767 55384.370 28830.242 58891.967 53811.369 53643.193 52768.599
6213.625 22581.568 5253.225 1657.773 13869.738 2653.221 1942.089 1703.837 5351.915 1367.666 1665.990 2666.063 14979.435 4188.692 3389.263 22344.582 12604.467 10668.379 16923.233 12536.627 9487.454 2324.065 9491.214 9839.500 11726.569 39555.551 4703.876 17971.853 57721.255 15324.816 52651.100 23456.487 726.143 4153.125 6170.965 20505.408 52767.726 978.108 14070.669 7240.820 9290.315 6841.635 23317.369 5081.514 16710.727 7182.032 4880.415 1484.959 1439.552 25133.267 9860.416 3660.317 1676.884 10065.961 7903.653 1800.808 7966.293 8586.061 28270.290 3331.147 55712.641 5722.409 1067.232 2357.087 7249.541 1092.620 25786.758 16194.791 61010.168 6320.277 12766.729 4336.991 21851.833 6045.466 14121.048 4720.733 13715.171 7149.941 6862.956 21695.543 9982.693 4070.028 8503.602 8898.668 21934.379 8978.751 16877.672 12543.567 14780.988 2183.427 4832.902 1310.934 8939.199 10045.234 16993.019 4331.005 13278.228 6001.105 3155.159 4724.244 3689.335 4049.010 3424.676 5942.124 18713.883 42874.220 15166.840 10682.778 15965.775 5559.254 54880.519 0.000 5460.278 5979.162 9814.838 12309.959 16326.459 17192.979 2494.537 33224.725 12499.956 3908.638 1425.035 34059.986
8732.405 28023.627 10089.725 5018.554 12170.007 7184.533 6929.424 5565.151 9904.931 6389.532 4219.332 3036.275 16507.454 8660.638 3014.186 17074.764 13806.856 15609.154 17275.852 17061.756 4176.969 7586.749 4083.528 4561.864 16930.960 44482.706 3889.796 23209.805 59607.877 10091.886 54423.675 23515.575 5506.188 8541.300 11428.745 25617.518 55157.077 5253.060 16630.431 11737.722 4837.681 11489.785 23433.478 10387.742 17544.821 12136.564 10182.043 6577.320 6138.606 23034.432 4429.752 2700.964 6787.148 9378.040 6624.153 5373.073 12756.833 13198.997 24174.571 8304.699 57584.566 4208.631 4961.338 7446.587 12583.690 5247.061 23454.616 14162.133 62727.409 3626.009 14007.298 1579.775 24095.997 618.384 15021.501 2344.670 15769.378 8097.262 11588.336 23436.640 4694.793 2448.640 5969.234 5973.243 26814.361 6365.484 19615.760 17343.557 14369.986 6265.167 8605.054 5138.770 3926.838 4610.781 17292.303 8674.303 17928.005 10639.691 6901.594 9595.360 6285.793 9498.390 8458.629 2738.250 20489.339 43064.015 13678.467 13944.796 19457.951 8153.807 57751.433 5460.278 0.000 7090.718 11575.757 17164.153 19619.748 18717.219 7549.504 34004.612 7436.928 4009.514 6718.785 30925.426
2147.155 25149.679 6003.428 4359.681 8275.254 4475.803 5164.796 7610.975 5370.749 7248.381 4842.660 6729.742 9579.506 9958.903 7640.508 20364.628 6971.086 10563.918 11034.273 11179.182 10791.391 7726.356 9453.474 9250.415 15916.353 38585.072 9305.046 18422.170 52699.739 13698.736 47549.485 17545.484 6686.826 9963.938 10777.365 20383.351 48117.130 5003.573 9545.230 6518.025 11921.910 6586.438 17417.143 9737.346 10972.970 7677.876 9587.763 7299.337 4873.503 19417.767 10650.071 4611.301 5363.232 4287.915 3119.308 7640.402 7826.626 13899.091 23910.891 8870.782 50679.487 3266.335 4985.207 7974.854 9170.581 4888.896 30345.436 10651.239 55881.110 10159.544 7157.499 5594.630 27817.474 7275.878 8373.248 4756.146 8699.712 1197.067 6798.800 16495.962 9387.314 4711.472 4690.697 12807.718 21068.545 5025.383 12534.299 11866.045 20236.010 4101.490 3585.202 7098.244 8038.775 10045.636 11092.312 10145.351 12164.881 5975.071 3465.100 10152.663 9541.867 8244.914 5603.952 9383.469 13518.735 37043.750 9419.259 7132.733 12582.563 11509.705 50661.668 5979.162 7090.718 0.000 4504.880 11799.349 12659.870 11816.131 8116.265 27566.496 10804.703 3203.329 5708.053 28770.628
3616.356 24781.318 7275.889 8391.257 7849.574 7532.113 8386.894 11518.364 6540.368 10870.709 9058.339 11096.858 5185.938 13250.085 12030.232 22953.131 2866.310 9479.647 7435.905 8968.225 15111.160 10971.444 13533.792 13176.757 17362.049 35448.508 13694.353 16792.504 48231.507 16829.692 43097.076 13908.922 10539.309 13301.352 13051.419 18225.258 43612.417 8912.022 5164.871 6366.349 16391.354 6779.527 13742.559 12193.636 6971.797 7936.851 12101.336 10863.168 8452.403 17685.928 14871.093 9110.977 8664.467 4704.215 6087.975 11600.481 7533.028 16468.099 24291.984 12051.668 46212.971 7547.723 8987.323 11318.619 9949.808 8804.588 34834.910 9968.027 51438.247 14646.227 3002.277 10097.567 31165.553 11723.934 4453.436 9232.355 4196.060 3498.838 7030.784 12040.248 13299.928 9215.898 7822.361 17306.229 18366.403 7931.607 8147.236 10079.687 24491.026 7652.877 5480.975 11076.416 11976.089 14096.802 7539.864 13475.796 9989.632 6702.943 6716.544 13112.501 13503.402 10704.836 8005.460 13882.165 9052.686 33125.698 8318.430 3910.418 8689.196 15323.791 46182.749 9814.838 11575.757 4504.880 0.000 10155.282 8591.994 7418.905 11445.212 23410.723 14125.107 7701.227 9061.775 27715.634
9664.941 14907.760 7119.198 12174.419 18004.178 10012.747 10441.353 13425.858 7260.783 12263.298 13020.189 14904.291 11989.276 12681.752 15695.327 32159.425 11813.813 1678.116 15755.802 1725.153 21338.383 11363.113 20646.200 20656.180 10901.152 27325.116 16943.806 6707.427 48888.935 25468.282 44148.425 21065.155 12717.632 12838.701 10021.026 8606.795 43128.871 12088.842 8939.553 5488.528 21540.010 5677.972 20826.034 10035.758 14543.678 5128.080 10128.371 12107.157 11173.713 27182.494 21491.898 14554.997 10663.676 14564.624 14803.662 13640.664 4410.438 12877.874 34447.208 11724.448 46949.676 14717.740 12362.680 11768.892 5723.587 12061.110 37211.226 20095.900 52427.647 18626.878 11781.119 15649.783 27669.797 17624.255 13057.284 15348.114 10158.991 11784.705 5576.406 15748.898 20801.758 14908.299 16474.698 21152.841 9660.282 16776.470 9808.768 373.785 25273.482 10910.292 8739.075 13387.455 19491.524 21250.645 15915.981 12925.578 1434.475 6524.649 10286.622 11732.885 14875.508 9461.992 8897.152 18235.442 13517.504 38039.336 18412.761 6479.999 7048.507 15648.925 44399.062 12309.959 17164.153 11799.349 10155.282 0.000 7870.110 13182.981 11793.540 27796.883 22550.513 13561.149 10885.333 37463.852
10891.160 21677.358 11572.168 15406.343 15036.593 13673.584 14441.540 17891.988 11174.732 16896.710 16241.538 18386.060 6474.221 18374.028 19317.808 31206.285 8085.442 8761.376 10096.821 6195.581 23450.293 16432.032 22035.622 21728.152 18639.393 27355.917 20888.589 12250.519 41897.108 25353.426 36985.042 13996.173 16961.552 18492.751 16596.408 12372.407 36591.607 15676.846 3736.512 9508.817 24442.785 10048.602 13737.243 16220.737 8607.349 10482.798 16237.216 16804.538 14902.851 21602.092 23297.909 16963.891 14735.097 13027.111 14678.671 18052.128 9535.141 19879.347 30664.347 17206.586 39917.224 15905.281 15865.901 16854.461 12187.084 15597.777 42111.295 16493.546 45329.219 22204.623 7924.568 18055.594 34993.056 19878.142 8437.439 17345.094 5346.443 11909.861 10163.681 7946.460 21855.083 17173.299 16413.524 24902.803 11431.543 16510.715 2220.107 7525.117 30849.759 14272.542 11537.409 17623.093 20519.577 22612.413 10269.770 18629.483 6587.232 10709.395 13333.201 17728.660 19749.368 15121.958 13258.262 21561.036 6121.583 30170.960 14781.592 5723.113 866.725 21112.326 38554.803 16326.459 19619.748 12659.870 8591.994 7870.110 0.000 6496.903 16935.501 19927.541 22699.666 15610.508 15094.760 31971.264
10980.837 27800.465 13828.733 15806.122 10325.190 14787.161 15647.145 18895.631 13178.073 18179.980 16476.535 18499.506 2239.129 20379.444 19427.257 26832.525 4911.249 13458.907 3912.813 11481.383 21864.418 18144.842 19987.453 19452.446 22984.279 32920.466 21093.334 18558.886 40903.201 21856.460 35739.266 7882.564 17913.231 20450.982 19605.926 18861.640 36512.120 16311.212 4294.657 12211.945 23434.656 12758.468 7645.062 18914.233 2418.486 13671.493 18861.309 18154.398 15800.061 15136.631 21473.861 16409.073 15936.472 9974.844 12460.667 18988.381 12905.817 23066.671 24682.317 19163.356 38881.199 14535.165 16397.062 18520.789 15715.214 16205.646 42131.450 11127.533 44066.343 21964.204 4710.007 17325.320 38094.762 18776.432 3918.614 16387.953 3657.096 10687.845 12970.307 4724.901 19551.864 16465.156 13906.454 24586.003 17872.391 13815.797 4378.473 12913.314 31908.072 15014.674 12607.512 18470.946 18335.079 20487.517 4075.059 20618.178 12216.453 13057.243 14056.007 20078.638 20880.367 17519.740 15003.803 21168.503 1892.765 26054.212 9573.433 7773.621 7263.544 22643.044 39421.767 17192.979 18717.219 11816.131 7418.905 13182.981 6496.903 0.000 18638.054 16120.638 19599.563 15010.049 16335.165 25489.739
7858.243 20574.061 5368.697 4048.329 16223.046 3917.921 3075.526 2081.589 5784.685 1197.103 4158.000 4522.594 16480.892 1847.871 4869.750 24602.472 14303.261 10115.495 18776.295 12358.780 11294.851 507.326 11633.032 12069.688 9393.113 38644.661 5552.430 16800.249 58701.983 17595.291 53696.570 25303.727 2108.062 1871.601 3881.387 19492.265 53525.303 3357.439 15152.329 7454.239 10634.924 6942.325 25148.993 2869.405 18416.541 6859.698 2664.554 1032.252 3243.954 27464.947 11790.503 6112.656 2818.169 12338.136 10322.789 2308.531 7781.988 6092.534 30763.271 836.657 56705.186 8211.751 3527.615 143.566 6210.307 3459.758 25524.525 18569.582 62058.582 7385.279 14446.334 6661.800 19790.934 8162.740 15870.690 7163.868 15043.384 9224.418 6872.520 22966.286 12208.462 6511.527 10992.019 9621.040 21185.856 11466.404 17781.709 12080.744 13924.259 4021.579 6032.457 2416.948 11253.483 12153.486 18860.503 2050.894 12949.299 6229.088 4817.219 2229.857 3083.229 2429.269 3731.090 7285.387 20023.822 44561.922 17471.497 11544.660 16462.336 4178.859 55384.370 2494.537 7549.504 8116.265 11445.212 11793.540 16935.501 18638.054 0.000 34754.109 14828.019 6390.249 2437.217 36508.602
27021.948 40704.216 29899.135 31765.175 22847.588 30885.507 31745.738 34927.751 29269.718 34263.948 32371.275 34291.114 18278.964 36500.079 35188.774 36801.275 20643.895 28581.562 16728.764 26109.508 36460.241 34262.572 34293.661 33578.258 38449.538 36391.065 36845.107 31209.973 26756.321 34138.510 21480.148 10834.946 33949.616 36571.276 35607.105 30209.427 24248.065 32312.702 19961.272 28166.904 38411.665 28726.087 10840.950 34972.542 16594.227 29532.863 34930.166 34246.231 31859.213 17893.711 35880.347 32005.695 32032.033 24651.536 27399.194 35005.778 28686.211 39050.972 29189.281 35283.979 24768.444 29821.969 32373.294 34635.521 31504.139 32203.672 57367.419 21950.273 29422.432 37484.392 20472.944 32786.593 54154.792 33933.890 19193.277 31780.069 19751.213 26380.422 28920.198 12167.014 33640.192 31984.650 28420.668 39977.498 28025.804 28169.177 18081.811 27452.644 47802.296 31062.481 28721.768 34477.845 32654.673 34677.005 16713.893 36738.688 26501.700 29102.038 30118.514 36185.532 36912.033 33608.721 31123.191 36636.608 14887.620 10244.890 21397.506 23669.330 20759.653 38725.009 28830.242 33224.725 34004.612 27566.496 23410.723 27796.883 19927.541 16120.638 34754.109 0.000 32735.893 30660.182 32430.935 24378.333
12950.483 34920.370 16040.451 11487.000 9966.135 13389.174 13470.169 12942.216 15607.868 13635.603 10937.551 10416.127 17716.663 16074.146 10443.746 9896.474 15129.115 21215.506 16815.627 21983.869 5676.519 14783.751 3715.783 2958.413 24207.127 49332.954 11009.699 29077.067 59271.986 2936.363 54000.909 21901.811 12725.470 15961.008 18656.641 31154.533 55613.211 11980.599 19114.923 17129.894 8143.344 17075.054 21904.945 17576.725 17685.996 18010.414 17374.044 13812.628 12705.190 18500.315 4780.853 8908.024 13429.478 9818.520 8098.983 12764.883 18373.517 20626.761 17182.280 15623.465 57255.475 7876.513 11707.177 14711.445 18994.331 11929.554 25746.143 10878.272 62111.144 9900.147 15331.600 8175.936 30721.223 6826.811 15698.950 7864.531 17759.901 11105.594 17246.953 24113.080 2853.446 8488.443 6334.898 10797.569 31868.882 6193.527 21971.933 22638.545 19636.274 12485.361 13910.840 12470.561 3574.723 3518.949 16757.241 16098.818 22968.203 16321.004 12703.875 16959.244 13698.168 16491.218 14801.879 9209.358 21492.211 40707.873 11354.752 17664.012 22813.339 15476.742 58891.967 12499.956 7436.928 10804.703 14125.107 22550.513 22699.666 19599.563 14828.019 32735.893 0.000 9344.388 13495.210 24777.582
4723.390 25621.822 6737.731 2399.225 10111.393 4051.148 4232.172 5201.544 6377.374 5272.307 2300.621 3688.633 12775.815 8087.534 4544.720 19226.699 10140.832 12099.244 14016.257 13283.105 7988.994 6153.989 7085.130 7127.626 15338.040 40783.479 6188.889 19891.497 55901.143 12271.076 50747.590 20459.570 4467.254 8042.062 9839.678 22132.425 51311.285 3055.202 12668.619 8072.989 8836.817 7919.375 20347.936 8736.103 14075.339 8752.041 8548.458 5393.413 3535.218 21368.332 8010.726 1409.823 4254.159 6520.268 4083.335 5154.658 9221.683 12479.515 24424.795 7223.799 53880.606 1830.993 2863.088 6249.756 9650.118 2964.271 27142.116 12392.062 59076.382 6957.309 10331.851 2449.852 25449.471 4302.709 11489.282 1820.094 11890.724 4327.668 8061.037 19697.167 7274.671 1563.546 4604.232 9605.676 23137.591 5077.536 15644.677 13702.719 17183.464 3168.839 4831.494 4638.882 6004.263 7689.726 14058.476 8217.048 14195.536 7111.275 3383.186 8612.563 6930.795 7438.544 5466.813 6181.384 16721.493 40014.929 11480.024 9938.606 15451.214 8984.262 53811.369 3908.638 4009.514 3203.329 7701.227 13561.149 15610.508 15010.049 6390.249 30660.182 9344.388 0.000 4419.658 30161.769
5454.705 21453.116 3847.173 2045.019 13892.571 1548.404 690.666 2799.150 4001.200 1861.332 2581.951 4065.772 14152.430 4283.980 4813.797 23381.916 11908.280 9243.395 16353.636 11132.190 10818.017 2020.473 10670.395 10950.462 10919.501 38134.336 6101.148 16584.025 56653.588 16368.851 51610.138 22885.063 1907.512 4307.587 5428.428 19096.026 51612.494 1520.829 13014.603 5868.906 10705.178 5448.661 22733.195 4327.202 16025.326 5757.633 4144.617 1820.438 910.557 25103.621 11145.805 4589.009 398.910 9963.845 8099.473 2968.661 6549.882 8267.133 28813.989 3163.975 54649.553 6235.078 1804.711 2300.512 5884.498 1565.908 27055.617 16253.893 59972.110 7743.030 12056.625 5447.014 22225.719 7278.723 13465.746 5631.945 12782.882 6797.004 5458.774 20746.418 11096.194 5008.353 8965.447 10306.075 20509.945 9429.538 15752.430 11120.234 15842.029 1608.106 3762.926 2589.384 9977.342 11241.357 16435.635 4487.467 11862.040 4619.477 2384.022 4457.812 4685.322 3031.674 2010.231 7364.454 17781.618 42187.415 15103.262 9519.864 14699.600 6312.341 53643.193 1425.035 6718.785 5708.053 9061.775 10885.333 15094.760 16335.165 2437.217 32430.935 13495.210 4419.658 0.000 34277.200
30034.962 52350.780 34425.095 32460.300 20515.952 33224.806 33836.417 35299.969 33697.422 35427.387 32457.480 33199.076 25823.643 38247.031 33673.121 21403.950 25657.494 37087.387 21995.119 35963.830 30437.061 36213.751 28289.818 27420.525 44615.578 57195.667 34814.034 43650.920 48229.830 23862.020 43327.637 19173.630 34626.845 38203.734 39540.650 44277.919 47625.241 33152.435 29010.080 34009.524 32912.517 34356.589 19432.451 38485.026 23418.850 35542.153 38326.586 35539.539 33375.118 10383.707 29547.517 30783.878 33987.118 24524.831 26192.076 35216.754 35231.252 42541.094 9319.343 37329.334 46469.588 28388.408 32998.670 36365.741 37445.446 33049.076 49311.973 18143.236 49867.248 34205.674 25683.965 30758.725 55020.559 30448.236 24432.803 29880.406 27511.842 27916.331 34608.431 26382.313 27367.834 30468.991 25636.914 35521.749 43358.043 25161.723 29863.993 37297.756 44405.851 32704.912 32091.034 34736.527 27352.858 28236.422 21823.723 38378.817 36889.611 34084.656 32217.181 38695.911 36783.907 37007.878 34364.558 33385.414 26321.890 25943.138 19564.375 31007.919 32701.083 38820.053 52768.599 34059.986 30925.426 28770.628 27715.634 37463.852 31971.264 25489.739 36508.602 24378.333 24777.582 30161.769 34277.200 0.000
NODE_COORD_SECTION
1 -541.122733 9747.803579
2 -20049.113149 -2943.444128
3 -4814.836055 8730.421579
4 -3473.829482 13625.623071
5 8672.913327 12291.332436
6 -4052.649140 11535.940931
7 -4727.919253 12068.963694
8 -6367.383513 15108.394814
9 -4070.648265 8723.073217
10 -6461.315543 13940.899615
11 -3510.669427 14494.150292
12 -4255.069612 16506.813120
13 5918.314747 3821.904597
14 -9282.246228 13908.275794
15 -4694.962458 17341.896276
16 11891.119800 28494.567460
17 4963.718687 6379.326145
18 -6098.522417 3355.227005
19 9450.879612 5325.250984
20 -4168.768125 1473.787528
21 -724.653698 22397.600460
22 -7193.062042 12978.390181
23 1189.653704 21089.410538
24 2014.528967 20779.384939
25 -14988.009495 7681.531283
26 -11331.098646 -25084.523309
27 -5746.322491 18634.658166
28 -10512.667533 -3159.320242
29 28877.548208 -32689.294095
30 6581.173771 23902.841198
31 27022.378400 -27745.117763
32 15179.384542 2178.235534
33 -5678.361023 14407.412515
34 -9245.906810 14081.049274
35 -10310.800420 10679.719900
36 -9760.067781 -5991.269234
37 21632.548760 -31522.340764
38 -4169.033490 13658.511089
39 3024.222576 2483.764896
40 -3944.468699 6827.245291
41 -3113.720456 23053.003512
42 -4391.560042 7170.749665
43 14942.793643 2050.515883
44 -9301.069931 11126.088593
45 8448.074599 4185.521112
46 -5522.491171 6806.973857
47 -9158.489361 11274.509217
48 -6565.923067 13779.100082
49 -4328.892698 12756.890031
50 19808.458418 10578.658710
51 169.353233 22314.311271
52 -1853.629175 15678.343693
53 -4903.319208 12310.222987
54 4709.075404 11691.217074
55 2804.005661 13680.290481
56 -6286.160338 15326.001209
57 -4987.940381 6010.632814
58 -13471.310595 12093.967738
59 22060.862456 21838.597084
60 -8323.314576 13158.446308
61 27897.450046 -30917.608840
62 548.073810 14931.090022
63 -4028.651755 13914.630516
64 -7370.700246 13365.500512
65 -7565.905161 7161.084066
66 -4062.985385 13614.816309
67 -15101.498414 37741.928269
68 11036.757023 12538.669680
69 32325.582654 -34210.995020
70 -4943.733260 20294.706047
71 5013.538653 6177.185203
72 -1802.957751 16800.724952
73 -25832.667258 20862.047160
74 -1351.430575 18723.853185
75 6483.287477 5891.172530
76 -942.656184 16223.615282
77 4064.521426 3767.130596
78 1391.045055 10965.489549
79 -4640.548017 7128.265220
80 9385.368798 -2180.558005
81 2092.912236 20904.488599
82 -1536.261721 15952.800151
83 3293.556056 15375.638448
84 -5832.844294 22844.169263
85 -7600.366484 -7814.505600
86 3768.527632 15415.559914
87 3696.100641 -431.700051
88 -5600.914159 1442.893843
89 -14343.304232 25505.741948
90 -3620.452495 12365.099445
91 -2645.241501 9809.683204
92 -5803.516165 15078.616779
93 1875.999325 19573.263973
94 1366.452328 21668.286758
95 9591.379428 5426.409424
96 -9422.654617 14122.035907
97 -4843.030933 700.364068
98 -4316.000057 8025.771318
99 -3042.747115 11578.937256
100 -9668.509056 12795.833555
101 -7843.045053 16436.812397
102 -7793.123794 10957.977151
103 -5070.558579 10551.623064
104 -4176.544828 19847.071028
105 7552.898787 182.643787
106 30195.781969 -10371.730501
107 9832.921474 11289.785106
108 -65.300146 4551.099019
109 669.605739 -912.891874
110 -9868.908480 16823.420186
111 17592.353125 -35995.733753
112 -5094.105256 13976.218029
113 -1864.918930 18379.283983
114 421.227947 11667.219373
115 2373.882118 7607.528546
116 -5880.143619 1691.380911
117 1535.789929 -943.492343
118 7297.735281 2058.130284
119 -7514.154077 13371.175213
120 20420.798465 -7304.572053
121 4881.759060 21508.218827
122 -1211.135979 14423.431664
123 -5217.126579 12556.503589
124 28929.940111 15540.507321
DEMAND_SECTION
1 0
2 25
3 54
4 22
5 95
6 22
7 35
8 3
9 75
10 32
11 40
12 95
13 18
14 9
15 48
16 39
17 33
18 66
19 76
20 46
21 97
22 18
23 93
24 64
25 31
26 29
27 59
28 9
29 12
30 62
31 82
32 80
33 74
34 71
35 7
36 81
37 57
38 14
39 26
40 79
41 30
42 54
43 59
44 25
45 43
46 33
47 60
48 74
49 13
50 34
51 51
52 17
53 15
54 97
55 21
56 51
57 30
58 82
59 77
60 11
61 69
62 46
63 24
64 84
65 23
66 76
67 20
68 3
69 24
70 81
71 21
72 38
73 48
74 56
75 83
76 56
77 15
78 19
79 87
80 40
81 90
82 43
83 8
84 94
85 13
86 50
87 65
88 19
89 73
90 53
91 87
92 89
93 84
94 7
95 88
96 6
97 66
98 53
99 99
100 52
101 16
102 53
103 38
104 41
105 20
106 51
107 12
108 15
109 32
110 84
111 30
112 11
113 9
114 46
115 48
116 41
117 50
118 65
119 58
120 42
121 81
122 45
123 67
124 10
DEPOT_SECTION
1
-1
EOF
