NAME : mamut-sydney-n118-k9-poi
COMMENT : Mamut2026 euclidean metric; city sydney; No of trucks: 9 (lower bound, fleet not fixed); 3-decimal seconds/meters; ENU ref in mamut-sydney-n118-k9-poi.vrp.json
TYPE : CVRP
DIMENSION : 119
EDGE_WEIGHT_TYPE : EXPLICIT
EDGE_WEIGHT_FORMAT : FULL_MATRIX
CAPACITY : 187
EDGE_WEIGHT_SECTION
0.000 22748.782 21017.057 2606.697 22100.955 60295.931 63584.786 21192.625 27702.709 21286.411 28867.185 23015.376 15251.864 42192.175 16641.984 14657.984 21067.004 10829.441 52758.659 19796.018 18478.647 18324.189 9301.670 22314.095 22789.391 41154.674 21259.134 22239.901 28504.152 18703.234 22048.356 27406.992 21344.658 23912.526 22766.017 5432.181 50686.899 28561.991 27767.925 20342.895 23401.366 15279.749 22574.519 18204.128 28072.472 17577.630 19897.453 14659.660 12298.156 20643.982 14590.398 18316.818 22332.621 15641.930 33491.179 20693.130 2167.718 4131.896 4666.198 34808.653 45726.463 22458.039 17104.176 21824.268 20004.205 19851.935 27756.552 20854.161 15467.715 14043.019 17794.295 20548.687 27086.789 14484.190 21171.103 13334.291 16062.238 17242.989 18522.338 19047.438 29797.677 21115.350 16480.660 13405.496 29612.564 25772.351 23309.267 22778.928 14210.211 27911.006 17554.320 13687.883 24352.623 22215.506 18340.434 20415.822 55347.137 18709.083 23160.609 18354.924 6681.769 29165.800 22725.172 21617.141 19102.250 27109.016 20777.576 18914.955 27043.348 19367.174 21578.679 8034.385 22625.089 51531.222 20691.723 20063.934 29264.143 8087.117 21953.930
22748.782 0.000 1738.873 21413.338 36027.899 55372.887 86326.332 1814.511 50424.253 1466.395 20189.784 284.507 7497.515 62568.671 35287.866 9343.957 4058.362 18855.318 75507.413 4763.506 4278.312 17355.523 13552.517 1375.890 4196.518 63793.962 5178.346 2062.405 5806.023 4121.058 36049.763 5113.575 1404.306 2192.876 391.767 24809.331 73435.464 47533.200 6245.961 3996.128 1618.693 19574.485 39610.496 17349.981 5360.930 11396.169 2961.897 32316.788 11142.651 43323.554 12064.433 41057.605 1507.773 10911.209 49355.255 3852.307 21014.883 22966.209 25658.500 57550.129 54704.656 12131.052 15875.409 2259.107 29299.081 12203.354 50476.651 1898.552 9325.670 32076.012 39312.007 43255.371 21479.875 22912.416 2562.305 32917.954 6726.670 21761.904 7811.184 10566.147 21442.037 2914.266 6269.011 19809.766 12298.185 5280.878 4100.939 436.800 9045.760 9719.535 14534.960 14066.979 22819.247 1255.802 9147.077 3459.283 50511.662 9055.328 18898.060 17399.510 20807.638 14213.424 4826.071 6768.801 8992.059 21212.606 3744.962 15544.713 21190.575 9199.080 3043.593 27385.431 419.521 48289.690 3897.623 42804.249 14289.322 14718.678 1808.117
21017.057 1738.873 0.000 19708.013 34548.178 55586.852 84591.268 765.368 48699.082 273.600 19939.319 1999.310 5765.319 61014.665 33631.370 7714.392 3399.440 17271.253 73775.099 3656.370 2540.887 16226.675 11841.271 1699.908 4262.382 62079.642 4621.972 2147.604 7507.953 2393.390 34567.040 6758.143 352.761 3320.339 1762.571 23084.994 71703.927 46034.338 7720.919 3285.313 2698.699 18205.839 38028.038 16211.637 7068.588 10223.162 1281.419 30801.827 9433.080 41602.650 10592.641 39323.111 1805.762 9497.809 47862.658 3297.272 19296.358 21294.359 23972.284 55821.487 53609.204 11895.126 14911.097 1997.503 28163.824 11313.184 48751.694 313.770 7793.811 30421.294 37657.053 41531.569 20962.860 21457.416 1795.443 31326.296 5025.098 20699.675 6919.635 9577.164 21201.754 2170.483 4542.507 18339.286 12909.793 6210.425 4391.606 1781.132 7340.019 10627.244 13625.554 12771.150 21990.919 1521.394 8286.440 2672.504 50688.436 8258.791 18142.327 16272.320 19109.525 14806.877 5090.344 6291.346 8266.715 20713.617 3219.626 14499.066 20686.501 8247.302 2608.681 25759.404 1624.148 48318.887 3347.692 41075.520 14889.533 12980.997 1689.844
2606.697 21413.338 19708.013 0.000 24607.974 57733.455 65128.196 19965.280 29089.907 19970.469 29450.349 21688.589 13987.668 42321.539 19245.882 14028.698 20147.868 12042.919 54251.551 18905.015 17200.821 19158.756 7869.691 21116.686 21898.068 42388.928 20481.968 21116.981 27214.404 17483.105 24558.613 25864.001 20019.316 22758.471 21470.303 7956.061 52166.514 28187.051 26089.827 18692.416 22212.949 16527.002 25180.013 19041.979 26772.390 17577.231 18667.336 13612.943 11648.204 21958.252 14575.896 19959.204 21150.239 15480.781 36096.168 19036.940 975.180 2345.596 4401.829 36250.539 48136.050 20129.959 14566.014 20712.676 17793.233 19964.078 29139.926 19516.441 14969.119 16643.730 18214.327 21917.095 27937.504 16233.657 20062.422 12838.371 14687.131 14665.386 16543.245 18945.035 30450.526 20051.104 15177.924 14748.176 29227.118 24851.557 22395.188 21487.672 13357.083 25891.916 15074.775 11289.408 25530.311 21001.174 16236.062 18828.450 52778.358 16602.517 23964.681 19194.329 8334.894 26887.825 20933.185 21031.585 16991.809 27928.769 19128.740 19489.236 27865.133 19080.483 20552.266 7145.272 21331.215 48991.211 19030.439 21537.191 26985.343 7229.478 20793.784
22100.955 36027.899 34548.178 24607.974 0.000 82294.213 60303.342 34224.528 31278.519 34790.723 27170.348 36185.671 30225.777 52667.624 8523.417 26980.182 32389.510 17525.912 50896.620 31362.767 32512.223 19980.768 27187.038 34895.533 33444.270 43244.497 31700.137 34408.625 40379.256 32374.239 118.068 41085.723 34887.590 35857.256 35810.781 16669.470 49174.761 43478.557 42253.316 35886.565 35670.310 16652.279 5834.040 19924.725 40089.447 25075.664 33285.372 34108.353 25960.610 27383.244 23966.473 23627.201 34822.572 25125.522 13334.795 36199.170 23848.571 26118.506 25298.623 36075.313 23877.823 41600.655 37982.888 34035.718 41828.811 25454.910 31350.028 34583.461 26756.955 8933.286 31045.933 26918.084 23781.213 13125.892 33541.300 31465.010 31282.154 39227.161 36119.582 26383.773 27204.371 33249.778 31232.046 16218.157 35118.415 35834.423 33957.467 35794.874 27763.453 44579.198 38004.824 33986.573 19390.558 34918.668 36614.475 35604.509 77321.919 36945.146 22058.989 19954.520 17712.396 47506.154 38638.404 30800.720 37307.419 24062.361 36227.201 21992.519 24005.645 27652.506 33367.384 28416.251 35691.107 73591.837 36225.745 25835.044 47604.350 24992.038 34410.654
60295.931 55372.887 55586.852 57733.455 82294.213 0.000 104509.881 56327.172 74305.994 55527.239 75515.916 55467.961 56107.580 67800.756 76592.825 59875.313 58985.538 66689.350 94608.455 58998.892 55862.289 70085.198 56226.617 56676.441 59561.902 82007.268 60208.474 57361.667 56405.594 56313.678 82250.314 53157.887 55441.499 57265.181 55764.043 65688.212 92720.611 56617.148 51389.549 52487.789 56865.297 70131.367 82689.815 70023.064 56216.919 64567.896 56253.674 52378.044 59392.889 69165.514 63234.391 70186.110 56818.904 62821.090 93567.526 52375.041 58457.543 56462.533 57919.741 79899.665 105384.211 44000.995 44968.339 57418.531 41992.168 66379.438 74304.621 55327.597 60802.959 74274.212 61304.334 69535.404 76433.448 71827.500 57375.575 55558.546 55303.289 43074.868 49911.328 64537.599 76775.843 57755.805 55765.768 69144.020 66864.879 59969.071 59464.778 55808.297 58552.196 46430.723 45350.534 49095.683 76757.777 56509.978 48803.690 53069.149 5011.939 48608.259 73239.366 70134.745 64917.294 41479.434 50592.655 61877.996 48385.342 76205.566 52432.385 68884.455 76173.332 63386.319 58145.214 55554.374 55775.316 9050.414 52326.126 70053.911 41421.818 58324.070 56990.385
63584.786 86326.332 84591.268 65128.196 60303.342 104509.881 0.000 84736.341 36104.759 84861.804 86234.778 86590.548 78829.343 37283.182 54869.051 77757.172 84341.090 70051.273 10942.939 83061.753 82050.633 76615.278 72856.009 85835.900 85990.815 23731.708 84325.572 85709.495 92054.170 82255.138 60196.209 90962.692 84922.052 87393.935 86332.611 62142.444 13046.935 48438.085 91216.707 83818.490 86911.237 72496.061 54470.495 76512.052 91628.495 79157.869 83448.153 58606.897 75533.079 43249.527 76577.217 45269.335 85844.880 77842.602 53215.678 84163.853 65402.811 63995.749 61209.027 28923.441 69947.354 83872.501 77066.205 85288.337 68434.624 80797.465 36059.681 84434.505 78331.645 57591.822 49032.282 43245.666 83100.338 69040.284 84638.870 56340.976 79646.506 73155.801 81497.653 80749.764 86563.032 84545.865 80061.696 70928.687 91381.193 88959.298 86532.537 86343.964 77573.022 90631.644 78164.196 75342.847 78784.362 85747.660 80979.249 83939.147 100851.716 81330.699 80381.841 76614.126 66528.371 90574.309 86029.147 84319.148 81700.290 83323.965 84254.859 78251.492 83259.477 81526.725 84966.872 60540.438 86191.398 96063.111 84157.813 43591.046 90662.505 71616.040 85453.726
21192.625 1814.511 765.368 19965.280 34224.528 56327.172 84736.341 0.000 48892.009 803.413 19193.282 2008.147 5978.740 61444.434 33489.658 7542.969 2672.257 17041.506 73936.409 3075.296 2776.504 15695.045 12097.074 1170.683 3504.237 62302.789 3889.955 1452.773 7317.927 2490.955 34245.738 6926.421 895.105 2845.924 1668.681 23086.370 71869.154 46507.846 8033.528 4049.156 2261.030 17801.678 37796.169 15684.183 6893.138 9704.696 1298.946 31268.649 9402.453 41810.546 10258.531 39476.255 1234.732 9118.468 47549.686 4062.217 19521.185 21610.116 24262.944 56000.631 53072.398 12659.390 15612.865 1247.721 28811.622 10686.597 48945.350 1066.436 7511.402 30277.275 37988.224 41730.365 20254.642 21113.578 1049.208 31729.745 5342.914 21372.738 7651.197 8980.549 20455.085 1433.330 4796.422 18006.677 12181.646 5580.470 3654.590 1667.271 7304.989 11204.340 14339.825 13376.246 21355.462 1037.784 9018.488 3436.172 51432.493 8999.694 17484.746 15740.000 19042.886 15474.489 5790.876 5556.703 9015.610 20002.090 3983.781 13931.470 19975.852 7633.838 1845.072 26130.602 1532.201 49075.318 4112.639 41256.523 15555.744 13123.826 1001.708
27702.709 50424.253 48699.082 29089.907 31278.519 74305.994 36104.759 48892.009 0.000 48966.648 53106.438 50694.159 42936.296 22348.924 23357.025 42186.678 48706.405 35449.583 25190.004 47428.478 46165.702 42711.217 36889.089 50016.400 50404.310 13585.307 48808.048 49939.392 56197.763 46401.576 31160.711 54953.650 49021.889 51614.037 50453.820 27070.530 23096.768 19612.183 55153.128 47776.041 51104.054 38668.580 26243.657 42596.702 55763.416 44209.047 47595.507 23577.519 39884.197 7147.882 41427.056 9683.131 50035.312 42638.793 32020.481 48118.919 29419.103 27894.136 25107.670 7181.468 50555.362 47877.215 41163.983 49522.691 34155.548 46121.267 71.563 48526.335 42870.906 25052.386 13737.002 7173.734 50367.419 35685.798 48869.760 20880.033 43709.529 37717.948 45394.818 45786.746 53688.744 48806.391 44156.964 36877.579 56539.100 53389.829 50934.567 50467.891 41865.738 54536.214 42203.601 39265.465 46395.999 49916.742 44876.507 47918.347 69977.649 45228.714 47053.728 42720.790 31483.144 54627.566 49943.856 48981.999 45599.392 50523.848 48212.149 44067.713 50455.738 46395.689 49258.928 24533.143 50313.229 65337.845 48111.259 7663.683 54717.890 35787.119 49656.369
21286.411 1466.395 273.600 19970.469 34790.723 55527.239 84861.804 803.413 48966.648 0.000 19991.365 1729.014 6034.548 61247.395 33897.594 7975.325 3475.625 17527.358 74044.720 3817.828 2812.201 16414.308 12104.873 1546.223 4227.204 62344.520 4693.184 2060.030 7244.212 2666.454 34810.009 6490.396 101.635 3121.097 1504.037 23358.242 71973.309 46256.606 7471.037 3325.500 2494.588 18430.683 38284.825 16400.735 6803.698 10414.011 1543.855 31026.489 9704.867 41869.091 10830.829 39593.424 1664.285 9726.322 48107.387 3308.419 19562.030 21549.404 24230.521 56090.013 53796.499 11893.027 15033.808 1962.816 28320.346 11459.889 49019.203 485.955 8039.861 30687.255 37908.982 41798.757 21057.137 21695.525 1851.984 31565.542 5285.204 20841.936 7018.262 9737.636 21252.780 2236.714 4809.686 18579.246 12821.115 6059.157 4322.745 1524.960 7611.247 10452.284 13737.817 12951.846 22134.043 1359.543 8383.074 2716.675 50634.237 8344.033 18272.690 16459.715 19380.356 14680.776 4988.203 6359.429 8339.521 20804.972 3224.026 14672.903 20778.640 8399.555 2628.638 26005.187 1367.545 48287.460 3358.709 41344.048 14762.509 13252.586 1609.346
28867.185 20189.784 19939.319 29450.349 27170.348 75515.916 86234.778 19193.282 53106.438 19991.365 0.000 20118.855 20747.725 70714.671 31365.940 17630.493 16547.027 18375.017 76159.649 16661.632 19977.899 10692.118 24083.953 18859.793 15994.076 66500.346 15324.919 18170.147 20738.932 19483.954 27252.923 23347.912 20076.152 18447.974 19801.681 26749.407 74260.915 57428.735 25104.543 23105.742 18771.122 14514.245 32653.363 10813.071 20728.444 12671.926 19357.556 43047.607 19361.047 46942.079 15359.214 43571.265 18718.292 14926.797 39167.489 23188.792 28544.670 31776.970 33448.626 59438.799 38324.314 31732.494 33110.610 18099.535 44514.156 10252.813 53173.405 20205.950 16476.993 28731.723 46255.761 46658.723 3443.877 17461.469 18146.396 42149.659 21227.394 37992.971 26131.124 11926.183 1264.366 17768.837 20621.263 16393.505 10894.607 16175.439 16145.282 19758.659 18965.617 29639.288 32127.953 29631.721 7784.271 19021.323 27410.153 22508.765 70625.589 27514.163 6057.951 10670.313 22742.461 34358.073 24929.062 13657.617 27648.641 3133.800 23124.277 9971.409 3185.116 12713.034 17370.805 36573.311 19779.495 68226.788 23238.508 45817.149 34429.802 23107.821 18530.984
23015.376 284.507 1999.310 21688.589 36185.671 55467.961 86590.548 2008.147 50694.159 1729.014 20118.855 0.000 7763.524 62853.155 35497.037 9550.547 4110.848 19043.901 75773.727 4880.000 4540.157 17441.494 13826.215 1402.586 4127.996 64067.426 5198.624 2063.431 5528.138 4368.555 36208.294 4925.686 1672.334 1982.307 385.723 25049.194 73702.268 47816.886 6115.514 4248.806 1441.874 19709.449 39795.778 17437.839 5084.182 11497.410 3198.519 32600.889 11376.200 43595.004 12227.966 41322.304 1521.112 11062.800 49515.306 4093.896 21286.898 23246.267 25936.953 57818.502 54775.141 12306.122 16126.921 2307.314 29562.354 12250.146 50746.643 2172.177 9506.680 32284.757 39593.710 43525.792 21451.834 23066.317 2673.146 33202.207 7001.487 22020.181 8063.619 10634.146 21368.684 3008.034 6537.499 19968.412 12108.149 5065.559 3996.821 413.221 9278.468 9715.605 14782.185 14343.382 22844.941 1316.331 9394.739 3721.512 50612.951 9297.393 18913.102 17485.120 21034.175 14260.047 4961.436 6762.879 9227.554 21181.694 3985.120 15616.040 21160.531 9263.799 3084.537 27668.661 494.792 48413.429 4138.343 43072.551 14334.661 14979.888 1867.058
15251.864 7497.515 5765.319 13987.668 30225.777 56107.580 78829.343 5978.740 42936.296 6034.548 20747.725 7763.524 0.000 55682.330 28455.545 3798.704 6513.188 12699.875 68010.238 5430.157 3229.450 14004.999 6122.358 7129.251 8245.078 56330.141 7200.557 7156.376 13262.515 3496.065 30230.803 12292.255 6093.232 8777.102 7517.546 17528.148 65938.762 40895.120 12905.920 5763.527 8225.700 14747.293 33204.700 13949.118 12827.208 8557.003 4680.186 25664.830 4279.059 35844.676 7234.148 33560.340 7164.611 6713.976 43405.592 6100.155 13545.755 15670.013 18298.244 50056.503 50735.972 12342.714 12364.988 6763.229 24416.457 10664.805 42989.092 5605.536 4699.112 25269.640 32053.846 35770.228 20822.327 17453.730 6121.869 25929.299 1057.989 17422.960 6367.120 8872.233 21982.143 6159.087 1240.083 14359.200 16561.658 11070.125 8681.075 7531.628 2589.528 14391.960 11427.850 9016.991 20664.588 7013.824 7328.402 5605.580 51123.474 7557.133 17297.130 14054.498 13773.560 17424.138 8498.058 8329.931 7827.616 20648.200 6148.936 12790.327 20604.748 8050.734 6701.247 20269.315 7376.934 48287.103 6118.483 35310.558 17520.105 7234.667 6815.251
42192.175 62568.671 61014.665 42321.539 52667.624 67800.756 37283.182 61444.434 22348.924 61247.395 70714.671 62853.155 55682.330 0.000 44280.898 56321.318 62139.470 52339.744 28594.428 60954.118 58702.331 60023.735 49744.561 62613.472 63892.219 18490.729 62622.305 62763.770 68242.076 59084.347 52552.566 66086.933 61270.757 64288.744 62724.879 44045.390 27094.115 15426.205 65706.612 59054.372 63688.252 56372.616 48115.218 59902.663 67787.009 59750.658 60196.576 30307.180 53950.762 25342.927 56751.089 29114.729 62677.466 57742.817 54359.150 59345.921 43057.548 40257.484 37950.690 21612.735 72898.139 55887.688 49016.188 62393.661 36949.857 62044.017 22283.699 60763.517 57286.578 45194.233 24475.501 25786.845 68507.779 54155.711 61769.649 29756.894 56134.956 43643.303 55736.030 61187.651 71529.161 61834.727 56738.497 54443.134 71543.677 66752.432 64350.244 62752.550 55545.377 63467.935 50381.852 48971.893 65054.872 62465.990 54764.206 59399.294 64460.891 55044.620 64770.783 60046.363 47975.934 61806.221 60478.279 63301.028 55332.703 68592.219 59456.524 60909.181 68524.101 61392.567 62382.908 35466.930 62596.792 59688.715 59321.030 26855.768 61875.497 49526.784 62379.270
16641.984 35287.866 33631.370 19245.882 8523.417 76592.825 54869.051 33489.658 23357.025 33897.594 31365.940 35497.037 28455.545 44280.898 0.000 25946.703 32211.244 16650.996 44859.688 31018.158 31275.721 22044.543 23986.474 34376.280 33591.283 35993.261 31812.747 34025.290 40386.830 31274.066 8414.348 40386.866 33983.993 35639.461 35154.264 11706.979 42998.591 35003.302 41252.380 34204.118 35315.259 17996.481 6141.276 21951.241 40029.596 25659.530 32354.402 26504.919 24287.478 18947.050 23663.128 15177.507 34335.571 24951.880 16975.094 34546.202 18712.956 20187.967 18713.045 28802.022 31602.510 38375.871 33635.645 33614.288 35167.592 26810.830 23428.374 33588.691 26095.534 3212.944 22607.316 18495.548 28259.013 14360.360 33028.352 23656.943 29486.869 33735.953 33537.099 27189.996 31712.710 32811.466 29623.172 16699.547 37282.705 36344.750 34138.299 35149.111 26337.723 42663.485 33950.548 29961.635 23991.411 34352.408 33726.568 34059.632 71689.635 34085.546 25538.021 22036.570 14700.966 44807.220 36902.772 31324.335 34473.395 28473.901 34599.445 23841.452 28408.758 28235.879 33071.257 21429.821 35020.125 67713.332 34561.978 17425.324 44906.862 21937.680 33914.081
14657.984 9343.957 7714.392 14028.698 26980.182 59875.313 77757.172 7542.969 42186.678 7975.325 17630.493 9550.547 3798.704 56321.318 25946.703 0.000 6591.839 9575.369 67034.328 5316.929 5533.087 10216.343 6885.643 8455.235 8237.495 55715.110 6623.325 8163.453 14597.362 5423.390 26993.371 14451.617 8065.287 9828.279 9207.979 15754.470 64986.409 41915.915 15415.473 8977.475 9440.009 11072.235 30322.534 10158.139 14210.676 5042.021 6432.990 26844.370 2383.671 35213.665 3445.904 32617.885 8424.778 2977.071 40257.024 9272.170 13365.519 16068.997 18428.072 49208.068 47018.502 16138.956 15759.135 7743.028 26956.789 7381.022 42243.493 7700.704 1160.565 22734.306 32218.672 35085.498 17365.586 13998.746 7128.402 26662.726 4724.517 20372.865 10156.878 5756.528 18827.930 6951.882 4452.656 10871.605 15232.226 11216.258 8776.775 9203.286 1378.778 17654.860 14952.353 12058.429 16937.376 8420.150 11123.221 8648.879 54886.639 11355.478 13700.527 10265.881 11574.524 21031.306 11709.672 7005.933 11625.787 17217.278 9290.369 9081.260 17169.415 5373.635 7294.918 20908.485 9073.556 52001.187 9302.650 34523.030 21125.421 6800.791 8005.865
21067.004 4058.362 3399.440 20147.868 32389.510 58985.538 84341.090 2672.257 48706.405 3475.625 16547.027 4110.848 6513.188 62139.470 32211.244 6591.839 0.000 15587.260 73606.334 1280.068 4019.556 13354.921 12418.824 2708.878 1756.163 62206.527 1223.040 2091.657 8177.536 3510.495 32417.467 8779.453 3566.832 3478.981 3729.002 22335.564 71554.753 47402.203 10157.947 6582.637 3293.784 15800.951 36225.166 13354.938 7830.142 7463.601 2928.570 32175.969 8826.736 41694.748 8597.182 39170.816 2597.258 7344.626 45723.440 6647.332 19591.058 21991.505 24528.781 55753.756 50666.742 15228.036 17646.342 1803.894 30517.282 8145.012 48762.271 3659.614 6164.628 29003.442 38340.388 41581.907 17584.468 19268.429 1626.678 32382.926 6287.844 23229.204 9920.732 6527.327 17810.211 1239.702 5618.198 16218.459 10246.318 4711.267 2248.799 3698.039 6856.943 13756.338 16448.179 14988.692 18771.947 2804.517 11271.928 5977.622 54085.110 11304.131 14868.579 13397.848 18101.953 18124.588 8462.421 2892.556 11370.786 17330.805 6580.051 11510.246 17304.828 5155.223 1031.654 26687.063 3648.342 51693.221 6697.311 41045.379 18204.630 13015.239 2250.830
10829.441 18855.318 17271.253 12042.919 17525.912 66689.350 70051.273 17041.506 35449.583 17527.358 18375.017 19043.901 12699.875 52339.744 16650.996 9575.369 15587.260 0.000 59553.850 14420.016 15088.503 7686.333 10468.816 17851.332 16941.004 49010.177 15161.963 17456.403 23763.941 14998.419 17531.023 23967.785 17619.773 19039.306 18685.579 8492.819 57562.173 39248.831 24985.542 18379.961 18746.347 4487.905 20757.981 7565.142 23416.474 9177.458 15991.355 25447.295 8438.332 28928.028 7013.278 25777.683 17799.676 8300.885 30732.872 18697.888 11069.642 14356.236 15495.556 42145.425 38857.832 24346.825 21725.377 17053.517 29285.846 10762.395 35513.144 17270.211 9545.213 13455.356 27883.344 28690.351 16335.228 5148.320 16491.823 24138.490 13756.375 24486.246 18682.241 10757.523 19210.037 16250.203 13717.898 2747.537 21332.091 19704.516 17487.654 18676.085 10256.640 27065.733 21442.874 17597.962 13539.734 17843.701 19280.876 18119.663 61677.960 19594.632 12476.290 7710.079 4374.574 30027.329 21133.106 14712.695 19941.606 16380.032 18730.007 8700.600 16313.154 11681.825 16474.765 18827.595 18556.372 58344.918 18722.941 27932.237 30124.896 8372.560 17378.442
52758.659 75507.413 73775.099 54251.551 50896.620 94608.455 10942.939 73936.409 25190.004 74044.720 76159.649 75773.727 68010.238 28594.428 44859.688 67034.328 73606.334 59553.850 0.000 72326.294 71235.816 66309.192 62008.819 75044.713 75271.810 12964.205 73625.084 74934.164 81253.389 71450.885 50785.030 80104.059 74103.253 76616.459 75521.788 51508.517 2104.111 38149.324 80332.290 72943.898 76124.647 62188.754 45084.574 66202.823 80824.541 68602.599 72644.817 47722.367 64785.630 32337.776 65964.723 34461.920 75056.940 67218.686 45295.407 73288.142 54546.324 53083.899 50297.542 18010.596 63044.332 72929.570 66125.196 74514.159 57662.317 70315.685 25143.512 73612.714 67639.922 47430.987 38107.322 32346.433 73108.294 58819.923 73863.190 45417.973 68812.684 62251.541 70583.617 70194.296 76552.741 73779.411 69239.237 60562.081 80878.120 78247.943 75810.604 75534.079 66810.794 79699.841 67221.462 64406.393 68850.787 74952.674 70053.457 73074.237 90796.540 70404.003 70231.433 66310.601 55915.688 79632.371 75131.418 73669.587 70772.524 73316.602 73380.205 67884.315 73250.901 70928.710 74210.460 49598.664 75380.729 86017.365 73281.332 32722.875 79720.649 60812.590 74669.523
19796.018 4763.506 3656.370 18905.015 31362.767 58998.892 83061.753 3075.296 47428.478 3817.828 16661.632 4880.000 5430.157 60954.118 31018.158 5316.929 1280.068 14420.016 72326.294 0.000 3389.630 12621.967 11214.431 3539.526 2998.423 60931.142 1782.420 3056.147 9374.990 2874.800 31387.972 9728.416 3918.714 4622.243 4496.120 21066.702 70274.685 46262.916 10995.445 6512.914 4338.189 14838.215 35106.959 12612.221 9011.944 6640.084 2752.113 31049.274 7547.259 40419.779 7468.600 37890.975 3461.299 6249.726 44697.052 6643.246 18336.583 20773.220 23291.760 54474.300 49997.351 15083.777 17005.408 2673.576 29664.282 7662.423 47484.413 3840.974 4934.568 27807.942 37106.885 40305.624 17449.852 18236.984 2206.858 31200.969 5343.141 22465.817 9519.071 5921.366 17925.399 1889.866 4663.427 15159.629 11156.310 5976.639 3513.254 4474.612 5588.365 14269.351 15861.797 14146.585 18341.453 3578.199 10836.685 5940.699 54075.897 10908.784 14514.270 12666.751 16847.260 18444.164 8706.835 3173.441 11017.630 17213.989 6595.002 10858.280 17183.402 4592.969 2055.036 25492.226 4388.674 51584.311 6691.030 39767.136 18528.034 11753.550 3053.607
18478.647 4278.312 2540.887 17200.821 32512.223 55862.289 82050.633 2776.504 46165.702 2812.201 19977.899 4540.157 3229.450 58702.331 31275.721 5533.087 4019.556 15088.503 71235.816 3389.630 0.000 14909.363 9331.140 3943.030 5564.356 59557.050 5050.138 4064.361 10033.236 519.143 32525.794 9193.267 2875.688 5612.388 4288.279 20593.898 69165.149 43806.455 9977.629 3638.806 5037.035 16431.739 35805.791 14877.732 9597.761 8973.147 1496.316 28564.383 7001.999 39073.678 8719.657 36782.744 3992.949 7783.234 45789.463 3881.436 16772.161 18833.669 21489.367 53284.959 52182.335 11869.990 13654.593 3708.118 26514.637 10536.648 46218.514 2403.116 5867.680 28071.433 35211.847 38999.665 20584.894 19502.661 3114.171 28974.432 2572.793 19209.655 6155.978 8703.005 21239.321 3262.171 2023.475 16373.097 14254.649 8143.444 5904.157 4302.192 4938.235 12183.166 12487.278 10991.859 21109.352 3814.060 7457.337 3203.959 50919.017 7542.648 17425.538 14957.248 16681.981 15861.224 6269.410 6559.340 7670.744 20366.496 3876.911 13359.459 20331.880 7524.037 3845.388 23362.105 4147.591 48339.473 3919.630 38539.085 15951.288 10440.399 3677.975
18324.189 17355.523 16226.675 19158.756 19980.768 70085.198 76615.278 15695.045 42711.217 16414.308 10692.118 17441.494 14004.999 60023.735 22044.543 10216.343 13354.921 7686.333 66309.192 12621.967 14909.363 0.000 15088.259 16049.718 14022.084 56201.678 12413.932 15446.189 20816.171 14576.495 20030.453 22084.063 16515.919 16638.149 17056.087 16077.256 64360.713 46859.178 23512.038 18546.964 16595.975 4121.347 24653.081 121.251 20580.221 6005.794 15118.448 32755.365 10909.066 36383.029 6866.124 33098.072 15945.554 7312.262 33142.866 18776.409 18215.875 21504.245 22959.814 49222.507 37382.606 26312.719 25652.802 15143.414 35391.217 5569.299 42776.769 16364.608 9349.629 19098.172 35569.673 36118.290 8784.904 7687.384 14797.036 31655.186 14872.300 29621.980 20323.664 6856.862 11528.631 14441.401 14488.184 5833.642 15365.225 16077.776 14482.431 17028.862 11533.160 26847.177 24984.581 21702.801 6933.884 16125.194 21333.304 18081.535 65093.515 21557.107 4836.489 49.550 12058.595 30767.480 21091.511 11207.468 21815.517 8791.508 18761.822 2020.750 8726.522 8226.341 14385.949 26189.197 16962.043 62157.664 18816.912 35310.304 30856.920 13588.398 15575.432
9301.670 13552.517 11841.271 7869.691 27187.038 56226.617 72856.009 12097.074 36889.089 12104.873 24083.953 13826.215 6122.358 49744.561 23986.474 6885.643 12418.824 10468.816 62008.819 11214.431 9331.140 15088.259 0.000 13251.049 14174.941 50241.451 12879.835 13268.551 19349.000 9618.365 27170.223 18112.320 12155.294 14898.741 13603.020 12453.376 59930.804 35146.573 18473.420 11050.229 14347.627 14090.199 29283.263 14993.441 18908.347 11453.065 10799.791 20005.459 4760.990 29777.568 8760.394 27600.515 13286.968 9188.112 39915.741 11401.376 7470.022 9581.428 12179.331 44029.327 49297.604 14513.154 11258.785 12869.153 20485.021 13920.165 36940.714 11654.320 7998.022 20920.216 25956.394 29716.824 23328.642 15615.147 12222.034 19998.816 6826.842 14553.621 9605.272 12493.467 25225.943 12229.912 7308.260 12940.336 21979.912 17088.202 14651.071 13619.926 5878.755 18919.847 10999.507 7131.115 22009.470 13133.563 9740.824 11114.208 51214.873 10099.189 19425.922 15134.428 9577.220 20822.572 13496.747 13649.719 10486.926 23234.983 11483.765 14646.393 23179.587 12251.775 12748.044 14279.113 13463.662 47924.872 11401.428 29288.435 20922.213 2197.111 12935.659
22314.095 1375.890 1699.908 21116.686 34895.533 56676.441 85835.900 1170.683 50016.400 1546.223 18859.793 1402.586 7129.251 62613.472 34376.280 8455.235 2708.878 17851.332 75044.713 3539.526 3943.030 16049.718 13251.049 0.000 2892.582 63438.829 3805.047 693.140 6229.904 3633.620 34919.954 6190.896 1575.636 1675.603 1023.567 24103.996 72979.482 47669.524 7479.615 4812.095 1096.654 18376.433 38582.248 16047.359 5817.254 10120.544 2454.069 32431.505 10419.988 42941.765 10966.257 40582.967 143.136 9772.504 48228.925 4751.916 20662.528 22774.515 25422.114 57118.376 53374.914 13256.386 16578.158 907.014 29860.885 10847.843 50070.054 2002.592 8307.390 31163.376 39154.178 42857.850 20110.847 21770.634 1362.044 32900.252 6512.225 22387.615 8552.447 9234.346 20114.951 1649.809 5958.746 18685.603 11311.625 4514.780 2882.738 990.656 8330.145 11094.596 15278.029 14469.278 21449.666 191.399 9914.892 4214.793 51805.028 9866.135 17524.335 16093.100 20010.443 15575.943 6088.943 5393.861 9848.368 19845.111 4657.294 14216.873 19822.607 7863.185 1681.988 27300.824 956.905 49538.762 4801.212 42376.300 15652.651 14235.897 485.932
22789.391 4196.518 4262.382 21898.068 33444.270 59561.902 85990.815 3504.237 50404.310 4227.204 15994.076 4127.996 8245.078 63892.219 33591.283 8237.495 1756.163 16941.004 75271.810 2998.423 5564.356 14022.084 14174.941 2892.582 0.000 63915.624 1781.429 2222.125 6937.952 5082.015 33477.086 8140.538 4292.639 2692.037 3807.757 23930.142 73223.798 49140.033 9703.109 7544.941 2844.179 16797.595 37445.749 14036.439 6646.210 8373.165 4257.673 33909.486 10520.779 43405.724 9928.157 40851.134 2749.494 8641.355 46764.011 7535.420 21334.390 23747.432 26281.303 57439.090 51114.598 16106.729 19028.696 2267.124 32064.867 8569.341 50460.578 4569.486 7701.633 30391.683 40094.113 43288.042 17359.225 20361.940 2597.443 34135.411 7960.732 24708.181 11134.660 7184.934 17245.735 2337.481 7302.030 17372.189 8748.819 2985.948 550.933 3764.631 8585.477 13780.359 17784.409 16551.113 18950.391 3066.574 12500.828 6932.913 54694.159 12493.516 14975.647 14061.780 19651.556 18386.032 8980.453 2858.451 12517.041 17083.393 7449.885 12086.395 17063.956 5842.688 1760.812 28442.017 3788.776 52429.846 7585.677 42741.660 18460.084 14751.921 2636.916
41154.674 63793.962 62079.642 42388.928 43244.497 82007.268 23731.708 62302.789 13585.307 62344.520 66500.346 64067.426 56330.141 18490.729 35993.261 55715.110 62206.527 49010.177 12964.205 60931.142 59557.050 56201.678 50241.451 63438.829 63915.624 0.000 62338.434 63386.523 69587.214 59812.322 43127.130 68210.276 62396.045 65053.494 63839.783 40652.728 10927.126 25405.121 68317.777 60999.649 64530.888 52132.546 37720.958 56088.524 69148.130 57794.338 61004.141 34905.122 53396.251 20512.436 55009.214 23265.915 63462.966 56217.484 40881.633 61337.294 42784.892 41013.817 38247.619 7196.461 59548.139 60432.921 53558.952 62972.634 44719.439 59699.600 13524.307 61895.699 56420.525 38073.465 25452.626 20629.645 63673.718 49042.631 62319.380 32733.056 57067.926 49476.081 58427.168 59372.006 67037.091 62269.001 57539.380 50371.295 70124.404 66901.492 64441.952 63855.632 55354.657 67385.322 54703.323 52072.941 59605.691 63333.097 57811.831 61175.261 78091.135 58153.971 60462.345 56209.649 45067.280 67070.833 63061.026 62542.919 58512.478 63844.627 61434.166 57599.884 63776.953 59976.360 62733.202 37217.219 63699.899 73324.407 61326.765 21223.252 67157.004 49239.359 63090.997
21259.134 5178.346 4621.972 20481.968 31700.137 60208.474 84325.572 3889.955 48808.048 4693.184 15324.919 5198.624 7200.557 62622.305 31812.747 6623.325 1223.040 15161.963 73625.084 1782.420 5050.138 12413.932 12879.835 3805.047 1781.429 62338.434 0.000 3136.353 8699.553 4531.412 31731.698 9670.646 4783.004 4230.881 4826.473 22228.495 71581.665 47980.128 11135.473 7795.811 4193.154 15063.134 35670.220 12421.343 8394.079 6650.071 4100.057 32778.463 8961.440 41836.392 8150.007 39229.172 3679.408 6861.474 45025.402 7866.551 19878.854 22402.351 24879.320 55821.155 49644.632 16439.805 18704.446 2927.569 31438.078 7078.944 48865.014 4882.535 5997.124 28614.204 38695.850 41708.823 16377.228 18604.979 2841.370 32878.527 7122.978 24215.823 11070.836 5557.183 16588.261 2456.818 6443.519 15602.613 9374.208 4645.060 2325.870 4791.375 7124.884 14897.474 17532.875 15915.583 17646.331 3925.610 12412.990 7193.033 55308.133 12458.271 13719.722 12455.284 17925.009 19316.939 9676.168 1669.540 12537.483 16120.975 7800.414 10520.931 16095.690 4188.997 2145.625 27155.397 4760.873 52912.057 7916.436 41144.368 19396.104 13282.609 3381.035
22239.901 2062.405 2147.604 21116.981 34408.625 57361.667 85709.495 1452.773 49939.392 2060.030 18170.147 2063.431 7156.376 62763.770 34025.290 8163.453 2091.657 17456.403 74934.164 3056.147 4064.361 15446.189 13268.551 693.140 2222.125 63386.523 3136.353 0.000 6436.956 3685.347 34434.690 6706.578 2112.691 1685.958 1696.366 23878.948 72872.749 47867.859 8066.309 5381.927 1290.658 17852.713 38159.738 15446.472 6047.245 9547.699 2578.150 32626.051 10217.718 42880.742 10523.369 40473.715 555.553 9304.985 47743.382 5347.577 20634.438 22826.358 25447.878 57027.052 52746.440 13894.058 17054.093 423.369 30264.062 10200.131 49993.693 2461.354 7931.003 30813.223 39210.202 42788.586 19419.286 21282.950 1070.976 33029.796 6628.850 22824.139 9066.152 8612.777 19425.871 1215.504 6035.589 18212.072 10764.999 4139.416 2265.798 1659.424 8146.688 11774.448 15772.489 14821.275 20782.165 851.739 10432.593 4775.155 52487.847 10400.138 16849.843 15489.044 19737.557 16268.644 6770.750 4707.220 10399.163 19153.070 5257.677 13595.161 19130.700 7239.369 1063.294 27401.508 1642.940 50209.404 5397.492 42291.157 16345.248 14153.058 458.141
28504.152 5806.023 7507.953 27214.404 40379.256 56405.594 92054.170 7317.927 56197.763 7244.212 20738.932 5528.138 13262.515 68242.076 40386.830 14597.362 8177.536 23763.941 81253.389 9374.990 10033.236 20816.171 19349.000 6229.904 6937.952 69587.214 8699.553 6436.956 0.000 9802.667 40412.664 3383.042 7195.203 4771.096 5747.471 30312.206 79185.439 53127.077 5057.890 9221.438 5178.486 23729.322 44361.092 20840.204 455.070 15304.127 8608.618 37951.276 16638.205 49106.846 16765.283 46793.848 6231.742 15498.911 53694.960 8952.465 26803.076 28769.753 31464.500 63312.754 57511.525 15531.369 20653.461 6859.245 34244.078 15269.543 56250.717 7699.230 14308.781 37178.031 45105.693 49032.573 22833.573 27299.691 7489.391 38654.061 12527.753 26627.344 12813.315 14054.153 21896.428 7645.658 12048.090 24301.802 10623.385 4872.499 6421.808 5731.969 14554.146 10071.112 19244.873 19455.016 25129.463 6309.824 14011.130 8846.191 51701.897 13821.329 21129.684 20853.286 26171.808 15049.115 8447.918 9630.612 13643.709 22519.527 8839.246 18834.576 22514.891 12743.921 7329.841 33159.475 5887.468 49969.564 8982.548 48567.520 15094.348 20441.160 6636.465
18703.234 4121.058 2393.390 17483.105 32374.239 56313.678 82255.138 2490.955 46401.576 2666.454 19483.954 4368.555 3496.065 59084.347 31274.066 5423.390 3510.495 14998.419 71450.885 2874.800 519.143 14576.495 9618.365 3633.620 5082.015 59812.322 4531.412 3685.347 9802.667 0.000 32389.618 9134.976 2743.163 5283.179 4085.551 20691.907 69382.773 44215.262 10005.374 3986.016 4729.853 16205.974 35739.377 14548.052 9374.053 8612.771 1194.243 28973.496 7043.824 39319.594 8507.611 36992.071 3668.774 7521.644 45666.494 4201.541 17031.939 19154.690 21792.556 53511.704 51888.022 12331.651 14173.100 3309.325 27013.551 10107.973 46454.868 2317.431 5659.096 28066.140 35537.609 39239.562 20124.912 19332.775 2691.283 29346.238 2954.659 19720.043 6657.159 8281.182 20746.018 2805.452 2350.243 16204.371 13751.935 7716.005 5438.201 4094.379 4954.862 12412.594 13006.384 11487.560 20710.287 3521.514 7965.536 3505.046 51374.365 8045.384 17000.911 14624.019 16724.308 16193.102 6538.779 6042.286 8166.745 19903.393 4185.362 12991.569 19869.471 7077.535 3383.855 23716.402 3944.247 48813.524 4242.844 38767.152 16282.078 10639.543 3325.501
22048.356 36049.763 34567.040 24558.613 118.068 82250.314 60196.209 34245.738 31160.711 34810.009 27252.923 36208.294 30230.803 52552.566 8414.348 26993.371 32417.467 17531.023 50785.030 31387.972 32525.794 20030.453 27170.223 34919.954 33477.086 43127.130 31731.698 34434.690 40412.664 32389.618 0.000 41109.830 34906.773 35886.132 35833.698 16617.435 49062.271 43374.178 42273.645 35895.431 35697.261 16687.364 5726.151 19973.834 40121.867 25109.623 33303.494 34026.128 25964.222 27269.515 23987.367 23513.918 34847.401 25149.156 13309.096 36208.565 23801.945 26061.661 25231.370 35957.757 23951.679 41589.670 37954.477 34061.110 41764.902 25499.618 31232.220 34601.271 26775.105 8847.880 30942.981 26804.090 23865.809 13151.749 33565.237 31378.299 31287.395 39181.763 36115.961 26421.685 27290.772 33274.600 31239.845 16240.102 35178.369 35873.040 33990.953 35817.932 27771.761 44587.529 37980.733 33961.490 19474.148 34942.460 36606.719 35615.168 77278.891 36937.911 22129.708 20004.430 17688.302 47504.137 38647.524 30837.373 37300.675 24146.265 36236.955 22041.203 24089.416 27688.220 33394.186 28343.769 35713.781 73544.468 36235.000 25720.850 47602.374 24975.677 34435.185
27406.992 5113.575 6758.143 25864.001 41085.723 53157.887 90962.692 6926.421 54953.650 6490.396 23347.912 4925.686 12292.255 66086.933 40386.866 14451.617 8779.453 23967.785 80104.059 9728.416 9193.267 22084.063 18112.320 6190.896 8140.538 68210.276 9670.646 6706.578 3383.042 9134.976 41109.830 0.000 6405.384 5463.034 5290.279 29782.828 78022.253 50852.702 1789.426 7223.639 5495.823 24557.049 44721.145 22090.486 3106.976 16242.173 8032.757 35785.491 16176.618 47821.265 17142.984 45712.788 6267.264 15961.004 54418.599 6894.227 25560.221 27213.052 29966.536 62110.554 59255.134 12318.339 17850.537 7061.668 31429.952 16699.275 55003.796 6818.779 14432.363 37176.066 43385.955 47780.417 25157.261 27961.262 7544.715 36710.541 11385.948 23811.209 10358.181 15227.686 24548.137 7838.941 11054.689 24873.381 13728.846 7173.041 7753.320 5302.817 14089.837 6744.911 16426.888 17120.287 27046.022 6168.083 11412.933 7037.502 48425.298 11172.223 23053.723 22125.565 25858.802 11725.691 5668.650 10998.641 10938.256 24859.571 6792.905 20185.744 24847.897 13857.867 7765.436 31372.580 5416.142 46630.208 6908.987 47381.383 11775.160 19504.268 6676.287
21344.658 1404.306 352.761 20019.316 34887.590 55441.499 84922.052 895.105 49021.889 101.635 20076.152 1672.334 6093.232 61270.757 33983.993 8065.287 3566.832 17619.773 74103.253 3918.714 2875.688 16515.919 12155.294 1575.636 4292.639 62396.045 4783.004 2112.691 7195.203 2743.163 34906.773 6405.384 0.000 3122.860 1465.383 23433.615 72031.422 46273.182 7376.018 3269.277 2494.724 18530.588 38376.973 16502.359 6753.277 10515.646 1632.511 31044.716 9784.504 41922.742 10928.569 39653.302 1698.310 9825.689 48203.714 3243.471 19614.819 21590.629 24274.787 56146.720 53898.095 11821.524 15002.731 2031.931 28302.906 11559.362 49074.359 510.066 8135.678 30773.872 37947.203 41853.464 21149.744 21793.350 1941.670 31593.699 5332.572 20818.526 6979.293 9838.210 21337.327 2327.371 4865.515 18676.670 12867.212 6082.154 4377.859 1488.861 7691.924 10351.159 13702.791 12946.367 22233.064 1386.555 8342.996 2662.757 50549.636 8299.892 18370.378 16561.323 19461.617 14584.107 4895.845 6448.262 8291.093 20897.103 3157.259 14774.149 20870.901 8499.570 2709.733 26038.400 1331.644 48207.918 3293.661 41400.796 14665.719 13315.422 1666.300
23912.526 2192.876 3320.339 22758.471 35857.256 57265.181 87393.935 2845.924 51614.037 3121.097 18447.974 1982.307 8777.102 64288.744 35639.461 9828.279 3478.981 19039.306 76616.459 4622.243 5612.388 16638.149 14898.741 1675.603 2692.037 65053.494 4230.881 1685.958 4771.096 5283.179 35886.132 5463.034 3122.860 0.000 1855.013 25557.850 74554.393 49338.547 7011.390 6160.952 629.015 19248.341 39701.099 16647.408 4395.074 10862.032 4118.369 34101.856 11902.427 44550.329 12066.479 42155.427 1619.505 10821.120 49189.756 6035.593 22289.763 24436.258 27075.183 58705.444 53797.188 14277.299 18028.970 2108.736 31399.382 11236.357 51668.159 3602.932 9548.101 32428.832 40818.041 44460.804 19968.432 22740.116 2755.407 34575.666 8183.956 23889.108 9968.115 9782.223 19685.872 2879.723 7621.615 19696.091 10130.611 3088.008 2365.939 1811.786 9832.630 11205.371 16700.252 16068.889 21640.492 1824.993 11314.242 5600.101 52429.547 11232.982 17662.274 16679.037 21402.081 15923.627 6894.148 5543.102 11178.072 19685.192 5929.940 14727.537 19668.230 8417.850 2568.204 28973.603 1933.693 50290.649 6081.783 43967.796 15993.322 15826.924 1965.194
22766.017 391.767 1762.571 21470.303 35810.781 55764.043 86332.611 1668.681 50453.820 1504.037 19801.681 385.723 7517.546 62724.879 35154.264 9207.979 3729.002 18685.579 75521.788 4496.120 4288.279 17056.087 13603.020 1023.567 3807.757 63839.783 4826.473 1696.366 5747.471 4085.551 35833.698 5290.279 1465.383 1855.013 0.000 24743.526 73451.794 47712.088 6499.389 4307.158 1257.394 19327.903 39434.625 17052.331 5310.083 11111.772 2901.512 32488.390 11063.473 43360.214 11856.360 41066.407 1147.129 10686.537 49141.197 4181.331 21055.625 23053.415 25734.036 57573.039 54391.434 12510.127 16180.478 1925.110 29577.279 11870.721 50506.593 1975.369 9144.807 31941.686 39412.013 43287.394 21104.652 22690.216 2289.453 33055.039 6787.487 22052.542 8117.466 10250.440 21053.491 2622.462 6300.649 19594.209 11930.343 4937.065 3709.208 46.123 8965.471 10078.090 14847.812 14303.138 22472.215 930.912 9460.945 3752.358 50903.218 9378.031 18544.309 17099.735 20710.561 14594.297 5216.797 6402.550 9323.895 20836.245 4076.219 15232.010 20814.552 8880.522 2704.763 27503.399 141.334 48680.911 4227.744 42827.213 14669.780 14717.237 1482.555
5432.181 24809.331 23084.994 7956.061 16669.470 65688.212 62142.444 23086.370 27070.530 23358.242 26749.407 25049.194 17528.148 44045.390 11706.979 15754.470 22335.564 8492.819 51508.517 21066.702 20593.898 16077.256 12453.376 24103.996 23930.142 40652.728 22228.495 23878.948 30312.206 20691.907 16617.435 29782.828 23433.615 25557.850 24743.526 0.000 49485.886 31514.633 30430.368 23137.046 25134.911 12327.540 17409.007 15957.366 29912.312 17159.382 21850.677 18948.129 13686.417 20451.206 14457.857 17387.500 24090.841 15710.340 28292.011 23487.354 7251.693 9494.975 9150.352 33885.861 40322.099 26700.707 21987.116 23455.851 25337.242 19054.173 27132.564 22987.112 16233.614 8847.501 19692.548 20225.094 24462.440 10430.291 22822.826 16987.407 18500.251 22616.081 22058.383 18744.431 27515.336 22678.514 18752.981 10400.515 29487.412 26873.005 24477.615 24746.757 15782.133 31337.157 22257.581 18259.091 21127.950 24043.892 22147.402 23077.279 60730.666 22510.994 20752.313 16095.650 4423.266 33205.520 25746.551 22176.708 22902.519 24547.797 23553.759 17193.171 24479.627 19426.495 23045.214 12547.867 24603.544 56945.181 23496.560 19495.101 33305.061 10540.396 23680.373
50686.899 73435.464 71703.927 52166.514 49174.761 92720.611 13046.935 71869.154 23096.768 71973.309 74260.915 73702.268 65938.762 27094.115 42998.591 64986.409 71554.753 57562.173 2104.111 70274.685 69165.149 64360.713 59930.804 72979.482 73223.798 10927.126 71581.665 72872.749 79185.439 69382.773 49062.271 78022.253 72031.422 74554.393 73451.794 49485.886 0.000 36205.422 78244.156 70858.437 74060.437 60241.691 43377.797 64253.644 78755.860 66594.521 70576.836 45629.961 62732.034 30244.631 63943.566 32399.034 72992.489 65194.537 43940.107 71202.390 52466.524 50989.503 48203.350 15919.714 61870.815 70825.634 64021.170 72453.056 55594.023 68324.567 23049.800 71540.188 65599.426 45529.199 36006.412 30257.138 71229.904 56895.309 71801.782 43317.300 66737.527 60154.356 68488.193 68185.821 74668.668 71720.226 67166.846 58601.548 78879.776 76201.422 73761.838 73464.310 64753.344 77599.558 65117.376 62304.856 66988.025 72886.537 67954.906 70991.174 88877.102 68305.201 68317.761 64362.724 53896.984 77528.270 73040.090 71638.236 68673.425 71434.599 71294.713 65920.880 71368.650 68910.017 72153.641 47495.386 73310.781 84101.272 71195.389 30642.840 77616.552 58745.652 72606.001
28561.991 47533.200 46034.338 28187.051 43478.557 56617.148 48438.085 46507.846 19612.183 46256.606 57428.735 47816.886 40895.120 15426.205 35003.302 41915.915 47402.203 39248.831 38149.324 46262.916 43806.455 46859.178 35146.573 47669.524 49140.033 25405.121 47980.128 47867.859 53127.077 44215.262 43374.178 50852.702 46273.182 49338.547 47712.088 31514.633 36205.422 0.000 50406.183 43910.130 48726.790 43565.486 40112.514 46738.503 52672.693 45760.993 45290.109 15242.111 39591.117 17707.016 42761.900 20864.476 47742.358 43638.471 48667.138 44189.962 29025.891 25957.378 24004.328 23783.612 66059.095 40467.953 33614.465 47513.953 21657.327 48150.581 19584.074 45770.790 42948.326 34955.797 12466.353 18224.244 55582.522 41940.433 46906.356 15349.130 41261.383 28218.258 40494.880 47104.879 58356.342 47000.878 41889.411 41635.599 57118.325 51926.486 49572.319 47742.096 41018.252 48060.007 34989.110 33737.860 52561.523 47513.885 39478.529 44284.284 52688.104 39748.218 51690.531 46888.213 34905.710 46390.967 45214.283 48795.502 40024.859 55620.849 44301.995 47470.257 55554.384 47154.113 47563.382 21074.051 47588.159 47919.657 44162.654 19239.343 46461.030 35210.895 47466.247
27767.925 6245.961 7720.919 26089.827 42253.316 51389.549 91216.707 8033.528 55153.128 7471.037 25104.543 6115.514 12905.920 65706.612 41252.380 15415.473 10157.947 24985.542 80332.290 10995.445 9977.629 23512.038 18473.420 7479.615 9703.109 68317.777 11135.473 8066.309 5057.890 10005.374 42273.645 1789.426 7376.018 7011.390 6499.389 30430.368 78244.156 50406.183 0.000 7425.036 6945.076 25820.263 45737.959 23512.706 4833.991 17600.044 8997.198 35446.340 16969.184 48008.730 18287.245 46019.975 7576.420 17151.319 55574.369 7075.001 25850.223 27307.412 30082.311 62324.753 60777.726 11149.410 17095.314 8380.734 30597.073 18207.170 55201.599 7715.546 15510.253 38048.823 43322.048 47987.133 26861.801 29146.462 8788.626 36519.772 11932.386 23004.475 10044.789 16671.003 26309.909 9117.898 11691.540 26036.963 15512.175 8937.079 9355.242 6521.488 14915.783 5013.258 15671.058 16769.702 28651.080 7422.084 10943.632 7385.483 46667.090 10662.444 24669.590 23554.773 26632.250 9991.893 5297.388 12546.635 10381.325 26567.812 6990.436 21649.378 26554.734 15297.181 9127.914 31302.585 6607.777 44911.698 7077.095 47626.395 10037.850 20014.591 7961.473
20342.895 3996.128 3285.313 18692.416 35886.565 52487.789 83818.490 4049.156 47776.041 3325.500 23105.742 4248.806 5763.527 59054.372 34204.118 8977.475 6582.637 18379.961 72943.898 6512.914 3638.806 18546.964 11050.229 4812.095 7544.941 60999.649 7795.811 5381.927 9221.438 3986.016 35895.431 7223.639 3269.277 6160.952 4307.158 23137.046 70858.437 43910.130 7425.036 0.000 5550.180 20000.824 38962.630 18515.903 8768.017 12596.987 3766.036 28751.751 10021.341 40636.874 12289.095 38602.721 4944.449 11403.105 49111.742 352.275 18432.163 19993.746 22752.410 54941.298 55811.858 8645.444 11879.307 5277.891 25327.474 14050.248 47825.374 2983.937 9448.991 31023.709 36171.722 40605.365 23961.234 22970.591 5047.245 29552.951 4720.085 17774.046 3815.200 12237.627 24369.951 5400.903 4664.939 19846.000 16123.711 9231.126 7647.049 4349.762 8124.785 8694.273 10541.128 10245.667 24683.750 4620.745 5153.840 613.025 47568.581 5075.603 20941.987 18594.775 19509.415 12222.418 2753.144 9454.607 5039.931 23726.622 436.369 16977.473 23695.822 10993.335 5882.249 24164.663 4228.674 45121.769 359.715 40227.858 12312.495 12646.872 4934.356
23401.366 1618.693 2698.699 22212.949 35670.310 56865.297 86911.237 2261.030 51104.054 2494.588 18771.122 1441.874 8225.700 63688.252 35315.259 9440.009 3293.784 18746.347 76124.647 4338.189 5037.035 16595.975 14347.627 1096.654 2844.179 64530.888 4193.154 1290.658 5178.486 4729.853 35697.261 5495.823 2494.724 629.015 1257.394 25134.911 74060.437 48726.790 6945.076 5550.180 0.000 19093.598 39445.022 16600.664 4778.201 10749.514 3550.360 33491.697 11459.875 44032.238 11806.751 41662.728 1068.747 10581.586 49004.987 5434.419 21756.727 23869.948 26518.689 58203.022 53832.658 13744.226 17410.455 1702.085 30772.229 11262.246 51157.839 2977.619 9221.487 32103.096 40248.866 43946.875 20200.808 22545.985 2314.617 33982.263 7603.665 23265.024 9352.119 9742.793 20015.734 2503.905 7054.581 19482.645 10679.494 3683.257 2626.196 1212.459 9377.598 10939.804 16085.529 15440.253 21754.360 1225.921 10701.252 4983.394 52018.246 10624.958 17792.191 16637.890 21011.365 15587.129 6400.229 5627.845 10576.215 19923.452 5330.259 14713.337 19904.543 8370.535 2303.436 28389.660 1322.626 49841.025 5481.239 43462.095 15659.185 15320.279 1460.124
15279.749 19574.485 18205.839 16527.002 16652.279 70131.367 72496.061 17801.678 38668.580 18430.683 14514.245 19709.449 14747.293 56372.616 17996.481 11072.235 15800.951 4487.905 62188.754 14838.215 16431.739 4121.347 14090.199 18376.433 16797.595 52132.546 15063.134 17852.713 23729.322 16205.974 16687.364 24557.049 18530.588 19248.341 19327.903 12327.540 60241.691 43565.486 25820.263 20000.824 19093.598 0.000 20936.854 4016.610 23443.802 8425.323 16983.888 29920.654 10861.416 32430.212 7714.481 29086.961 18293.676 8712.138 29966.480 20278.536 15554.584 18843.533 19943.374 45133.524 35993.518 26981.556 25236.040 17496.032 33618.917 8986.525 38734.686 18281.679 10564.500 15007.394 31988.568 32150.721 12136.306 3728.513 17040.306 28547.255 15745.970 28498.161 21074.399 9747.261 15219.104 16726.817 15522.443 1937.289 19301.818 19199.402 17307.715 19308.185 12157.901 28612.639 24781.732 21137.517 9073.178 18415.689 21888.755 19624.855 65121.525 22163.392 8468.447 4122.027 8680.976 32103.368 22696.280 14152.793 22472.241 12220.369 20286.384 5845.051 12152.178 11001.231 16798.764 23297.164 19215.579 61946.664 20312.381 31319.519 32197.552 12195.142 17890.579
22574.519 39610.496 38028.038 25180.013 5834.040 82689.815 54470.495 37796.169 26243.657 38284.825 32653.363 39795.778 33204.700 48115.218 6141.276 30322.534 36225.166 20757.981 45084.574 35106.959 35805.791 24653.081 29283.263 38582.248 37445.749 37720.958 35670.220 38159.738 44361.092 35739.377 5726.151 44721.145 38376.973 39701.099 39434.625 17409.007 43377.797 40112.514 45737.959 38962.630 39445.022 20936.854 0.000 24580.790 44037.213 29191.215 36747.586 32529.303 28942.880 23163.578 27639.200 19526.183 38524.979 28880.560 10917.711 39293.884 24585.234 26244.568 24843.617 30594.950 25995.043 43785.159 39389.755 37764.854 41308.712 29918.653 26314.503 38022.712 30289.819 8563.768 27925.179 22667.386 29314.074 17222.768 37220.440 29615.731 34257.324 39762.870 38674.400 30618.193 32766.817 36964.012 34310.782 20088.047 39994.132 40023.274 37979.092 39424.093 30905.364 47572.361 39618.251 35598.861 24915.711 38581.793 38985.458 38754.942 77776.418 39335.719 27284.359 24633.747 19746.250 50045.926 41702.744 34954.873 39716.015 29580.422 39336.146 26612.592 29521.110 31801.047 37153.398 27567.692 39306.689 73826.152 39314.623 21570.562 50145.371 27151.521 38105.050
18204.128 17349.981 16211.637 19041.979 19924.725 70023.064 76512.052 15684.183 42596.702 16400.735 10813.071 17437.839 13949.118 59902.663 21951.241 10158.139 13354.938 7565.142 66202.823 12612.221 14877.732 121.251 14993.441 16047.359 14036.439 56088.524 12421.343 15446.472 20840.204 14548.052 19973.834 22090.486 16502.359 16647.408 17052.331 15957.366 64253.644 46738.503 23512.706 18515.903 16600.664 4016.610 24580.790 0.000 20602.021 5988.883 15098.512 32637.749 10829.282 36265.562 6798.172 32982.383 15943.941 7262.544 33095.835 18747.027 18098.673 21387.500 22840.233 49110.874 37397.841 26261.915 25574.654 15141.361 35288.059 5603.318 42662.227 16347.487 9300.079 19000.227 35448.485 36001.204 8903.102 7596.187 14790.510 31535.339 14820.969 29529.849 20272.717 6865.216 11649.870 14436.165 14441.105 5719.290 15444.738 16109.227 14499.322 17025.372 11470.921 26829.783 24911.151 21620.068 7023.619 16121.507 21277.517 18053.046 65030.694 21502.796 4956.486 152.360 11937.360 30737.331 21066.680 11226.726 21762.697 8910.670 18733.151 2069.242 8845.628 8232.753 14385.612 26070.742 16957.538 62088.787 18787.340 35193.899 30826.938 13485.707 15572.276
28072.472 5360.930 7068.588 26772.390 40089.447 56216.919 91628.495 6893.138 55763.416 6803.698 20728.444 5084.182 12827.208 67787.009 40029.596 14210.676 7830.142 23416.474 80824.541 9011.944 9597.761 20580.221 18908.347 5817.254 6646.210 69148.130 8394.079 6047.245 455.070 9374.053 40121.867 3106.976 6753.277 4395.074 5310.083 29912.312 78755.860 52672.693 4833.991 8768.017 4778.201 23443.802 44037.213 20602.021 0.000 15019.216 8180.547 37496.328 16233.367 48670.248 16425.435 46366.121 5823.766 15164.698 53410.189 8500.192 26364.878 28321.773 31018.538 62880.672 57357.987 15153.292 20221.641 6468.160 33810.141 15046.090 55816.253 7256.100 13942.238 36819.692 44655.159 48597.350 22765.631 26999.055 7092.346 38199.772 12085.294 26194.787 12367.780 13794.368 21896.541 7259.693 11610.254 23989.623 10740.394 4736.524 6141.260 5295.588 14146.269 9838.277 18814.721 19003.307 24991.557 5891.801 13570.747 8391.328 51500.163 13383.719 20989.319 20617.947 25784.760 14819.981 8027.714 9379.667 13209.507 22454.488 8386.886 18606.893 22448.484 12473.116 6961.212 32706.998 5450.482 49732.787 8530.512 48135.108 14867.535 20013.548 6232.176
17577.630 11396.169 10223.162 17577.231 25075.664 64567.896 79157.869 9704.696 44209.047 10414.011 12671.926 11497.410 8557.003 59750.658 25659.530 5042.021 7463.601 9177.458 68602.599 6640.084 8973.147 6005.794 11453.065 10120.544 8373.165 57794.338 6650.071 9547.699 15304.127 8612.771 25109.623 16242.173 10515.646 10862.032 11111.772 17159.382 66594.521 45760.993 17600.044 12596.987 10749.514 8425.323 29191.215 5988.883 15019.216 0.000 9114.490 30945.035 6703.100 37463.292 3005.504 34530.815 10024.264 2265.197 38391.650 12812.888 16763.695 19812.752 21854.078 51044.460 43386.711 20617.376 20780.109 9219.936 31843.066 2471.969 44270.181 10358.913 3932.129 22504.620 35370.857 37273.369 12329.950 12023.077 8833.876 30414.336 9280.107 25391.647 14661.036 1592.103 13845.566 8489.437 8802.128 9112.061 12330.680 10832.736 8882.422 11086.943 6414.518 20841.437 19932.283 17099.084 12208.453 10183.243 15773.933 12112.493 59596.290 15960.805 8740.218 6051.867 12736.533 24801.409 15100.389 5764.884 16183.578 12177.376 12793.276 4388.649 12130.041 2610.097 8484.643 24693.529 11011.483 56824.233 12854.733 36595.689 24889.736 10702.793 9639.676
19897.453 2961.897 1281.419 18667.336 33285.372 56253.674 83448.153 1298.946 47595.507 1543.855 19357.556 3198.519 4680.186 60196.576 32354.402 6432.990 2928.570 15991.355 72644.817 2752.113 1496.316 15118.448 10799.791 2454.069 4257.673 61004.141 4100.057 2578.150 8608.618 1194.243 33303.494 8032.757 1632.511 4118.369 2901.512 21850.677 70576.836 45290.109 8997.198 3766.036 3550.360 16983.888 36747.586 15098.512 8180.547 9114.490 0.000 30048.437 8180.754 40512.621 9341.790 38185.720 2498.987 8271.751 46595.899 3891.152 18222.264 20320.861 22968.523 54705.942 52490.275 12375.272 14784.940 2240.328 27824.968 10365.667 47648.770 1301.089 6528.419 29143.893 36701.269 40433.184 20201.417 20203.885 1692.943 30470.421 4069.059 20451.035 6993.091 8583.633 20621.920 1920.952 3504.935 17082.446 13004.671 6689.191 4536.774 2908.389 6083.976 11737.833 13559.975 12331.267 21035.862 2333.853 8346.669 3188.927 51334.444 8375.700 17241.106 15164.846 17848.373 15753.655 6015.480 5731.634 8443.539 19964.564 3843.699 13441.137 19934.267 7294.567 2498.309 24857.884 2760.496 48870.834 3938.918 39961.364 15839.311 11833.044 2182.706
14659.660 32316.788 30801.827 13612.943 34108.353 52378.044 58606.897 31268.649 23577.519 31026.489 43047.607 32600.889 25664.830 30307.180 26504.919 26844.370 32175.969 25447.295 47722.367 31049.274 28564.383 32755.365 20005.459 32431.505 33909.486 34905.122 32778.463 32626.051 37951.276 28973.496 34026.128 35785.491 31044.716 34101.856 32488.390 18948.129 45629.961 15242.111 35446.340 28751.751 33491.697 29920.654 32529.303 32637.749 37496.328 30945.035 30048.437 0.000 24565.370 17303.445 27981.116 17839.906 32503.305 28757.491 42851.053 29041.119 14543.114 11275.140 10033.818 30332.593 57919.102 26116.933 19149.794 32271.843 10753.013 33383.766 23598.300 30540.923 27911.304 25185.530 9844.444 17592.400 41539.071 29032.790 31664.499 3188.594 26019.870 14585.049 25443.098 32207.827 44058.585 31760.600 26649.417 28060.476 41980.228 36685.707 34337.327 32517.732 25883.826 33511.582 20434.939 18683.543 38986.780 32276.937 24506.288 29105.315 47744.014 24798.219 37571.111 32789.996 21336.191 32501.477 30193.776 33643.610 25100.548 41535.274 29151.985 33096.039 41471.326 32152.583 32324.193 6626.074 32363.210 43328.486 29015.845 17939.475 32582.049 20265.206 32225.221
12298.156 11142.651 9433.080 11648.204 25960.610 59392.889 75533.079 9402.453 39884.197 9704.867 19361.047 11376.200 4279.059 53950.762 24287.478 2383.671 8826.736 8438.332 64785.630 7547.259 7001.999 10909.066 4760.990 10419.988 10520.779 53396.251 8961.440 10217.718 16638.205 7043.824 25964.222 16176.618 9784.504 11902.427 11063.473 13686.417 62732.034 39591.117 16969.184 10021.341 11459.875 10861.416 28942.880 10829.282 16233.367 6703.100 8180.754 24565.370 0.000 32888.026 4174.368 30344.601 10409.700 4438.874 39127.364 10351.283 10981.887 13706.847 16046.368 46927.051 46803.309 16152.626 14747.596 9794.417 25158.604 9164.893 39940.353 9357.977 3357.256 21088.046 29835.011 32767.877 18760.513 13294.655 9153.949 24314.617 5336.902 18885.948 10327.149 7741.608 20518.618 9031.541 5369.560 10247.819 17594.764 13506.663 11050.379 11065.595 2098.032 18670.686 14122.749 10804.006 17819.609 10357.839 11054.374 9817.247 54388.673 11341.895 14930.790 10957.690 9683.003 21607.739 12766.621 9389.498 11665.559 18646.273 10393.277 10165.990 18593.453 7587.294 9435.900 18559.050 10924.042 51339.650 10372.386 32222.010 21704.840 4424.276 10002.016
20643.982 43323.554 41602.650 21958.252 27383.244 69165.514 43249.527 41810.546 7147.882 41869.091 46942.079 43595.004 35844.676 25342.927 18947.050 35213.665 41694.748 28928.028 32337.776 40419.779 39073.678 36383.029 29777.568 42941.765 43405.724 20512.436 41836.392 42880.742 49106.846 39319.594 27269.515 47821.265 41922.742 44550.329 43360.214 20451.206 30244.631 17707.016 48008.730 40636.874 44032.238 32430.212 23163.578 36265.562 48670.248 37463.292 40512.621 17303.445 32888.026 0.000 34620.147 3771.936 42963.829 35804.271 31023.079 40979.109 22309.334 20746.983 17960.379 14328.088 48786.220 40806.231 34151.679 42466.006 28048.790 39465.508 7194.977 41425.062 35937.128 19927.253 7864.642 519.393 44372.542 29709.089 41812.763 14357.161 36602.616 30965.095 38248.384 39026.409 47605.094 41759.287 37060.253 30574.695 49771.572 46391.413 43931.150 43375.110 34842.290 47403.940 35157.488 32150.062 40584.917 42838.572 37737.818 40784.591 64670.462 38090.994 40887.991 36396.667 24809.231 47575.539 42796.461 42072.704 38462.917 44503.311 41072.848 37615.636 44434.801 39570.235 42221.657 17494.955 43219.920 60132.118 40971.072 1599.377 47666.804 28730.194 42589.221
14590.398 12064.433 10592.641 14575.896 23966.473 63234.391 76577.217 10258.531 41427.056 10830.829 15359.214 12227.966 7234.148 56751.089 23663.128 3445.904 8597.182 7013.278 65964.723 7468.600 8719.657 6866.124 8760.394 10966.257 9928.157 55009.214 8150.007 10523.369 16765.283 8507.611 23987.367 17142.984 10928.569 12066.479 11856.360 14457.857 63943.566 42761.900 18287.245 12289.095 11806.751 7714.481 27639.200 6798.172 16425.435 3005.504 9341.790 27981.116 4174.368 34620.147 0.000 31762.812 10902.386 1297.356 37291.289 12564.700 13758.698 16820.343 18848.621 48317.512 43594.143 19576.634 18833.437 10132.514 29243.094 5404.295 41487.181 10642.823 2852.328 20464.212 32384.588 34443.668 14602.415 10864.846 9605.265 27414.015 8170.243 23059.213 13599.129 4462.130 16482.318 9334.542 7876.925 7749.881 15156.945 12718.173 10475.286 11842.116 4696.137 20902.600 18130.394 14950.164 13712.697 10977.526 14541.746 11910.452 58239.764 14782.723 10756.870 6915.539 10051.005 24428.451 14981.968 7798.304 15059.984 14496.290 12572.032 5993.006 14442.305 4973.262 9514.337 21698.646 11734.134 55291.568 12598.798 33791.732 24521.699 7789.675 10484.857
18316.818 41057.605 39323.111 19959.204 23627.201 70186.110 45269.335 39476.255 9683.131 39593.424 43571.265 41322.304 33560.340 29114.729 15177.507 32617.885 39170.816 25777.683 34461.920 37890.975 36782.744 33098.072 27600.515 40582.967 40851.134 23265.915 39229.172 40473.715 46793.848 36992.071 23513.918 45712.788 39653.302 42155.427 41066.407 17387.500 32399.034 20864.476 46019.975 38602.721 41662.728 29086.961 19526.183 32982.383 46366.121 34530.815 38185.720 17839.906 30344.601 3771.936 31762.812 0.000 40595.026 32982.695 27832.009 38950.529 20170.590 19087.166 16342.949 16592.489 45298.869 39502.995 33080.978 40054.044 28501.856 36438.401 9745.336 39165.312 33267.550 16192.013 9603.897 3337.786 40919.580 26230.366 39402.749 14690.655 34379.048 30495.043 36474.346 36110.244 44194.795 39322.065 34792.391 27268.049 46861.438 43833.278 41386.293 41078.172 32357.417 45768.166 33974.619 30697.111 37055.856 40491.421 36080.516 38702.597 65577.680 36441.900 37513.373 33109.150 21801.416 46309.683 40890.390 39356.268 36824.120 41061.717 39038.788 34416.104 40993.329 36734.266 39758.096 16593.587 40925.252 61135.829 38946.479 2318.821 46403.709 26352.725 40207.706
22332.621 1507.773 1805.762 21150.239 34822.572 56818.904 85844.880 1234.732 50035.312 1664.285 18718.292 1521.112 7164.611 62677.466 34335.571 8424.778 2597.258 17799.676 75056.940 3461.299 3992.949 15945.554 13286.968 143.136 2749.494 63462.966 3679.408 555.553 6231.742 3668.774 34847.401 6267.264 1698.310 1619.505 1147.129 24090.841 72992.489 47742.358 7576.420 4944.449 1068.747 18293.676 38524.979 15943.941 5823.766 10024.264 2498.987 32503.305 10409.700 42963.829 10902.386 40595.026 0.000 9702.494 48156.485 4887.832 20690.320 22818.453 25461.062 57134.431 53263.868 13397.632 16698.092 804.351 29969.569 10730.160 50089.100 2112.176 8258.032 31122.763 39199.630 42878.223 19974.832 21697.082 1308.640 32959.785 6564.828 22501.542 8677.404 9124.487 19973.284 1572.802 6002.977 18615.344 11179.582 4404.700 2741.668 1112.055 8322.944 11223.567 15400.757 14568.408 21325.408 327.402 10040.669 4345.488 51947.759 9994.337 17397.314 15988.788 19986.540 15713.330 6231.842 5261.056 9978.995 19708.613 4793.805 14107.363 19686.250 7752.478 1567.106 27354.576 1088.256 49681.894 4937.224 42393.395 15789.873 14251.653 421.710
15641.930 10911.209 9497.809 15480.781 25125.522 62821.090 77842.602 9118.468 42638.793 9726.322 14926.797 11062.800 6713.976 57742.817 24951.880 2977.071 7344.626 8300.885 67218.686 6249.726 7783.234 7312.262 9188.112 9772.504 8641.355 56217.484 6861.474 9304.985 15498.911 7521.644 25149.156 15961.004 9825.689 10821.120 10686.537 15710.340 65194.537 43638.471 17151.319 11403.105 10581.586 8712.138 28880.560 7262.544 15164.698 2265.197 8271.751 28757.491 4438.874 35804.271 1297.356 32982.695 9702.494 0.000 38457.700 11660.662 14698.373 17681.095 19803.639 49548.421 44410.402 19000.552 18713.094 8922.218 29587.763 4733.158 42698.487 9569.792 2037.535 21754.884 33423.440 35635.069 14458.914 12003.679 8416.289 28301.720 7560.868 23193.539 13011.625 3466.545 16091.921 8130.303 7181.485 8913.110 14006.828 11421.244 9187.319 10670.132 4347.496 19933.111 17925.053 14949.608 13966.263 9793.327 14035.243 10987.183 57835.972 14252.367 10741.448 7361.575 11314.373 23604.407 14048.866 6508.418 14506.202 14324.020 11659.256 6104.584 14274.024 3766.793 8281.776 22564.429 10568.044 54971.617 11697.513 34995.862 23696.113 8494.632 9288.398
33491.179 49355.255 47862.658 36096.168 13334.795 93567.526 53215.678 47549.686 32020.481 48107.387 39167.489 49515.306 43405.592 54359.150 16975.094 40257.024 45723.440 30732.872 45295.407 44697.052 45789.463 33142.866 39915.741 48228.925 46764.011 40881.633 45025.402 47743.382 53694.960 45666.494 13309.096 54418.599 48203.714 49189.756 49141.197 28292.011 43940.107 48667.138 55574.369 49111.742 49004.987 29966.480 10917.711 33095.835 53410.189 38391.650 46595.899 42851.053 39127.364 31023.079 37291.289 27832.009 48156.485 38457.700 0.000 49430.578 35493.005 37147.884 35669.712 34344.345 18733.527 54425.735 50243.959 47370.152 52030.354 38674.303 32084.530 47891.905 40068.945 19464.005 37094.046 30503.731 35723.874 26460.509 46873.927 39818.743 44463.581 50677.007 49135.843 39673.378 38967.223 46583.684 44448.018 29546.991 47997.935 49112.663 47273.774 49125.637 40989.487 57791.685 50429.836 46402.202 31492.141 48251.021 49536.334 48850.958 88664.440 49878.510 34676.635 33113.200 30338.566 60536.597 51864.788 44097.767 50251.385 36039.388 49462.879 35163.375 35991.414 40957.419 46702.120 38267.841 49020.893 84681.551 49455.447 29456.482 60635.549 37749.345 47744.198
20693.130 3852.307 3297.272 19036.940 36199.170 52375.041 84163.853 4062.217 48118.919 3308.419 23188.792 4093.896 6100.155 59345.921 34546.202 9272.170 6647.332 18697.888 73288.142 6643.246 3881.436 18776.409 11401.376 4751.916 7535.420 61337.294 7866.551 5347.577 8952.465 4201.541 36208.565 6894.227 3243.471 6035.593 4181.331 23487.354 71202.390 44189.962 7075.001 352.275 5434.419 20278.536 39293.884 18747.027 8500.192 12812.888 3891.152 29041.119 10351.283 40979.109 12564.700 38950.529 4887.832 11660.662 49430.578 0.000 18779.941 20329.184 23089.734 55284.910 56063.708 8598.633 12041.484 5270.884 25522.350 14221.962 48168.164 3007.555 9719.811 31364.600 36495.152 40948.633 24091.673 23269.280 5082.372 29861.833 5060.069 17955.420 3988.117 12417.541 24452.582 5445.834 4988.794 20143.268 16055.301 9117.433 7612.330 4225.171 8441.353 8387.359 10690.042 10503.767 24870.034 4561.408 5304.261 708.348 47462.381 5203.696 21109.613 18824.029 19852.910 11991.746 2440.658 9531.576 5142.570 23853.613 114.239 17187.484 23823.662 11158.371 5905.659 24485.495 4112.325 45045.907 50.422 40573.025 12080.870 12998.778 4907.729
2167.718 21014.883 19296.358 975.180 23848.571 58457.543 65402.811 19521.185 29419.103 19562.030 28544.670 21286.898 13545.755 43057.548 18712.956 13365.519 19591.058 11069.642 54546.324 18336.583 16772.161 18215.875 7470.022 20662.528 21334.390 42784.892 19878.854 20634.438 26803.076 17031.939 23801.945 25560.221 19614.819 22289.763 21055.625 7251.693 52466.524 29025.891 25850.223 18432.163 21756.727 15554.584 24585.234 18098.673 26364.878 16763.695 18222.264 14543.114 10981.887 22309.334 13758.698 20170.590 20690.320 14698.373 35493.005 18779.941 0.000 3300.744 5107.484 36561.454 47306.008 20296.424 14966.819 20225.331 18717.783 19131.223 29470.702 19116.336 14271.237 16029.086 18853.871 22246.815 26997.765 15270.811 19573.027 13679.191 14293.355 15383.105 16459.022 18156.207 29535.607 19545.315 14754.987 13773.294 28519.341 24301.346 21839.853 21071.207 12761.970 25838.744 15394.227 11520.198 24563.392 20553.449 16231.649 18538.008 53493.881 16599.897 23028.177 18250.987 7376.045 27014.106 20747.507 20370.856 16992.123 26992.377 18868.255 18577.857 26928.492 18335.758 20033.566 8030.091 20915.613 49743.764 18775.936 21823.751 27112.295 6596.324 20324.854
4131.896 22966.209 21294.359 2345.596 26118.506 56462.533 63995.749 21610.116 27894.136 21549.404 31776.970 23246.267 15670.013 40257.484 20187.967 16068.997 21991.505 14356.236 53083.899 20773.220 18833.669 21504.245 9581.428 22774.515 23747.432 41013.817 22402.351 22826.358 28769.753 19154.690 26061.661 27213.052 21590.629 24436.258 23053.415 9494.975 50989.503 25957.378 27307.412 19993.746 23869.948 18843.533 26244.568 21387.500 28321.773 19812.752 20320.861 11275.140 13706.847 20746.983 16820.343 19087.166 22818.453 17681.095 37147.884 20329.184 3300.744 0.000 2786.726 35075.026 49817.039 20482.921 14399.109 22432.384 15874.232 22220.139 27940.412 21082.325 17055.882 17816.352 16383.846 20755.054 30282.459 18420.145 21788.645 10627.570 16277.154 13558.315 17502.055 21147.526 32783.800 21806.469 16815.927 17046.019 31299.791 26669.042 24228.601 23074.049 15298.113 26711.368 15112.011 11631.598 27862.046 22647.728 17025.409 20188.502 51538.025 17383.304 26308.934 21539.853 10524.953 27290.027 22066.586 23043.684 17761.408 30272.909 20427.267 21821.396 30209.345 21222.812 22328.283 4883.373 22916.705 47639.594 20317.741 20477.267 27385.450 9290.585 22479.949
4666.198 25658.500 23972.284 4401.829 25298.623 57919.741 61209.027 24262.944 25107.670 24230.521 33448.626 25936.953 18298.244 37950.690 18713.045 18428.072 24528.781 15495.556 50297.542 23291.760 21489.367 22959.814 12179.331 25422.114 26281.303 38247.619 24879.320 25447.878 31464.500 21792.556 25231.370 29966.536 24274.787 27075.183 25734.036 9150.352 48203.350 24004.328 30082.311 22752.410 26518.689 19943.374 24843.617 22840.233 31018.538 21854.078 22968.523 10033.818 16046.368 17960.379 18848.621 16342.949 25461.062 19803.639 35669.712 23089.734 5107.484 2786.726 0.000 32288.453 49149.743 23175.108 16923.963 25048.036 16568.911 24202.978 25154.030 23768.156 19358.599 16652.723 13817.166 17968.756 31733.020 19009.074 24400.254 8703.205 18947.889 15440.069 20288.770 23258.859 34401.161 24401.372 19466.842 18062.676 33614.012 29226.672 26774.173 25753.367 17754.823 29488.367 17718.837 14354.222 29016.546 25300.554 19804.987 22935.406 53040.067 20161.872 27795.507 22991.539 11314.327 29984.091 24848.040 25432.160 20538.646 31749.862 23186.763 23480.563 31684.527 23441.951 24910.996 3445.016 25596.267 49013.957 23079.149 17697.947 30078.769 11630.535 25113.359
34808.653 57550.129 55821.487 36250.539 36075.313 79899.665 28923.441 56000.631 7181.468 56090.013 59438.799 57818.502 50056.503 21612.735 28802.022 49208.068 55753.756 42145.425 18010.596 54474.300 53284.959 49222.507 44029.327 57118.376 57439.090 7196.461 55821.155 57027.052 63312.754 53511.704 35957.757 62110.554 56146.720 58705.444 57573.039 33885.861 15919.714 23783.612 62324.753 54941.298 58203.022 45133.524 30594.950 49110.874 62880.672 51044.460 54705.942 30332.593 46927.051 14328.088 48317.512 16592.489 57134.431 49548.421 34344.345 55284.910 36561.454 35075.026 32288.453 0.000 53074.981 55021.661 48275.889 56608.815 40707.805 52879.615 7136.241 55653.301 49859.618 30921.514 20523.430 14337.621 56571.936 41977.553 55956.500 27792.056 50843.216 44672.364 52576.084 52630.224 59951.445 55884.452 51281.220 43402.845 63369.071 60422.254 57973.127 57586.336 48928.723 61713.777 49335.210 46436.105 52473.881 57021.965 52056.739 55077.506 75727.327 52408.627 53414.173 49228.845 38309.127 61758.400 57120.949 55942.381 52778.866 56748.701 55377.527 50670.464 56681.259 53290.773 56328.105 31673.757 57432.215 71023.081 55277.702 14745.969 61848.096 42882.804 56751.761
45726.463 54704.656 53609.204 48136.050 23877.823 105384.211 69947.354 53072.398 50555.362 53796.499 38324.314 54775.141 50735.972 72898.139 31602.510 47018.502 50666.742 38857.832 63044.332 49997.351 52182.335 37382.606 49297.604 53374.914 51114.598 59548.139 49644.632 52746.440 57511.525 51888.022 23951.679 59255.134 53898.095 53797.188 54391.434 40322.099 61870.815 66059.095 60777.726 55811.858 53832.658 35993.518 25995.043 37397.841 57357.987 43386.711 52490.275 57919.102 46803.309 48786.220 43594.143 45298.869 53263.868 44410.402 18733.527 56063.708 47306.008 49817.039 49149.743 53074.981 0.000 62954.666 60515.250 52468.383 65629.517 42570.745 50621.416 53744.711 46391.333 32748.050 53920.222 48274.058 35339.958 33716.926 52156.251 55185.715 51723.907 62533.194 57067.252 44141.009 37559.461 51793.142 51467.644 36607.261 49022.738 52639.026 51513.007 54361.938 48146.650 64226.067 60292.709 56399.668 32403.983 53461.979 57856.824 55382.097 100380.713 58139.778 36391.503 37337.048 40495.479 68010.105 58425.773 48256.598 58455.235 35682.761 56058.250 39160.059 35666.031 45511.736 51697.016 52293.251 54303.844 96860.277 56101.589 47188.475 68102.407 47148.549 52909.013
22458.039 12131.052 11895.126 20129.959 41600.655 44000.995 83872.501 12659.390 47877.215 11893.027 31732.494 12306.122 12342.714 55887.688 38375.871 16138.956 15228.036 24346.825 72929.570 15083.777 11869.990 26312.719 14513.154 13256.386 16106.729 60432.921 16439.805 13894.058 15531.369 12331.651 41589.670 12318.339 11821.524 14277.299 12510.127 26700.707 70825.634 40467.953 11149.410 8645.444 13744.226 26981.556 43785.159 26261.915 15153.292 20617.376 12375.272 26116.933 16152.626 40806.231 19576.634 39502.995 13397.632 19000.552 54425.735 8598.633 20296.424 20482.921 23175.108 55021.661 62954.666 0.000 6967.353 13853.350 19774.496 22378.563 47916.414 11606.010 16963.500 35368.934 34997.369 40884.810 32454.595 29380.252 13680.272 27792.915 11441.120 12362.393 5989.218 20536.998 32996.846 14040.778 11840.835 26383.113 24406.405 17320.911 16139.119 12556.240 14901.191 7653.306 5734.872 8871.914 32825.807 13071.247 5098.260 9252.108 39051.667 4818.298 29245.209 26362.051 24088.262 6809.059 7438.318 18094.713 4519.709 32234.703 8675.615 24975.576 32200.531 19391.586 14503.804 23347.932 12478.899 36500.575 8548.243 40733.600 6903.918 16676.921 13469.857
17104.176 15875.409 14911.097 14566.014 37982.888 44968.339 77066.205 15612.865 41163.983 15033.808 33110.610 16126.921 12364.988 49016.188 33635.645 15759.135 17646.342 21725.377 66125.196 17005.408 13654.593 25652.802 11258.785 16578.158 19028.696 53558.952 18704.446 17054.093 20653.461 14173.100 37954.477 17850.537 15002.731 18028.970 16180.478 21987.116 64021.170 33614.465 17095.314 11879.307 17410.455 25236.040 39389.755 25574.654 20221.641 20780.109 14784.940 19149.794 14747.596 34151.679 18833.437 33080.978 16698.092 18713.094 50243.959 12041.484 14966.819 14399.109 16923.963 48275.889 60515.250 6967.353 0.000 16848.607 13595.432 23000.164 41200.641 14598.409 16848.008 30833.311 28107.835 34259.098 33108.538 26868.745 16432.463 20866.597 11921.985 5974.753 8064.287 21228.627 34346.696 16701.616 12560.086 24182.401 27773.716 21073.939 19252.456 16222.211 14380.363 14453.729 1425.640 4127.703 32543.986 16389.280 6739.123 12429.068 39956.512 6872.808 29454.206 25701.606 20291.699 13513.846 12236.603 20172.644 7016.679 32949.683 12152.696 24776.231 32903.712 20402.836 17269.453 16657.448 16095.607 36710.735 11999.039 34173.589 13600.838 13373.747 16596.101
21824.268 2259.107 1997.503 20712.676 34035.718 57418.531 85288.337 1247.721 49522.691 1962.816 18099.535 2307.314 6763.229 62393.661 33614.288 7743.028 1803.894 17053.517 74514.159 2673.576 3708.118 15143.414 12869.153 907.014 2267.124 62972.634 2927.569 423.369 6859.245 3309.325 34061.110 7061.668 2031.931 2108.736 1925.110 23455.851 72453.056 47513.953 8380.734 5277.891 1702.085 17496.032 37764.854 15141.361 6468.160 9219.936 2240.328 32271.843 9794.417 42466.006 10132.514 40054.044 804.351 8922.218 47370.152 5270.884 20225.331 22432.384 25048.036 56608.815 52468.383 13853.350 16848.607 0.000 30006.598 9947.083 49577.063 2306.921 7522.234 30402.001 38815.961 42372.860 19278.165 20909.845 653.257 32654.801 6261.086 22589.107 8898.536 8327.609 19358.234 803.639 5657.321 17833.104 10936.964 4449.043 2408.655 1894.329 7723.978 11972.772 15581.671 14540.294 20560.877 1003.325 10265.810 4666.015 52535.912 10247.309 16644.060 15186.742 19316.669 16405.243 6830.114 4547.772 10261.510 19016.576 5186.842 13310.015 18992.850 6956.748 784.940 27019.012 1846.098 50222.905 5321.204 41873.693 16483.382 13737.205 453.541
20004.205 29299.081 28163.824 17793.233 41828.811 41992.168 68434.624 28811.622 34155.548 28320.346 44514.156 29562.354 24416.457 36949.857 35167.592 26956.789 30517.282 29285.846 57662.317 29664.282 26514.637 35391.217 20485.021 29860.885 32064.867 44719.439 31438.078 30264.062 34244.078 27013.551 41764.902 31429.952 28302.906 31399.382 29577.279 25337.242 55594.023 21657.327 30597.073 25327.474 30772.229 33618.917 41308.712 35288.059 33810.141 31843.066 27824.968 10753.013 25158.604 28048.790 29243.094 28501.856 29969.569 29587.763 52030.354 25522.350 18717.783 15874.232 16568.911 40707.805 65629.517 19774.496 13595.432 30006.598 0.000 34280.989 34171.592 27858.433 28117.293 33219.695 20450.354 28343.593 43803.886 33892.682 29515.491 13825.846 24326.133 7621.861 21538.006 32713.218 45677.007 29733.213 25005.555 32031.397 40763.573 34374.248 32361.548 29616.698 25680.948 27406.292 15012.526 15529.040 42219.486 29677.636 20266.610 25840.872 37255.294 20433.589 39879.220 35434.942 26055.553 25067.985 25831.626 32718.324 20600.648 43715.712 25635.610 35109.238 43659.773 32210.832 30316.615 13762.527 29480.757 32971.565 25482.834 28688.316 25129.814 21803.191 29812.371
19851.935 12203.354 11313.184 19964.078 25454.910 66379.438 80797.465 10686.597 46121.267 11459.889 10252.813 12250.146 10664.805 62044.017 26810.830 7381.022 8145.012 10762.395 70315.685 7662.423 10536.648 5569.299 13920.165 10847.843 8569.341 59699.600 7078.944 10200.131 15269.543 10107.973 25499.618 16699.275 11559.362 11236.357 11870.721 19054.173 68324.567 48150.581 18207.170 14050.248 11262.246 8986.525 29918.653 5603.318 15046.090 2471.969 10365.667 33383.766 9164.893 39465.508 5404.295 36438.401 10730.160 4733.158 38674.303 14221.962 19131.223 22220.139 24202.978 52879.615 42570.745 22378.563 23000.164 9947.083 34280.989 0.000 46183.653 11503.396 6232.005 23721.704 37624.919 39257.295 10175.704 12712.822 9702.853 32801.466 11273.498 27752.335 16505.598 1843.078 11446.911 9324.578 10728.159 10111.527 10589.426 10509.462 8999.149 11838.480 8726.730 21880.444 22092.300 19414.947 10679.031 10949.228 17691.882 13513.622 61426.440 17848.086 6893.751 5603.855 14659.461 26104.999 16365.048 5716.940 18038.959 9991.101 14185.624 3567.722 9949.240 3072.376 9165.986 27095.527 11792.885 58761.059 14267.546 38546.092 26189.226 13160.891 10395.726
27756.552 50476.651 48751.694 29139.926 31350.028 74304.621 36059.681 48945.350 71.563 49019.203 53173.405 50746.643 42989.092 22283.699 23428.374 42243.493 48762.271 35513.144 25143.512 47484.413 46218.514 42776.769 36940.714 50070.054 50460.578 13524.307 48865.014 49993.693 56250.717 46454.868 31232.220 55003.796 49074.359 51668.159 50506.593 27132.564 23049.800 19584.074 55201.599 47825.374 51157.839 38734.686 26314.503 42662.227 55816.253 44270.181 47648.770 23598.300 39940.353 7194.977 41487.181 9745.336 50089.100 42698.487 32084.530 48168.164 29470.702 27940.412 25154.030 7136.241 50621.416 47916.414 41200.641 49577.063 34171.592 46183.653 0.000 48578.685 42928.666 25122.661 13756.796 7224.593 50435.349 35753.433 48924.112 20906.007 43761.513 37746.735 45440.736 45847.701 53756.226 48861.106 44209.516 36943.137 56600.137 53446.139 50990.704 50520.706 41921.137 54579.717 42241.686 39307.567 46464.758 49970.241 44920.870 47968.321 69978.786 45272.941 47120.568 42786.374 31544.796 54665.710 49991.358 49040.402 45643.452 50591.640 48261.465 44132.235 50523.526 46455.622 49313.990 24571.634 50366.016 65337.728 48160.450 7720.716 54755.988 35841.264 49710.333
20854.161 1898.552 313.770 19516.441 34583.461 55327.597 84434.505 1066.436 48526.335 485.955 20205.950 2172.177 5605.536 60763.517 33588.691 7700.704 3659.614 17270.211 73612.714 3840.974 2403.116 16364.608 11654.320 2002.592 4569.486 61895.699 4882.535 2461.354 7699.230 2317.431 34601.271 6818.779 510.066 3602.932 1975.369 22987.112 71540.188 45770.790 7715.546 2983.937 2977.619 18281.679 38022.712 16347.487 7256.100 10358.913 1301.089 30540.923 9357.977 41425.062 10642.823 39165.312 2112.176 9569.792 47891.905 3007.555 19116.336 21082.325 23768.156 55653.301 53744.711 11606.010 14598.409 2306.921 27858.433 11503.396 48578.685 0.000 7826.850 30380.086 37437.762 41357.204 21199.682 21504.507 2075.099 31084.428 4829.320 20390.307 6605.962 9752.864 21468.901 2442.242 4373.502 18382.579 13223.380 6516.356 4704.190 1998.919 7271.659 10482.584 13312.027 12475.637 22182.427 1820.829 7972.808 2370.918 50425.720 7945.904 18347.463 16410.579 19040.031 14604.568 4872.830 6551.817 7955.341 20952.778 2933.323 14656.110 20925.048 8433.390 2900.748 25528.336 1841.683 48042.661 3057.920 40907.528 14688.120 12834.269 2003.613
15467.715 9325.670 7793.811 14969.119 26756.955 60802.959 78331.645 7511.402 42870.906 8039.861 16476.993 9506.680 4699.112 57286.578 26095.534 1160.565 6164.628 9545.213 67639.922 4934.568 5867.680 9349.629 7998.022 8307.390 7701.633 56420.525 5997.124 7931.003 14308.781 5659.096 26775.105 14432.363 8135.678 9548.101 9144.807 16233.614 65599.426 42948.326 15510.253 9448.991 9221.487 10564.500 30289.819 9300.079 13942.238 3932.129 6528.419 27911.304 3357.256 35937.128 2852.328 33267.550 8258.032 2037.535 40068.945 9719.811 14271.237 17055.882 19358.599 49859.618 46391.333 16963.500 16848.008 7522.234 28117.293 6232.005 42928.666 7826.850 0.000 22883.921 33118.930 35796.068 16261.675 13684.121 6949.501 27669.200 5525.110 21520.500 10974.805 4595.974 17677.637 6718.737 5146.325 10558.858 14258.152 10640.059 8250.777 9134.366 2496.659 18050.362 16008.877 13190.324 15965.490 8298.489 12007.658 9061.326 55820.430 12220.711 12641.846 9398.925 11952.922 21619.045 12132.312 6152.044 12471.555 16106.919 9725.171 8091.538 16060.067 4255.912 6981.043 21913.610 9017.014 52981.677 9754.610 35208.965 21711.524 7765.988 7836.466
14043.019 32076.012 30421.294 16643.730 8933.286 74274.212 57591.822 30277.275 25052.386 30687.255 28731.723 32284.757 25269.640 45194.233 3212.944 22734.306 29003.442 13455.356 47430.987 27807.942 28071.433 19098.172 20920.216 31163.376 30391.683 38073.465 28614.204 30813.223 37178.031 28066.140 8847.880 37176.066 30773.872 32428.832 31941.686 8847.501 45529.199 34955.797 38048.823 31023.709 32103.096 15007.394 8563.768 19000.227 36819.692 22504.620 29143.893 25185.530 21088.046 19927.253 20464.212 16192.013 31122.763 21754.884 19464.005 31364.600 16029.086 17816.352 16652.723 30921.514 32748.050 35368.934 30833.311 30402.001 33219.695 23721.704 25122.661 30380.086 22883.921 0.000 22489.857 19522.100 25731.619 11457.966 29815.607 22532.754 26304.545 31270.148 30431.436 24045.814 29153.905 29599.258 26431.185 13617.870 34238.351 33157.045 30939.277 31936.469 23133.201 39511.818 31082.945 27071.321 21566.667 31139.465 30658.371 30871.410 69341.823 31014.718 22807.856 19093.276 11538.894 41739.592 33729.821 28146.593 31400.382 25926.295 31416.480 20839.737 25859.784 25070.696 29860.648 19629.869 31807.614 65454.915 31381.029 18505.659 41839.220 18839.595 30701.285
17794.295 39312.007 37657.053 18214.327 31045.933 61304.334 49032.282 37988.224 13737.002 37908.982 46255.761 39593.710 32053.846 24475.501 22607.316 32218.672 38340.388 27883.344 38107.322 37106.885 35211.847 35569.673 25956.394 39154.178 40094.113 25452.626 38695.850 39210.202 45105.693 35537.609 30942.981 43385.955 37947.203 40818.041 39412.013 19692.548 36006.412 12466.353 43322.048 36171.722 40248.866 31988.568 27925.179 35448.485 44655.159 35370.857 36701.269 9844.444 29835.011 7864.642 32384.588 9603.897 39199.630 33423.440 37094.046 36495.152 18853.871 16383.846 13817.166 20523.430 53920.222 34997.369 28107.835 38815.961 20450.354 37624.919 13756.796 37437.762 33118.930 22489.857 0.000 8251.285 44119.592 29996.210 38171.753 7311.228 32649.760 24177.784 33312.858 36840.259 47088.642 38186.014 33196.655 30052.804 47348.843 43032.705 40583.939 39433.866 31571.055 42056.920 29263.943 26782.352 40809.843 39025.433 32594.093 36417.687 56822.515 32924.446 40338.826 35593.284 23513.316 41618.542 38027.517 39224.413 33269.594 44191.871 36598.448 36433.777 44124.060 37125.989 38703.676 12020.610 39276.436 52273.514 36478.942 8875.019 41704.600 25433.246 38863.048
20548.687 43255.371 41531.569 21917.095 26918.084 69535.404 43245.666 41730.365 7173.734 41798.757 46658.723 43525.792 35770.228 25786.845 18495.548 35085.498 41581.907 28690.351 32346.433 40305.624 38999.665 36118.290 29716.824 42857.850 43288.042 20629.645 41708.823 42788.586 49032.573 39239.562 26804.090 47780.417 41853.464 44460.804 43287.394 20225.094 30257.138 18224.244 47987.133 40605.365 43946.875 32150.721 22667.386 36001.204 48597.350 37273.369 40433.184 17592.400 32767.877 519.393 34443.668 3337.786 42878.223 35635.069 30503.731 40948.633 22246.815 20755.054 17968.756 14337.621 48274.058 40884.810 34259.098 42372.860 28343.593 39257.295 7224.593 41357.204 35796.068 19522.100 8251.285 0.000 44067.724 29394.708 41719.718 14613.358 36538.591 31150.145 38256.271 38840.199 47311.842 41661.550 36989.149 30303.209 49589.229 46273.985 43815.356 43301.771 34733.364 47436.555 35249.959 32201.875 40258.459 42756.593 37763.080 40745.494 65028.169 38117.673 40602.782 36131.340 24598.064 47662.202 42786.040 41925.355 38491.330 44201.528 41041.539 37370.458 44133.041 39399.678 42119.533 17602.737 43146.906 60499.012 40941.227 1096.847 47753.891 28635.656 42501.321
27086.789 21479.875 20962.860 27937.504 23781.213 76433.448 83100.338 20254.642 50367.419 21057.137 3443.877 21451.834 20822.327 68507.779 28259.013 17365.586 17584.468 16335.228 73108.294 17449.852 20584.894 8784.904 23328.642 20110.847 17359.225 63673.718 16377.228 19419.286 22833.573 20124.912 23865.809 25157.261 21149.744 19968.432 21104.652 24462.440 71229.904 55582.522 26861.801 23961.234 20200.808 12136.306 29314.074 8903.102 22765.631 12329.950 20201.417 41539.071 18760.513 44372.542 14602.415 40919.580 19974.832 14458.914 35723.874 24091.673 26997.765 30282.459 31733.020 56571.936 35339.958 32454.595 33108.538 19278.165 43803.886 10175.704 50435.349 21199.682 16261.675 25731.619 44119.592 44067.724 0.000 14691.887 19211.145 40421.074 21449.145 37633.499 26644.754 12005.596 3470.380 18824.013 20901.144 14069.130 13682.819 18070.592 17606.604 21064.741 18741.638 31139.580 32240.150 29406.514 4398.925 20253.384 27852.658 23390.332 71498.475 27999.390 3983.237 8751.033 20693.642 35682.846 26045.340 14730.967 28178.121 345.049 24041.028 8699.618 327.177 13070.979 18509.391 34973.646 21060.990 68903.219 24139.719 43191.992 35760.544 22080.370 19727.132
14484.190 22912.416 21457.416 16233.657 13125.892 71827.500 69040.284 21113.578 35685.798 21695.525 17461.469 23066.317 17453.730 54155.711 14360.360 13998.746 19268.429 5148.320 58819.923 18236.984 19502.661 7687.384 15615.147 21770.634 20361.940 49042.631 18604.979 21282.950 27299.691 19332.775 13151.749 27961.262 21793.350 22740.116 22690.216 10430.291 56895.309 41940.433 29146.462 22970.591 22545.985 3728.513 17222.768 7596.187 26999.055 12023.077 20203.885 29032.790 13294.655 29709.089 10864.846 26230.366 21697.082 12003.679 26460.509 23269.280 15270.811 18420.145 19009.074 41977.553 33716.926 29380.252 26868.745 20909.845 33892.682 12712.822 35753.433 21504.507 13684.121 11457.966 29996.210 29394.708 14691.887 0.000 20417.512 27312.253 18494.123 29469.590 23619.547 13410.244 18005.123 20124.319 18365.984 3129.564 22999.299 22845.526 20883.155 22673.758 14907.612 31653.584 26590.664 22742.015 10917.842 21795.192 24292.996 22647.148 66816.524 24595.619 11445.451 7678.375 7901.509 34874.087 25707.934 17782.972 24931.523 14840.905 23288.709 9531.271 14772.679 14624.860 20242.773 22448.124 22571.588 63458.390 23299.119 28507.777 34970.429 13503.562 21285.582
21171.103 2562.305 1795.443 20062.422 33541.300 57375.575 84638.870 1049.208 48869.760 1851.984 18146.396 2673.146 6121.869 61769.649 33028.352 7128.402 1626.678 16491.823 73863.190 2206.858 3114.171 14797.036 12222.034 1362.044 2597.443 62319.380 2841.370 1070.976 7489.391 2691.283 33565.237 7544.715 1941.670 2755.407 2289.453 22822.826 71801.782 46906.356 8788.626 5047.245 2314.617 17040.306 37220.440 14790.510 7092.346 8833.876 1692.943 31664.499 9153.949 41812.763 9605.265 39402.749 1308.640 8416.289 46873.927 5082.372 19573.027 21788.645 24400.254 55956.500 52156.251 13680.272 16432.463 653.257 29515.491 9702.853 48924.112 2075.099 6949.501 29815.607 38171.753 41719.718 19211.145 20417.512 0.000 32026.736 5645.872 22129.552 8549.419 8028.654 19408.490 387.636 5031.235 17328.838 11342.165 5029.961 2846.575 2268.498 7079.001 12177.740 15187.102 14024.208 20357.711 1377.966 9913.926 4435.513 52479.878 9915.777 16471.287 14841.222 18697.567 16503.232 6836.264 4507.544 9952.163 18957.360 5008.385 12999.300 18931.443 6669.070 849.383 26384.386 2182.098 50114.104 5132.714 41221.016 16583.731 13084.063 886.987
13334.291 32917.954 31326.296 12838.371 31465.010 55558.546 56340.976 31729.745 20880.033 31565.542 42149.659 33202.207 25929.299 29756.894 23656.943 26662.726 32382.926 24138.490 45417.973 31200.969 28974.432 31655.186 19998.816 32900.252 34135.411 32733.056 32878.527 33029.796 38654.061 29346.238 31378.299 36710.541 31593.699 34575.666 33055.039 16987.407 43317.300 15349.130 36519.772 29552.951 33982.263 28547.255 29615.731 31535.339 38199.772 30414.336 30470.421 3188.594 24314.617 14357.161 27414.015 14690.655 32959.785 28301.720 39818.743 29861.833 13679.191 10627.570 8703.205 27792.056 55185.715 27792.915 20866.597 32654.801 13825.846 32801.466 20906.007 31084.428 27669.200 22532.754 7311.228 14613.358 40421.074 27312.253 32026.736 0.000 26403.051 16881.630 26475.269 31768.160 43104.364 32085.071 26997.519 26641.836 41892.648 36999.006 34593.601 33080.844 25828.845 34976.680 22059.401 19810.797 37610.585 32757.316 25661.634 29851.773 50914.019 25977.996 36491.593 31686.379 19870.947 34361.537 31226.537 33602.814 26307.533 40442.451 29969.220 32180.035 40376.870 31848.898 32630.532 5755.605 32924.146 46509.643 29841.257 14892.938 34446.399 19909.888 32652.318
16062.238 6726.670 5025.098 14687.131 31282.154 55303.289 79646.506 5342.914 43709.529 5285.204 21227.394 7001.487 1057.989 56134.956 29486.869 4724.517 6287.844 13756.375 68812.684 5343.141 2572.793 14872.300 6826.842 6512.225 7960.732 57067.926 7122.978 6628.850 12527.753 2954.659 31287.395 11385.948 5332.572 8183.956 6787.487 18500.251 66737.527 41261.383 11932.386 4720.085 7603.665 15745.970 34257.324 14820.969 12085.294 9280.107 4069.059 26019.870 5336.902 36602.616 8170.243 34379.048 6564.828 7560.868 44463.581 5060.069 14293.355 16277.154 18947.889 50843.216 51723.907 11441.120 11921.985 6261.086 24326.133 11273.498 43761.513 4829.320 5525.110 26304.545 32649.760 36538.591 21449.145 18494.123 5645.872 26403.051 0.000 17187.492 5451.923 9450.354 22472.549 5745.012 679.793 15393.944 16488.041 10666.774 8352.505 6806.198 3599.751 13334.585 10901.212 8823.331 21454.522 6378.471 6499.765 4589.356 50326.467 6701.157 18005.845 14921.661 14796.740 16392.666 7446.649 8409.442 6946.810 21263.037 5112.581 13582.351 21221.800 8517.315 6314.898 20789.752 6649.246 47547.284 5076.788 36098.874 16488.254 8119.476 6249.616
17242.989 21761.904 20699.675 14665.386 39227.161 43074.868 73155.801 21372.738 37717.948 20841.936 37992.971 22020.181 17422.960 43643.303 33735.953 20372.865 23229.204 24486.246 62251.541 22465.817 19209.655 29621.980 14553.621 22387.615 24708.181 49476.081 24215.823 22824.139 26627.344 19720.043 39181.763 23811.209 20818.526 23889.108 22052.542 22616.081 60154.356 28218.258 23004.475 17774.046 23265.024 28498.161 39762.870 29529.849 26194.787 25391.647 20451.035 14585.049 18885.948 30965.095 23059.213 30495.043 22501.542 23193.539 50677.007 17955.420 15383.105 13558.315 15440.069 44672.364 62533.194 12362.393 5974.753 22589.107 7621.861 27752.335 37746.735 20390.307 21520.500 31270.148 24177.784 31150.145 37633.499 29469.590 22129.552 16881.630 17187.492 0.000 13967.321 26073.710 39197.834 22370.710 17858.490 27149.786 33448.934 26900.585 24972.495 22093.056 19028.108 20014.182 7390.669 8407.324 36552.006 22201.477 12673.945 18303.570 38114.600 12828.808 33816.037 29668.761 22072.330 18201.426 18209.983 25587.957 12986.464 37509.306 18067.945 29045.195 37458.030 25416.322 22949.320 13986.335 21961.106 34377.538 17914.610 31237.660 18274.598 16306.358 22368.511
18522.338 7811.184 6919.635 16543.245 36119.582 49911.328 81497.653 7651.197 45394.818 7018.262 26131.124 8063.619 6367.120 55736.030 33537.099 10156.878 9920.732 18682.241 70583.617 9519.071 6155.978 20323.664 9605.272 8552.447 11134.660 58427.168 11070.836 9066.152 12813.315 6657.159 36115.961 10358.181 6979.293 9968.115 8117.466 22058.383 68488.193 40494.880 10044.789 3815.200 9352.119 21074.399 38674.400 20272.717 12367.780 14661.036 6993.091 25443.098 10327.149 38248.384 13599.129 36474.346 8677.404 13011.625 49135.843 3988.117 16459.022 17502.055 20288.770 52576.084 57067.252 5989.218 8064.287 8898.536 21538.006 16505.598 45440.736 6605.962 10974.805 30431.436 33312.858 38256.271 26644.754 23619.547 8549.419 26475.269 5451.923 13967.321 0.000 14663.035 27391.781 8856.951 5864.098 20572.102 19829.190 13024.721 11305.441 8159.452 8942.295 9389.978 6733.985 6764.360 26864.567 8361.937 1367.292 4368.725 44945.168 1389.985 23335.159 20373.004 18939.269 11401.269 4757.773 12658.943 1533.665 26438.586 4100.731 19003.294 26401.399 13580.261 9398.411 21303.107 8034.423 42259.964 3947.475 37959.535 11500.122 11599.489 8608.997
19047.438 10566.147 9577.164 18945.035 26383.773 64537.599 80749.764 8980.549 45786.746 9737.636 11926.183 10634.146 8872.233 61187.651 27189.996 5756.528 6527.327 10757.523 70194.296 5921.366 8703.005 6856.862 12493.467 9234.346 7184.934 59372.006 5557.183 8612.777 14054.153 8281.182 26421.685 15227.686 9838.210 9782.223 10250.440 18744.431 68185.821 47104.879 16671.003 12237.627 9742.793 9747.261 30618.193 6865.216 13794.368 1592.103 8583.633 32207.827 7741.608 39026.409 4462.130 36110.244 9124.487 3466.545 39673.378 12417.541 18156.207 21147.526 23258.859 52630.224 44141.009 20536.998 21228.627 8327.609 32713.218 1843.078 45847.701 9752.864 4595.974 24045.814 36840.259 38840.199 12005.596 13410.244 8028.654 31768.160 9450.354 26073.710 14663.035 0.000 13144.420 7659.569 8895.705 10577.321 10752.969 9453.017 7662.565 10220.938 7058.565 20184.676 20297.408 17705.580 12455.265 9321.193 15852.765 11709.399 59583.916 16006.932 8722.535 6898.133 14321.200 24336.406 14595.978 4427.951 16196.475 11814.542 12384.342 4982.930 11774.013 1373.855 7558.535 26030.827 10163.517 56919.666 12462.502 38168.586 24421.712 11942.825 8768.076
29797.677 21442.037 21201.754 30450.526 27204.371 76775.843 86563.032 20455.085 53688.744 21252.780 1264.366 21368.684 21982.143 71529.161 31712.710 18827.930 17810.211 19210.037 76552.741 17925.399 21239.321 11528.631 25225.943 20114.951 17245.735 67037.091 16588.261 19425.871 21896.428 20746.018 27290.772 24548.137 21337.327 19685.872 21053.491 27515.336 74668.668 58356.342 26309.909 24369.951 20015.734 15219.104 32766.817 11649.870 21896.541 13845.566 20621.920 44058.585 20518.618 47605.094 16482.318 44194.795 19973.284 16091.921 38967.223 24452.582 29535.607 32783.800 34401.161 59951.445 37559.461 32996.846 34346.696 19358.234 45677.007 11446.911 53756.226 21468.901 17677.637 29153.905 47088.642 47311.842 3470.380 18005.123 19408.490 43104.364 22472.549 39197.834 27391.781 13144.420 0.000 19031.279 21869.457 17125.291 11895.041 17375.287 17390.621 21010.325 20169.971 30870.070 33371.731 30846.510 7855.019 20277.258 28668.896 23772.833 71886.957 28774.305 6763.046 11503.100 23584.310 35601.450 26187.151 14921.237 28910.031 3239.279 24387.906 10962.586 3304.113 13955.966 18631.257 37558.258 21032.492 69491.095 24502.311 46454.067 35672.722 24202.126 19788.756
21115.350 2914.266 2170.483 20051.104 33249.778 57755.805 84545.865 1433.330 48806.391 2236.714 17768.837 3008.034 6159.087 61834.727 32811.466 6951.882 1239.702 16250.203 73779.411 1889.866 3262.171 14441.401 12229.912 1649.809 2337.481 62269.001 2456.818 1215.504 7645.658 2805.452 33274.600 7838.941 2327.371 2879.723 2622.462 22678.514 71720.226 47000.878 9117.898 5400.903 2503.905 16726.817 36964.012 14436.165 7259.693 8489.437 1920.952 31760.600 9031.541 41759.287 9334.542 39322.065 1572.802 8130.303 46583.684 5445.834 19545.315 21806.469 24401.372 55884.452 51793.142 14040.778 16701.616 803.639 29733.213 9324.578 48861.106 2442.242 6718.737 29599.258 38186.014 41661.550 18824.013 20124.319 387.636 32085.071 5745.012 22370.710 8856.951 7659.569 19031.279 0.000 5111.523 17042.901 11083.730 4926.273 2643.349 2598.192 6973.203 12557.244 15468.324 14226.661 19975.423 1695.832 10218.802 4790.757 52858.571 10229.214 16086.149 14485.349 18526.405 16890.651 7222.753 4124.475 10274.223 18570.502 5374.064 12634.170 18544.504 6297.010 584.896 26428.208 2522.793 50484.870 5496.087 41153.850 16971.102 13029.653 1163.881
16480.660 6269.011 4542.507 15177.924 31232.046 55765.768 80061.696 4796.422 44156.964 4809.686 20621.263 6537.499 1240.083 56738.497 29623.172 4452.656 5618.198 13717.898 69239.237 4663.427 2023.475 14488.184 7308.260 5958.746 7302.030 57539.380 6443.519 6035.589 12048.090 2350.243 31239.845 11054.689 4865.515 7621.615 6300.649 18752.981 67166.846 41889.411 11691.540 4664.939 7054.581 15522.443 34310.782 14441.105 11610.254 8802.128 3504.935 26649.417 5369.560 37060.253 7876.925 34792.391 6002.977 7181.485 44448.018 4988.794 14754.987 16815.927 19466.842 51281.220 51467.644 11840.835 12560.086 5657.321 25005.555 10728.159 44209.516 4373.502 5146.325 26431.185 33196.655 36989.149 20901.144 18365.984 5031.235 26997.519 679.793 17858.490 5864.098 8895.705 21869.457 5111.523 0.000 15251.283 15809.887 10037.590 7702.812 6316.268 3470.678 13348.501 11517.385 9500.273 21001.327 5834.177 6981.078 4448.347 50794.702 7159.757 17503.158 14537.344 14958.243 16581.607 7417.284 7733.940 7382.366 20709.576 5027.291 13139.326 20669.379 7921.556 5675.395 21366.312 6160.628 48053.241 5011.739 36535.308 16676.008 8473.932 5671.389
13405.496 19809.766 18339.286 14748.176 16218.157 69144.020 70928.687 18006.677 36877.579 18579.246 16393.505 19968.412 14359.200 54443.134 16699.547 10871.605 16218.459 2747.537 60562.081 15159.629 16373.097 5833.642 12940.336 18685.603 17372.189 50371.295 15602.613 18212.072 24301.802 16204.371 16240.102 24873.381 18676.670 19696.091 19594.209 10400.515 58601.548 41635.599 26036.963 19846.000 19482.645 1937.289 20088.047 5719.290 23989.623 9112.061 17082.446 28060.476 10247.819 30574.695 7749.881 27268.049 18615.344 8913.110 29546.991 20143.268 13773.294 17046.019 18062.676 43402.845 36607.261 26383.113 24182.401 17833.104 32031.397 10111.527 36943.137 18382.579 10558.858 13617.870 30052.804 30303.209 14069.130 3129.564 17328.838 26641.836 15393.944 27149.786 20572.102 10577.321 17125.291 17042.901 15251.283 0.000 20625.731 19938.675 17901.551 19578.695 11800.456 28526.269 23820.333 20059.302 10968.751 18705.342 21287.224 19519.171 64132.123 21581.744 10365.389 5843.338 6770.911 31783.338 22581.261 14870.754 21910.064 14149.200 20161.964 7324.881 14081.112 11721.679 17179.603 21434.557 19473.959 60865.148 20173.391 29486.216 31879.296 10924.771 18201.498
29612.564 12298.185 12909.793 29227.118 35118.415 66864.879 91381.193 12181.646 56539.100 12821.115 10894.607 12108.149 16561.658 71543.677 37282.705 15232.226 10246.318 21332.091 80878.120 11156.310 14254.649 15365.225 21979.912 11311.625 8748.819 70124.404 9374.208 10764.999 10623.385 13751.935 35178.369 13728.846 12867.212 10130.611 11930.343 29487.412 78879.776 57118.325 15512.175 16123.711 10679.494 19301.818 39994.132 15444.738 10740.394 12330.680 13004.671 41980.228 17594.764 49771.572 15156.945 46861.438 11179.582 14006.828 47997.935 16055.301 28519.341 31299.791 33614.012 63369.071 49022.738 24406.405 27773.716 10936.964 40763.573 10589.426 56600.137 13223.380 14258.152 34238.351 47348.843 49589.229 13682.819 22999.299 11342.165 41892.648 16488.041 33448.934 19829.190 10752.969 11895.041 11083.730 15809.887 20625.731 0.000 7102.406 8528.401 11884.591 16102.497 20434.908 26517.419 25234.985 17053.695 11502.968 21196.157 15524.742 62105.060 21164.756 13406.171 15381.367 25065.545 25390.276 16998.244 8338.954 21157.576 13340.211 15957.341 13468.030 13356.708 10251.439 10509.615 36139.511 11977.412 60169.298 16104.003 48921.283 25446.076 22017.673 11221.274
25772.351 5280.878 6210.425 24851.557 35834.423 59969.071 88959.298 5580.470 53389.829 6059.157 16175.439 5065.559 11070.125 66752.432 36344.750 11216.258 4711.267 19704.516 78247.943 5976.639 8143.444 16077.776 17088.202 4514.780 2985.948 66901.492 4645.060 4139.416 4872.499 7716.005 35873.040 7173.041 6082.154 3088.008 4937.065 26873.005 76201.422 51926.486 8937.079 9231.126 3683.257 19199.402 40023.274 16109.227 4736.524 10832.736 6689.191 36685.707 13506.663 46391.413 12718.173 43833.278 4404.700 11421.244 49112.663 9117.433 24301.346 26669.042 29226.672 60422.254 52639.026 17320.911 21073.939 4449.043 34374.248 10509.462 53446.139 6516.356 10640.059 33157.045 43032.705 46273.985 18070.592 22845.526 5029.961 36999.006 10666.774 26900.585 13024.721 9453.017 17375.287 4926.273 10037.590 19938.675 7102.406 0.000 2463.787 4892.866 11564.718 13630.593 19758.556 18956.716 20260.021 4699.763 14378.247 8658.054 55169.290 14306.655 16259.087 16112.795 22567.900 18510.114 9899.734 5068.406 14259.459 17764.376 9012.909 14075.153 17756.141 8223.985 4370.252 31328.230 5005.836 53137.630 9164.126 45727.041 18572.473 17726.339 4579.884
23309.267 4100.939 4391.606 22395.188 33957.467 59464.778 86532.537 3654.590 50934.567 4322.745 16145.282 3996.821 8681.075 64350.244 34138.299 8776.775 2248.799 17487.654 75810.604 3513.254 5904.157 14482.431 14651.071 2882.738 550.933 64441.952 2325.870 2265.798 6421.808 5438.201 33990.953 7753.320 4377.859 2365.939 3709.208 24477.615 73761.838 49572.319 9355.242 7647.049 2626.196 17307.715 37979.092 14499.322 6141.260 8882.422 4536.774 34337.327 11050.379 43931.150 10475.286 41386.293 2741.668 9187.319 47273.774 7612.330 21839.853 24228.601 26774.173 57973.127 51513.007 16139.119 19252.456 2408.655 32361.548 8999.149 50990.704 4704.190 8250.777 30939.277 40583.939 43815.356 17606.604 20883.155 2846.575 34593.601 8352.505 24972.495 11305.441 7662.565 17390.621 2643.349 7702.812 17901.551 8528.401 2463.787 0.000 3664.170 9101.008 13548.465 17989.554 16864.449 19300.782 3068.448 12672.725 7039.303 54608.626 12650.010 15315.257 14521.488 20201.470 18213.238 8922.617 3283.472 12656.919 17324.982 7521.533 12533.602 17307.444 6332.824 2059.026 28908.519 3710.662 52387.583 7662.165 43272.357 18285.359 15262.891 2713.439
22778.928 436.800 1781.132 21487.672 35794.874 55808.297 86343.964 1667.271 50467.891 1524.960 19758.659 413.221 7531.628 62752.550 35149.111 9203.286 3698.039 18676.085 75534.079 4474.612 4302.192 17028.862 13619.926 990.656 3764.631 63855.632 4791.375 1659.424 5731.969 4094.379 35817.932 5302.817 1488.861 1811.786 46.123 24746.757 73464.310 47742.096 6521.488 4349.762 1212.459 19308.185 39424.093 17025.372 5295.588 11086.943 2908.389 32517.732 11065.595 43375.110 11842.116 41078.172 1112.055 10670.132 49125.637 4225.171 21071.207 23074.049 25753.367 57586.336 54361.938 12556.240 16222.211 1894.329 29616.698 11838.480 50520.706 1998.919 9134.366 31936.469 39433.866 43301.771 21064.741 22673.758 2268.498 33080.844 6806.198 22093.056 8159.452 10220.938 21010.325 2598.192 6316.268 19578.695 11884.591 4892.866 3664.170 0.000 8967.669 10115.206 14890.165 14338.955 22437.461 904.174 9503.464 3793.739 50947.758 9421.199 18508.435 17072.459 20710.101 14635.572 5262.336 6364.636 9367.702 20796.097 4120.212 15202.820 20774.475 8850.645 2672.545 27527.252 157.431 48726.310 4271.650 42840.574 14710.962 14728.259 1453.964
14210.211 9045.760 7340.019 13357.083 27763.453 58552.196 77573.022 7304.989 41865.738 7611.247 18965.617 9278.468 2589.528 55545.377 26337.723 1378.778 6856.943 10256.640 66810.794 5588.365 4938.235 11533.160 5878.755 8330.145 8585.477 55354.657 7124.884 8146.688 14554.146 4954.862 27771.761 14089.837 7691.924 9832.630 8965.471 15782.133 64753.344 41018.252 14915.783 8124.785 9377.598 12157.901 30905.364 11470.921 14146.269 6414.518 6083.976 25883.826 2098.032 34842.290 4696.137 32357.417 8322.944 4347.496 40989.487 8441.353 12761.970 15298.113 17754.823 48928.723 48146.650 14901.191 14380.363 7723.978 25680.948 8726.730 41921.137 7271.659 2496.659 23133.201 31571.055 34733.364 18741.638 14907.612 7079.001 25828.845 3599.751 19028.108 8942.295 7058.565 20169.971 6973.203 3470.678 11800.456 16102.497 11564.718 9101.008 8967.669 0.000 16815.782 13577.713 10693.905 18293.042 8264.791 9849.712 7867.371 53560.380 10096.406 15078.500 11582.704 11770.009 19991.641 10877.724 7779.359 10381.618 18591.623 8473.457 10447.201 18544.059 6551.277 7400.681 20087.064 8826.020 50651.162 8466.630 34207.679 20087.108 6169.980 7918.118
27911.006 9719.535 10627.244 25891.916 44579.198 46430.723 90631.644 11204.340 54536.214 10452.284 29639.288 9715.605 14391.960 63467.935 42663.485 17654.860 13756.338 27065.733 79699.841 14269.351 12183.166 26847.177 18919.847 11094.596 13780.359 67385.322 14897.474 11774.448 10071.112 12412.594 44587.529 6744.911 10351.159 11205.371 10078.090 31337.157 77599.558 48060.007 5013.258 8694.273 10939.804 28612.639 47572.361 26829.783 9838.277 20841.437 11737.833 33511.582 18670.686 47403.940 20902.600 45768.166 11223.567 19933.111 57791.685 8387.359 25838.744 26711.368 29488.367 61713.777 64226.067 7653.306 14453.729 11972.772 27406.292 21880.444 54579.717 10482.584 18050.362 39511.818 42056.920 47436.555 31139.580 31653.584 12177.740 34976.680 13334.585 20014.182 9389.978 20184.676 30870.070 12557.244 13348.501 28526.269 20434.908 13630.593 13548.465 10115.206 16815.782 0.000 13105.237 15313.285 32528.178 10972.096 9688.572 9008.074 41685.264 9328.787 28616.675 26893.159 27972.956 4981.827 5946.914 16478.482 8949.984 30863.091 8365.417 25124.754 30843.985 18836.917 12757.473 30168.301 10137.793 39898.644 8358.954 47186.308 5030.384 20806.620 11519.442
17554.320 14534.960 13625.554 15074.775 38004.824 45350.534 78164.196 14339.825 42203.601 13737.817 32127.953 14782.185 11427.850 50381.852 33950.548 14952.353 16448.179 21442.874 67221.462 15861.797 12487.278 24984.581 10999.507 15278.029 17784.409 54703.323 17532.875 15772.489 19244.873 13006.384 37980.733 16426.888 13702.791 16700.252 14847.812 22257.581 65117.376 34989.110 15671.058 10541.128 16085.529 24781.732 39618.251 24911.151 18814.721 19932.283 13559.975 20434.939 14122.749 35157.488 18130.394 33974.619 15400.757 17925.053 50429.836 10690.042 15394.227 15112.011 17718.837 49335.210 60292.709 5734.872 1425.640 15581.671 15012.526 22092.300 42241.686 13312.027 16008.877 31082.945 29263.943 35249.959 32240.150 26590.664 15187.102 22059.401 10901.212 7390.669 6733.985 20297.408 33371.731 15468.324 11517.385 23820.333 26517.419 19758.556 17989.554 14890.165 13577.713 13105.237 0.000 4030.578 31835.581 15088.137 5387.884 11102.336 40340.236 5497.796 28647.717 25033.750 20292.480 12424.088 10819.658 19034.888 5621.656 32070.803 10800.130 24018.685 32026.617 19415.787 16029.544 17671.588 14766.725 37220.207 10646.544 35131.703 12514.302 13169.076 15314.388
13687.883 14066.979 12771.150 11289.408 33986.573 49095.683 75342.847 13376.246 39265.465 12951.846 29631.721 14343.382 9016.991 48971.893 29961.635 12058.429 14988.692 17597.962 64406.393 14146.585 10991.859 21702.801 7131.115 14469.278 16551.113 52072.941 15915.583 14821.275 19455.016 11487.560 33961.490 17120.287 12946.367 16068.889 14303.138 18259.091 62304.856 33737.860 16769.702 10245.667 15440.253 21137.517 35598.861 21620.068 19003.307 17099.084 12331.267 18683.543 10804.006 32150.062 14950.164 30697.111 14568.408 14949.608 46402.202 10503.767 11520.198 11631.598 14354.222 46436.105 56399.668 8871.914 4127.703 14540.294 15529.040 19414.947 39307.567 12475.637 13190.324 27071.321 26782.352 32201.875 29406.514 22742.015 14024.208 19810.797 8823.331 8407.324 6764.360 17705.580 30846.510 14226.661 9500.273 20059.302 25234.985 18956.716 16864.449 14338.955 10693.905 15313.285 4030.578 0.000 28622.167 14292.521 5853.913 10675.484 44083.899 6167.247 25664.902 21751.108 16275.084 15668.963 11510.365 17232.425 6498.813 29266.077 10617.318 20934.059 29217.143 17015.704 14811.277 14855.747 14193.604 40818.003 10472.950 32000.078 15765.053 9252.180 14377.122
24352.623 22819.247 21990.919 25530.311 19390.558 76757.777 78784.362 21355.462 46395.999 22134.043 7784.271 22844.941 20664.588 65054.872 23991.411 16937.376 18771.947 13539.734 68850.787 18341.453 21109.352 6933.884 22009.470 21449.666 18950.391 59605.691 17646.331 20782.165 25129.463 20710.287 19474.148 27046.022 22233.064 21640.492 22472.215 21127.950 66988.025 52561.523 28651.080 24683.750 21754.360 9073.178 24915.711 7023.619 24991.557 12208.453 21035.862 38986.780 17819.609 40584.917 13712.697 37055.856 21325.408 13966.263 31492.141 24870.034 24563.392 27862.046 29016.546 52473.881 32403.983 32825.807 32543.986 20560.877 42219.486 10679.031 46464.758 22182.427 15965.490 21566.667 40809.843 40258.459 4398.925 10917.842 20357.711 37610.585 21454.522 36552.006 26864.567 12455.265 7855.019 19975.423 21001.327 10968.751 17053.695 20260.021 19300.782 22437.461 18293.042 32528.178 31835.581 28622.167 0.000 21563.726 27954.093 24162.224 71779.652 28151.996 4003.309 6886.549 17739.657 36782.918 27042.188 16126.631 28383.188 4672.681 24838.232 7875.124 4615.426 13750.045 19776.002 32365.626 22403.616 68937.757 24914.639 39349.522 36867.392 20443.591 21013.394
22215.506 1255.802 1521.394 21001.174 34918.668 56509.978 85747.660 1037.784 49916.742 1359.543 19021.323 1316.331 7013.824 62465.990 34352.408 8420.150 2804.517 17843.701 74952.674 3578.199 3814.060 16125.194 13133.563 191.399 3066.574 63333.097 3925.610 851.739 6309.824 3521.514 34942.460 6168.083 1386.555 1824.993 930.912 24043.892 72886.537 47513.885 7422.084 4620.745 1225.921 18415.689 38581.793 16121.507 5891.801 10183.243 2333.853 32276.937 10357.839 42838.572 10977.526 40491.421 327.402 9793.327 48251.021 4561.408 20553.449 22647.728 25300.554 57021.965 53461.979 13071.247 16389.280 1003.325 29677.636 10949.228 49970.241 1820.829 8298.489 31139.465 39025.433 42756.593 20253.384 21795.192 1377.966 32757.316 6378.471 22201.477 8361.937 9321.193 20277.258 1695.832 5834.177 18705.342 11502.968 4699.763 3068.448 904.174 8264.791 10972.096 15088.137 14292.521 21563.726 0.000 9724.164 4023.402 51636.554 9674.942 17644.632 16168.835 19964.532 15430.531 5919.511 5529.519 9656.973 19989.048 4467.062 14302.227 19966.133 7952.009 1787.836 27163.753 843.857 49363.305 4610.745 42278.834 15507.746 14141.186 553.863
18340.434 9147.077 8286.440 16236.062 36614.475 48803.690 80979.249 9018.488 44876.507 8383.074 27410.153 9394.739 7328.402 54764.206 33726.568 11123.221 11271.928 19280.876 70053.457 10836.685 7457.337 21333.304 9740.824 9914.892 12500.828 57811.831 12412.990 10432.593 14011.130 7965.536 36606.719 11412.933 8342.996 11314.242 9460.945 22147.402 67954.906 39478.529 10943.632 5153.840 10701.252 21888.755 38985.458 21277.517 13570.747 15773.933 8346.669 24506.288 11054.374 37737.818 14541.746 36080.516 10040.669 14035.243 49536.334 5304.261 16231.649 17025.409 19804.987 52056.739 57856.824 5098.260 6739.123 10265.810 20266.610 17691.882 44920.870 7972.808 12007.658 30658.371 32594.093 37763.080 27852.658 24292.996 9913.926 25661.634 6499.765 12673.945 1367.292 15852.765 28668.896 10218.802 6981.078 21287.224 21196.157 14378.247 12672.725 9503.464 9849.712 9688.572 5387.884 5853.913 27954.093 9724.164 0.000 5720.218 43826.778 368.750 24484.221 21382.797 19241.545 11081.866 5747.742 13988.730 762.697 27653.013 5414.972 20081.104 27614.496 14807.716 10762.642 20619.128 9381.149 41074.229 5261.316 37502.257 11181.506 11835.996 9975.589
20415.822 3459.283 2672.504 18828.450 35604.509 53069.149 83939.147 3436.172 47918.347 2716.675 22508.765 3721.512 5605.580 59399.294 34059.632 8648.879 5977.622 18119.663 73074.237 5940.699 3203.959 18081.535 11114.208 4214.793 6932.913 61175.261 7193.033 4775.155 8846.191 3505.046 35615.168 7037.502 2662.757 5600.101 3752.358 23077.279 70991.174 44284.284 7385.483 613.025 4983.394 19624.855 38754.942 18053.046 8391.328 12112.493 3188.927 29105.315 9817.247 40784.591 11910.452 38702.597 4345.488 10987.183 48850.958 708.348 18538.008 20188.502 22935.406 55077.506 55382.097 9252.108 12429.068 4666.015 25840.872 13513.622 47968.321 2370.918 9061.326 30871.410 36417.687 40745.494 23390.332 22647.148 4435.513 29851.773 4589.356 18303.570 4368.725 11709.399 23772.833 4790.757 4448.347 19519.171 15524.742 8658.054 7039.303 3793.739 7867.371 9008.074 11102.336 10675.484 24162.224 4023.402 5720.218 0.000 48153.582 5656.433 20401.435 18129.052 19378.830 12689.514 3071.680 8854.357 5633.602 23153.365 680.794 16484.639 23123.136 10450.227 5269.582 24423.488 3666.570 45720.665 754.128 40352.803 12778.190 12630.619 4326.002
55347.137 50511.662 50688.436 52778.358 77321.919 5011.939 100851.716 51432.493 69977.649 50634.237 70625.589 50612.951 51123.474 64460.891 71689.635 54886.639 54085.110 61677.960 90796.540 54075.897 50919.017 65093.515 51214.873 51805.028 54694.159 78091.135 55308.133 52487.847 51701.897 51374.365 77278.891 48425.298 50549.636 52429.547 50903.218 60730.666 88877.102 52688.104 46667.090 47568.581 52018.246 65121.525 77776.418 65030.694 51500.163 59596.290 51334.444 47744.014 54388.673 64670.462 58239.764 65577.680 51947.759 57835.972 88664.440 47462.381 53493.881 51538.025 53040.067 75727.327 100380.713 39051.667 39956.512 52535.912 37255.294 61426.440 69978.786 50425.720 55820.430 69341.823 56822.515 65028.169 71498.475 66816.524 52479.878 50914.019 50326.467 38114.600 44945.168 59583.916 71886.957 52858.571 50794.702 64132.123 62105.060 55169.290 54608.626 50947.758 53560.380 41685.264 40340.236 44083.899 71779.652 51636.554 43826.778 48153.582 0.000 43635.486 68278.444 65143.058 59920.636 36716.521 45717.098 56977.522 43417.140 71273.712 47521.689 63905.212 71240.749 58442.403 53256.447 50733.389 50911.275 4789.490 47413.232 65515.493 36662.214 53313.210 52110.971
18709.083 9055.328 8258.791 16602.517 36945.146 48608.259 81330.699 8999.694 45228.714 8344.033 27514.163 9297.393 7557.133 55044.620 34085.546 11355.478 11304.131 19594.632 70404.003 10908.784 7542.648 21557.107 10099.189 9866.135 12493.516 58153.971 12458.271 10400.138 13821.329 8045.384 36937.911 11172.223 8299.892 11232.982 9378.031 22510.994 68305.201 39748.218 10662.444 5075.603 10624.958 22163.392 39335.719 21502.796 13383.719 15960.805 8375.700 24798.219 11341.895 38090.994 14782.723 36441.900 9994.337 14252.367 49878.510 5203.696 16599.897 17383.304 20161.872 52408.627 58139.778 4818.298 6872.808 10247.309 20433.589 17848.086 45272.941 7945.904 12220.711 31014.718 32924.446 38117.673 27999.390 24595.619 9915.777 25977.996 6701.157 12828.808 1389.985 16006.932 28774.305 10229.214 7159.757 21581.744 21164.756 14306.655 12650.010 9421.199 10096.406 9328.787 5497.796 6167.247 28151.996 9674.942 368.750 5656.433 43635.486 0.000 24658.168 21606.564 19590.696 10724.878 5503.573 14048.658 394.176 27796.331 5312.279 20282.066 27758.511 14942.483 10765.153 20955.992 9302.767 40912.991 5159.059 37859.561 10824.507 12188.346 9944.595
23160.609 18898.060 18142.327 23964.681 22058.989 73239.366 80381.841 17484.746 47053.728 18272.690 6057.951 18913.102 17297.130 64770.783 25538.021 13700.527 14868.579 12476.290 70231.433 14514.270 17425.538 4836.489 19425.922 17524.335 14975.647 60462.345 13719.722 16849.843 21129.684 17000.911 22129.708 23053.723 18370.378 17662.274 18544.309 20752.313 68317.761 51690.531 24669.590 20941.987 17792.191 8468.447 27284.359 4956.486 20989.319 8740.218 17241.106 37571.111 14930.790 40887.991 10756.870 37513.373 17397.314 10741.448 34676.635 21109.613 23028.177 26308.934 27795.507 53414.173 36391.503 29245.209 29454.206 16644.060 39879.220 6893.751 47120.568 18347.463 12641.846 22807.856 40338.826 40602.782 3983.237 11445.451 16471.287 36491.593 18005.845 33816.037 23335.159 8722.535 6763.046 16086.149 17503.158 10365.389 13406.171 16259.087 15315.257 18508.435 15078.500 28616.675 28647.717 25664.902 4003.309 17644.632 24484.221 20401.435 68278.444 24658.168 0.000 4805.718 16849.628 32949.171 23219.189 12169.276 24865.436 3964.215 21071.333 4781.297 3900.461 9951.277 15859.546 31016.000 18480.522 65552.425 21155.547 39759.468 33031.856 18123.303 17097.482
18354.924 17399.510 16272.320 19194.329 19954.520 70134.745 76614.126 15740.000 42720.790 16459.715 10670.313 17485.120 14054.498 60046.363 22036.570 10265.881 13397.848 7710.079 66310.601 12666.751 14957.248 49.550 15134.428 16093.100 14061.780 56209.649 12455.284 15489.044 20853.286 14624.019 20004.430 22125.565 16561.323 16679.037 17099.735 16095.650 64362.724 46888.213 23554.773 18594.775 16637.890 4122.027 24633.747 152.360 20617.947 6051.867 15164.846 32789.996 10957.690 36396.667 6915.539 33109.150 15988.788 7361.575 33113.200 18824.029 18250.987 21539.853 22991.539 49228.845 37337.048 26362.051 25701.606 15186.742 35434.942 5603.855 42786.374 16410.579 9398.925 19093.276 35593.284 36131.340 8751.033 7678.375 14841.222 31686.379 14921.661 29668.761 20373.004 6898.133 11503.100 14485.349 14537.344 5843.338 15381.367 16112.795 14521.488 17072.459 11582.704 26893.159 25033.750 21751.108 6886.549 16168.835 21382.797 18129.052 65143.058 21606.564 4805.718 0.000 12082.935 30815.169 21138.564 11245.964 21864.927 8759.085 18809.358 2051.442 8694.006 8267.998 14428.938 26222.741 17005.835 62207.068 18864.553 35322.359 30904.591 13632.269 15618.973
6681.769 20807.638 19109.525 8334.894 17712.396 64917.294 66528.371 19042.886 31483.144 19380.356 22742.461 21034.175 13773.560 47975.934 14700.966 11574.524 18101.953 4374.574 55915.688 16847.260 16681.981 12058.595 9577.220 20010.443 19651.556 45067.280 17925.009 19737.557 26171.808 16724.308 17688.302 25858.802 19461.617 21402.081 20710.561 4423.266 53896.984 34905.710 26632.250 19509.415 21011.365 8680.976 19746.250 11937.360 25784.760 12736.533 17848.373 21336.191 9683.003 24809.231 10051.005 21801.416 19986.540 11314.373 30338.566 19852.910 7376.045 10524.953 11314.327 38309.127 40495.479 24088.262 20291.699 19316.669 26055.553 14659.461 31544.796 19040.031 11952.922 11538.894 23513.316 24598.064 20693.642 7901.509 18697.567 19870.947 14796.740 22072.330 18939.269 14321.200 23584.310 18526.405 14958.243 6770.911 25065.545 22567.900 20201.470 20710.101 11770.009 27972.956 20292.480 16275.084 17739.657 19964.532 19241.545 19378.830 59920.636 19590.696 16849.628 12082.935 0.000 30300.047 22202.355 17802.785 19970.304 20744.668 19908.082 12980.803 20677.557 15013.200 18859.616 14713.478 20572.605 56364.811 19867.839 23890.061 30399.512 7416.467 19569.942
29165.800 14213.424 14806.877 26887.825 47506.154 41479.434 90574.309 15474.489 54627.566 14680.776 34358.073 14260.047 17424.138 61806.221 44807.220 21031.306 18124.588 30027.329 79632.371 18444.164 15861.224 30767.480 20822.572 15575.943 18386.032 67070.833 19316.939 16268.644 15049.115 16193.102 47504.137 11725.691 14584.107 15923.627 14594.297 33205.520 77528.270 46390.967 9991.893 12222.418 15587.129 32103.368 50045.926 30737.331 14819.981 24801.409 15753.655 32501.477 21607.739 47575.539 24428.451 46309.683 15713.330 23604.407 60536.597 11991.746 27014.106 27290.027 29984.091 61758.400 68010.105 6809.059 13513.846 16405.243 25067.985 26104.999 54665.710 14604.568 21619.045 41739.592 41618.542 47662.202 35682.846 34874.087 16503.232 34361.537 16392.666 18201.426 11401.269 24336.406 35601.450 16890.651 16581.607 31783.338 25390.276 18510.114 18213.238 14635.572 19991.641 4981.827 12424.088 15668.963 36782.918 15430.531 11081.866 12689.514 36716.521 10724.878 32949.171 30815.169 30300.047 0.000 9741.045 20953.003 10339.558 35419.486 12008.746 29168.187 35396.396 23033.106 17176.996 30094.993 14630.745 34921.598 11950.900 47525.112 99.643 22909.247 15955.792
22725.172 4826.071 5090.344 20933.185 38638.404 50592.655 86029.147 5790.876 49943.856 4988.203 24929.062 4961.436 8498.058 60478.279 36902.772 11709.672 8462.421 21133.106 75131.418 8706.835 6269.410 21091.511 13496.747 6088.943 8980.453 63061.026 9676.168 6770.750 8447.918 6538.779 38647.524 5668.650 4895.845 6894.148 5216.797 25746.551 73040.090 45214.283 5297.388 2753.144 6400.229 22696.280 41702.744 21066.680 8027.714 15100.389 6015.480 30193.776 12766.621 42796.461 14981.968 40890.390 6231.842 14048.866 51864.788 2440.658 20747.507 22066.586 24848.040 57120.949 58425.773 7438.318 12236.603 6830.114 25831.626 16365.048 49991.358 4872.830 12132.312 33729.821 38027.517 42786.040 26045.340 25707.934 6836.264 31226.537 7446.649 18209.983 4757.773 14595.978 26187.151 7222.753 7417.284 22581.261 16998.244 9899.734 8922.617 5262.336 10877.724 5946.914 10819.658 11510.365 27042.188 5919.511 5747.742 3071.680 45717.098 5503.573 23219.189 21138.564 22202.355 9741.045 0.000 11337.560 5274.431 25792.948 2419.304 19448.792 25766.728 13292.846 7570.484 26009.166 5212.048 43465.014 2412.976 42449.848 9825.983 15217.813 6398.500
21617.141 6768.801 6291.346 21031.585 30800.720 61877.996 84319.148 5556.703 48981.999 6359.429 13657.617 6762.879 8329.931 63301.028 31324.335 7005.933 2892.556 14712.695 73669.587 3173.441 6559.340 11207.468 13649.719 5393.861 2858.451 62542.919 1669.540 4707.220 9630.612 6042.286 30837.373 10998.641 6448.262 5543.102 6402.550 22176.708 71638.236 48795.502 12546.635 9454.607 5627.845 14152.793 34954.873 11226.726 9379.667 5764.884 5731.634 33643.610 9389.498 42072.704 7798.304 39356.268 5261.056 6508.418 44097.767 9531.576 20370.856 23043.684 25432.160 55942.381 48256.598 18094.713 20172.644 4547.772 32718.324 5716.940 49040.402 6551.817 6152.044 28146.593 39224.413 41925.355 14730.967 17782.972 4507.544 33602.814 8409.442 25587.957 12658.943 4427.951 14921.237 4124.475 7733.940 14870.754 8338.954 5068.406 3283.472 6364.636 7779.359 16478.482 19034.888 17232.425 16126.631 5529.519 13988.730 8854.357 56977.522 14048.658 12169.276 11245.964 17802.785 20953.003 11337.560 0.000 14141.921 14470.768 9466.672 9251.376 14446.558 3158.132 3779.032 27856.341 6349.298 54575.004 9581.352 41323.812 21031.152 13802.141 4997.837
19102.250 8992.059 8266.715 16991.809 37307.419 48385.342 81700.290 9015.610 45599.392 8339.521 27648.641 9227.554 7827.616 55332.703 34473.395 11625.787 11370.786 19941.606 70772.524 11017.630 7670.744 21815.517 10486.926 9848.368 12517.041 58512.478 12537.483 10399.163 13643.709 8166.745 37300.675 10938.256 8291.093 11178.072 9323.895 22902.519 68673.425 40024.859 10381.325 5039.931 10576.215 22472.241 39716.015 21762.697 13209.507 16183.578 8443.539 25100.548 11665.559 38462.917 15059.984 36824.120 9978.995 14506.202 50251.385 5142.570 16992.123 17761.408 20538.646 52778.866 58455.235 4519.709 7016.679 10261.510 20600.648 18038.959 45643.452 7955.341 12471.555 31400.382 33269.594 38491.330 28178.121 24931.523 9952.163 26307.533 6946.810 12986.464 1533.665 16196.475 28910.031 10274.223 7382.366 21910.064 21157.576 14259.459 12656.919 9367.702 10381.618 8949.984 5621.656 6498.813 28383.188 9656.973 762.697 5633.602 43417.140 394.176 24865.436 21864.927 19970.304 10339.558 5274.431 14141.921 0.000 27971.568 5248.211 20517.728 27934.475 15112.716 10801.056 21309.157 9253.715 40726.335 5096.290 38236.579 10439.171 12571.040 9945.849
27109.016 21212.606 20713.617 27928.769 24062.361 76205.566 83323.965 20002.090 50523.848 20804.972 3133.800 21181.694 20648.200 68592.219 28473.901 17217.278 17330.805 16380.032 73316.602 17213.989 20366.496 8791.508 23234.983 19845.111 17083.393 63844.627 16120.975 19153.070 22519.527 19903.393 24146.265 24859.571 20897.103 19685.192 20836.245 24547.797 71434.599 55620.849 26567.812 23726.622 19923.452 12220.369 29580.422 8910.670 22454.488 12177.376 19964.564 41535.274 18646.273 44503.311 14496.290 41061.717 19708.613 14324.020 36039.388 23853.613 26992.377 30272.909 31749.862 56748.701 35682.761 32234.703 32949.683 19016.576 43715.712 9991.101 50591.640 20952.778 16106.919 25926.295 44191.871 44201.528 345.049 14840.905 18957.360 40442.451 21263.037 37509.306 26438.586 11814.542 3239.279 18570.502 20709.576 14149.200 13340.211 17764.376 17324.982 20796.097 18591.623 30863.091 32070.803 29266.077 4672.681 19989.048 27653.013 23153.365 71273.712 27796.331 3964.215 8759.085 20744.668 35419.486 25792.948 14470.768 27971.568 0.000 23801.906 8626.837 68.544 12860.082 18249.768 34978.215 20793.982 68693.878 23901.816 43330.610 35496.792 22013.628 19464.768
20777.576 3744.962 3219.626 19128.740 36227.201 52432.385 84254.859 3983.781 48212.149 3224.026 23124.277 3985.120 6148.936 59456.524 34599.445 9290.369 6580.051 18730.007 73380.205 6595.002 3876.911 18761.822 11483.765 4657.294 7449.885 61434.166 7800.414 5257.677 8839.246 4185.362 36236.955 6792.905 3157.259 5929.940 4076.219 23553.759 71294.713 44301.995 6990.436 436.369 5330.259 20286.384 39336.146 18733.151 8386.886 12793.276 3843.699 29151.985 10393.277 41072.848 12572.032 39038.788 4793.805 11659.256 49462.879 114.239 18868.255 20427.267 23186.763 55377.527 56058.250 8675.615 12152.696 5186.842 25635.610 14185.624 48261.465 2933.323 9725.171 31416.480 36598.448 41041.539 24041.028 23288.709 5008.385 29969.220 5112.581 18067.945 4100.731 12384.342 24387.906 5374.064 5027.291 20161.964 15957.341 9012.909 7521.533 4120.212 8473.457 8365.417 10800.130 10617.318 24838.232 4467.062 5414.972 680.794 47521.689 5312.279 21071.333 18809.358 19908.082 12008.746 2419.304 9466.672 5248.211 23801.906 0.000 17165.089 23772.218 11120.152 5828.284 24589.627 4008.614 45113.700 153.662 40664.223 12097.448 13070.743 4819.681
18914.955 15544.713 14499.066 19489.236 21992.519 68884.455 78251.492 13931.470 44067.713 14672.903 9971.409 15616.040 12790.327 60909.181 23841.452 9081.260 11510.246 8700.600 67884.315 10858.280 13359.459 2020.750 14646.393 14216.873 12086.395 57599.884 10520.931 13595.161 18834.576 12991.569 22041.203 20185.744 14774.149 14727.537 15232.010 17193.171 65920.880 47470.257 21649.378 16977.473 14713.337 5845.051 26612.592 2069.242 18606.893 4388.649 13441.137 33096.039 10165.990 37615.636 5993.006 34416.104 14107.363 6104.584 35163.375 17187.484 18577.857 21821.396 23480.563 50670.464 39160.059 24975.576 24776.231 13310.015 35109.238 3567.722 44132.235 14656.110 8091.538 20839.737 36433.777 37370.458 8699.618 9531.271 12999.300 32180.035 13582.351 29045.195 19003.294 4982.930 10962.586 12634.170 13139.326 7324.881 13468.030 14075.153 12533.602 15202.820 10447.201 25124.754 24018.685 20934.059 7875.124 14302.227 20081.104 16484.639 63905.212 20282.066 4781.297 2051.442 12980.803 29168.187 19448.792 9251.376 20517.728 8626.837 17165.089 0.000 8568.626 6355.836 12541.462 26604.582 15143.851 61070.615 17229.974 36595.326 29255.746 13387.051 13749.480
27043.348 21190.575 20686.501 27865.133 24005.645 76173.332 83259.477 19975.852 50455.738 20778.640 3185.116 21160.531 20604.748 68524.101 28408.758 17169.415 17304.828 16313.154 73250.901 17183.402 20331.880 8726.522 23179.587 19822.607 17063.956 63776.953 16095.690 19130.700 22514.891 19869.471 24089.416 24847.897 20870.901 19668.230 20814.552 24479.627 71368.650 55554.384 26554.734 23695.822 19904.543 12152.178 29521.110 8845.628 22448.484 12130.041 19934.267 41471.326 18593.453 44434.801 14442.305 40993.329 19686.250 14274.024 35991.414 23823.662 26928.492 30209.345 31684.527 56681.259 35666.031 32200.531 32903.712 18992.850 43659.773 9949.240 50523.526 20925.048 16060.067 25859.784 44124.060 44133.041 327.177 14772.679 18931.443 40376.870 21221.800 37458.030 26401.399 11774.013 3304.113 18544.504 20669.379 14081.112 13356.708 17756.141 17307.444 20774.475 18544.059 30843.985 32026.617 29217.143 4615.426 19966.133 27614.496 23123.136 71240.749 27758.511 3900.461 8694.006 20677.557 35396.396 25766.728 14446.558 27934.475 68.544 23772.218 8568.626 0.000 12823.648 18225.468 34913.671 20771.867 68657.506 23871.827 43262.174 35473.817 21955.154 19441.272
19367.174 9199.080 8247.302 19080.483 27652.506 63386.319 81526.725 7633.838 46395.689 8399.555 12713.034 9263.799 8050.734 61392.567 28235.879 5373.635 5155.223 11681.825 70928.710 4592.969 7524.037 8226.341 12251.775 7863.185 5842.688 59976.360 4188.997 7239.369 12743.921 7077.535 27688.220 13857.867 8499.570 8417.850 8880.522 19426.495 68910.017 47154.113 15297.181 10993.335 8370.535 11001.231 31801.047 8232.753 12473.116 2610.097 7294.567 32152.583 7587.294 39570.235 4973.262 36734.266 7752.478 3766.793 40957.419 11158.371 18335.758 21222.812 23441.951 53290.773 45511.736 19391.586 20402.836 6956.748 32210.832 3072.376 46455.622 8433.390 4255.912 25070.696 37125.989 39399.678 13070.979 14624.860 6669.070 31848.898 8517.315 25416.322 13580.261 1373.855 13955.966 6297.010 7921.556 11721.679 10251.439 8223.985 6332.824 8850.645 6551.277 18836.917 19415.787 17015.704 13750.045 7952.009 14807.716 10450.227 58442.403 14942.483 9951.277 8267.998 15013.200 23033.106 13292.846 3158.132 15112.716 12860.082 11120.152 6355.836 12823.648 0.000 6186.060 26096.250 8794.920 55833.862 11204.348 38756.319 23117.457 11943.702 7398.558
21578.679 3043.593 2608.681 20552.266 33367.384 58145.214 84966.872 1845.072 49258.928 2628.638 17370.805 3084.537 6701.247 62382.908 33071.257 7294.918 1031.654 16474.765 74210.460 2055.036 3845.388 14385.949 12748.044 1681.988 1760.812 62733.202 2145.625 1063.294 7329.841 3383.855 33394.186 7765.436 2709.733 2568.204 2704.763 23045.214 72153.641 47563.382 9127.914 5882.249 2303.436 16798.764 37153.398 14385.612 6961.212 8484.643 2498.309 32324.193 9435.900 42221.657 9514.337 39758.096 1567.106 8281.776 46702.120 5905.659 20033.566 22328.283 24910.996 56328.105 51697.016 14503.804 17269.453 784.940 30316.615 9165.986 49313.990 2900.748 6981.043 29860.648 38703.676 42119.533 18509.391 20242.773 849.383 32630.532 6314.898 22949.320 9398.411 7558.535 18631.257 584.896 5675.395 17179.603 10509.615 4370.252 2059.026 2672.545 7400.681 12757.473 16029.544 14811.277 19776.002 1787.836 10762.642 5269.582 53256.447 10765.153 15859.546 14428.938 18859.616 17176.996 7570.484 3779.032 10801.056 18249.768 5828.284 12541.462 18225.468 6186.060 0.000 26965.855 2629.465 50915.895 5956.073 41603.233 17255.653 13497.954 1238.040
8034.385 27385.431 25759.404 7145.272 28416.251 55554.374 60540.438 26130.602 24533.143 26005.187 36573.311 27668.661 20269.315 35466.930 21429.821 20908.485 26687.063 18827.595 49598.664 25492.226 23362.105 26189.197 14279.113 27300.824 28442.017 37217.219 27155.397 27401.508 33159.475 23716.402 28343.769 31372.580 26038.400 28973.603 27503.399 12547.867 47495.386 21074.051 31302.585 24164.663 28389.660 23297.164 27567.692 26070.742 32706.998 24693.529 24857.884 6626.074 18559.050 17494.955 21698.646 16593.587 27354.576 22564.429 38267.841 24485.495 8030.091 4883.373 3445.016 31673.757 52293.251 23347.932 16657.448 27019.012 13762.527 27095.527 24571.634 25528.336 21913.610 19629.869 12020.610 17602.737 34973.646 22448.124 26384.386 5755.605 20789.752 13986.335 21303.107 26030.827 37558.258 26428.208 21366.312 21434.557 36139.511 31328.230 28908.519 27527.252 20087.064 30168.301 17671.588 14855.747 32365.626 27163.753 20619.128 24423.488 50733.389 20955.992 31016.000 26222.741 14713.478 30094.993 26009.166 27856.341 21309.157 34978.215 24589.627 26604.582 34913.671 26096.250 26965.855 0.000 27369.990 46582.119 24468.483 17542.307 30185.502 14155.284 27035.019
22625.089 419.521 1624.148 21331.215 35691.107 55775.316 86191.398 1532.201 50313.229 1367.545 19779.495 494.792 7376.934 62596.792 35020.125 9073.556 3648.342 18556.372 75380.729 4388.674 4147.591 16962.043 13463.662 956.905 3788.776 63699.899 4760.873 1642.940 5887.468 3944.247 35713.781 5416.142 1331.644 1933.693 141.334 24603.544 73310.781 47588.159 6607.777 4228.674 1322.626 19215.579 39306.689 16957.538 5450.482 11011.483 2760.496 32363.210 10924.042 43219.920 11734.134 40925.252 1088.256 10568.044 49020.893 4112.325 20915.613 22916.705 25596.267 57432.215 54303.844 12478.899 16095.607 1846.098 29480.757 11792.885 50366.016 1841.683 9017.014 31807.614 39276.436 43146.906 21060.990 22571.588 2182.098 32924.146 6649.246 21961.106 8034.423 10163.517 21032.492 2522.793 6160.628 19473.959 11977.412 5005.836 3710.662 157.431 8826.020 10137.793 14766.725 14193.604 22403.616 843.857 9381.149 3666.570 50911.275 9302.767 18480.522 17005.835 20572.605 14630.745 5212.048 6349.298 9253.715 20793.982 4008.614 15143.851 20771.867 8794.920 2629.465 27369.990 0.000 48676.933 4159.302 42686.406 14706.830 14575.979 1397.694
51531.222 48289.690 48318.887 48991.211 73591.837 9050.414 96063.111 49075.318 65337.845 48287.460 68226.788 48413.429 48287.103 59688.715 67713.332 52001.187 51693.221 58344.918 86017.365 51584.311 48339.473 62157.664 47924.872 49538.762 52429.846 73324.407 52912.057 50209.404 49969.564 48813.524 73544.468 46630.208 48207.918 50290.649 48680.911 56945.181 84101.272 47919.657 44911.698 45121.769 49841.025 61946.664 73826.152 62088.787 49732.787 56824.233 48870.834 43328.486 51339.650 60132.118 55291.568 61135.829 49681.894 54971.617 84681.551 45045.907 49743.764 47639.594 49013.957 71023.081 96860.277 36500.575 36710.735 50222.905 32971.565 58761.059 65337.728 48042.661 52981.677 65454.915 52273.514 60499.012 68903.219 63458.390 50114.104 46509.643 47547.284 34377.538 42259.964 56919.666 69491.095 50484.870 48053.241 60865.148 60169.298 53137.630 52387.583 48726.310 50651.162 39898.644 37220.207 40818.003 68937.757 49363.305 41074.229 45720.665 4789.490 40912.991 65552.425 62207.068 56364.811 34921.598 43465.014 54575.004 40726.335 68693.878 45113.700 61070.615 68657.506 55833.862 50915.895 46582.119 48676.933 0.000 44995.948 61011.030 34878.062 49973.801 49812.391
20691.723 3897.623 3347.692 19030.439 36225.745 52326.126 84157.813 4112.639 48111.259 3358.709 23238.508 4138.343 6118.483 59321.030 34561.978 9302.650 6697.311 18722.941 73281.332 6691.030 3919.630 18816.912 11401.428 4801.212 7585.677 61326.765 7916.436 5397.492 8982.548 4242.844 36235.000 6908.987 3293.661 6081.783 4227.744 23496.560 71195.389 44162.654 7077.095 359.715 5481.239 20312.381 39314.623 18787.340 8530.512 12854.733 3938.918 29015.845 10372.386 40971.072 12598.798 38946.479 4937.224 11697.513 49455.447 50.422 18775.936 20317.741 23079.149 55277.702 56101.589 8548.243 11999.039 5321.204 25482.834 14267.546 48160.450 3057.920 9754.610 31381.029 36478.942 40941.227 24139.719 23299.119 5132.714 29841.257 5076.788 17914.610 3947.475 12462.502 24502.311 5496.087 5011.739 20173.391 16104.003 9164.126 7662.165 4271.650 8466.630 8358.954 10646.544 10472.950 24914.639 4610.745 5261.316 754.128 47413.232 5159.059 21155.547 18864.553 19867.839 11950.900 2412.976 9581.352 5096.290 23901.816 153.662 17229.974 23871.827 11204.348 5956.073 24468.483 4159.302 44995.948 0.000 40566.882 12040.133 13005.051 4957.807
20063.934 42804.249 41075.520 21537.191 25835.044 70053.911 43591.046 41256.523 7663.683 41344.048 45817.149 43072.551 35310.558 26855.768 17425.324 34523.030 41045.379 27932.237 32722.875 39767.136 38539.085 35310.304 29288.435 42376.300 42741.660 21223.252 41144.368 42291.157 48567.520 38767.152 25720.850 47381.383 41400.796 43967.796 42827.213 19495.101 30642.840 19239.343 47626.395 40227.858 43462.095 31319.519 21570.562 35193.899 48135.108 36595.689 39961.364 17939.475 32222.010 1599.377 33791.732 2318.821 42393.395 34995.862 29456.482 40573.025 21823.751 20477.267 17697.947 14745.969 47188.475 40733.600 34173.589 41873.693 28688.316 38546.092 7720.716 40907.528 35208.965 18505.659 8875.019 1096.847 43191.992 28507.777 41221.016 14892.938 36098.874 31237.660 37959.535 38168.586 46454.067 41153.850 36535.308 29486.216 48921.283 45727.041 43272.357 42840.574 34207.679 47186.308 35131.703 32000.078 39349.522 42278.834 37502.257 40352.803 65515.493 37859.561 39759.468 35322.359 23890.061 47525.112 42449.848 41323.812 38236.579 43330.610 40664.223 36595.326 43262.174 38756.319 41603.233 17542.307 42686.406 61011.030 40566.882 0.000 47617.668 28142.143 42012.214
29264.143 14289.322 14889.533 26985.343 47604.350 41421.818 90662.505 15555.744 54717.890 14762.509 34429.802 14334.661 17520.105 61875.497 44906.862 21125.421 18204.630 30124.896 79720.649 18528.034 15951.288 30856.920 20922.213 15652.651 18460.084 67157.004 19396.104 16345.248 15094.348 16282.078 47602.374 11775.160 14665.719 15993.322 14669.780 33305.061 77616.552 46461.030 10037.850 12312.495 15659.185 32197.552 50145.371 30826.938 14867.535 24889.736 15839.311 32582.049 21704.840 47666.804 24521.699 46403.709 15789.873 23696.113 60635.549 12080.870 27112.295 27385.450 30078.769 61848.096 68102.407 6903.918 13600.838 16483.382 25129.814 26189.226 54755.988 14688.120 21711.524 41839.220 41704.600 47753.891 35760.544 34970.429 16583.731 34446.399 16488.254 18274.598 11500.122 24421.712 35672.722 16971.102 16676.008 31879.296 25446.076 18572.473 18285.359 14710.962 20087.108 5030.384 12514.302 15765.053 36867.392 15507.746 11181.506 12778.190 36662.214 10824.507 33031.856 30904.591 30399.512 99.643 9825.983 21031.152 10439.171 35496.792 12097.448 29255.746 35473.817 23117.457 17255.653 30185.502 14706.830 34878.062 12040.133 47617.668 0.000 23008.824 16033.702
8087.117 14718.678 12980.997 7229.478 24992.038 58324.070 71616.040 13123.826 35787.119 13252.586 23107.821 14979.888 7234.667 49526.784 21937.680 6800.791 13015.239 8372.560 60812.590 11753.550 10440.399 13588.398 2197.111 14235.897 14751.921 49239.359 13282.609 14153.058 20441.160 10639.543 24975.677 19504.268 13315.422 15826.924 14717.237 10540.396 58745.652 35210.895 20014.591 12646.872 15320.279 12195.142 27151.521 13485.707 20013.548 10702.793 11833.044 20265.206 4424.276 28730.194 7789.675 26352.725 14251.653 8494.632 37749.345 12998.778 6596.324 9290.585 11630.535 42882.804 47148.549 16676.921 13373.747 13737.205 21803.191 13160.891 35841.264 12834.269 7765.988 18839.595 25433.246 28635.656 22080.370 13503.562 13084.063 19909.888 8119.476 16306.358 11599.489 11942.825 24202.126 13029.653 8473.932 10924.771 22017.673 17726.339 15262.891 14728.259 6169.980 20806.620 13169.076 9252.180 20443.591 14141.186 11835.996 12630.619 53313.210 12188.346 18123.303 13632.269 7416.467 22909.247 15217.813 13802.141 12571.040 22013.628 13070.743 13387.051 21955.154 11943.702 13497.954 14155.284 14575.979 49973.801 13005.051 28142.143 23008.824 0.000 13870.132
21953.930 1808.117 1689.844 20793.784 34410.654 56990.385 85453.726 1001.708 49656.369 1609.346 18530.984 1867.058 6815.251 62379.270 33914.081 8005.865 2250.830 17378.442 74669.523 3053.607 3677.975 15575.432 12935.659 485.932 2636.916 63090.997 3381.035 458.141 6636.465 3325.501 34435.185 6676.287 1666.300 1965.194 1482.555 23680.373 72606.001 47466.247 7961.473 4934.356 1460.124 17890.579 38105.050 15572.276 6232.176 9639.676 2182.706 32225.221 10002.016 42589.221 10484.857 40207.706 421.710 9288.398 47744.198 4907.729 20324.854 22479.949 25113.359 56751.761 52909.013 13469.857 16596.101 453.541 29812.371 10395.726 49710.333 2003.613 7836.466 30701.285 38863.048 42501.321 19727.132 21285.582 886.987 32652.318 6249.616 22368.511 8608.997 8768.076 19788.756 1163.881 5671.389 18201.498 11221.274 4579.884 2713.439 1453.964 7918.118 11519.442 15314.388 14377.122 21013.394 553.863 9975.589 4326.002 52110.971 9944.595 17097.482 15618.973 19569.942 15955.792 6398.500 4997.837 9945.849 19464.768 4819.681 13749.480 19441.272 7398.558 1238.040 27035.019 1397.694 49812.391 4957.807 42012.214 16033.702 13870.132 0.000
NODE_COORD_SECTION
1 16894.752144 -1530.699381
2 39072.611581 -6595.245561
3 37350.110546 -6357.188472
4 18786.976446 262.163585
5 5928.599487 -20719.125979
6 52510.475752 47122.353434
7 -45483.471541 10797.409095
8 37336.373532 -7122.433170
9 -9646.815936 6405.626765
10 37623.308531 -6372.006586
11 32632.801096 -25730.454856
12 39310.054604 -6751.977603
13 31746.408401 -5001.672474
14 -12695.711727 28545.604612
15 4258.945452 -12360.843499
16 29888.258406 -8314.893515
17 36352.245707 -9606.874431
18 20892.334167 -11595.297112
19 -34561.558640 10119.372308
20 35121.288997 -9255.704258
21 34855.098120 -5876.542210
22 25667.325870 -17618.516479
23 26141.750034 -2537.718286
24 38324.605090 -7750.044486
25 37803.801512 -10595.355726
26 -21809.871847 12457.125861
27 36032.760104 -10787.449021
28 38051.392178 -8387.067086
29 44480.307615 -8708.707633
30 34956.889486 -6385.608482
31 5863.158625 -20620.853080
32 44033.575501 -5355.290668
33 37698.838446 -6304.000129
34 39709.235789 -8693.676893
35 38998.967270 -6980.028067
36 14265.232191 -6284.036804
37 -32460.139605 10012.971970
38 1511.105710 22534.436008
39 44581.544088 -3651.831200
40 37178.843659 -3076.342347
41 39327.490148 -8193.746146
42 21889.604341 -15970.996631
43 1014.283122 -17575.001137
44 25595.014258 -17521.187453
45 44098.177454 -8461.594555
46 29899.135546 -13356.903255
47 36112.171924 -6688.161547
48 13094.832251 12627.910823
49 27935.541348 -6947.859099
50 -2583.803102 5307.418843
51 27889.621548 -11121.974495
52 -1110.137652 1835.270673
53 38302.387581 -7891.446036
54 29184.155611 -11207.503250
55 -6533.776309 -25463.170092
56 37530.932237 -3064.877878
57 18899.664119 -706.483995
58 17966.811953 2459.696056
59 15203.230913 2818.111510
60 -16769.792363 7320.332306
61 -1342.334040 -43463.002836
62 38221.945170 5505.944483
63 31506.079563 7360.979343
64 37631.260592 -8334.806771
65 22608.182766 17640.239793
66 30869.671599 -15630.378409
67 -9684.845340 6466.249259
68 37251.246893 -6059.400559
69 30189.998965 -9435.547073
70 7440.771253 -11914.756136
71 3545.586911 10235.214532
72 -2656.650548 4793.160130
73 29189.519802 -25666.415953
74 18161.108875 -15959.424351
75 37014.019769 -8120.894882
76 10855.789061 10357.708392
77 32679.562958 -4503.112291
78 27663.466426 11936.129413
79 35330.221804 261.073584
80 31407.170174 -13867.417203
81 32404.147797 -26973.973386
82 36838.486574 -8466.509947
83 32981.560992 -5112.140825
84 20840.517074 -14342.345117
85 40991.361640 -18742.827464
86 40596.770407 -11651.391393
87 38353.471941 -10632.638247
88 39000.859983 -7026.112393
89 30033.569291 -6943.793963
90 44655.570008 1360.879736
91 32556.784480 6397.408094
92 29527.937375 3738.151014
93 24944.074414 -24514.577555
94 38274.966971 -7565.194633
95 34969.474574 1579.917547
96 37196.155480 -3689.122896
97 50197.329388 42676.132388
98 35331.297222 1651.058428
99 27957.093298 -21878.633170
100 25647.869052 -17664.086166
101 18316.554059 -8059.444470
102 44980.700501 6332.086080
103 39618.327365 -1800.128162
104 35583.261111 -12395.340020
105 35713.874309 1745.977744
106 29505.553144 -25527.917182
107 37609.287360 -3148.010999
108 27622.795326 -17109.037431
109 29457.634204 -25478.907104
110 32487.170449 -13018.254566
111 37154.726048 -8958.542208
112 14885.823675 6248.474245
113 38859.579958 -6956.653087
114 45625.801116 41247.725270
115 37533.204052 -3014.506813
116 -2472.130147 3711.945039
117 45071.064602 6374.075028
118 24571.413775 -4074.383816
119 37886.241901 -7959.728533
DEMAND_SECTION
1 0
2 2
3 4
4 9
5 4
6 6
7 4
8 5
9 2
10 5
11 87
12 6
13 10
14 7
15 7
16 4
17 7
18 10
19 2
20 4
21 2
22 7
23 7
24 1
25 3
26 10
27 10
28 6
29 8
30 7
31 2
32 63
33 3
34 3
35 9
36 8
37 6
38 2
39 79
40 50
41 4
42 5
43 3
44 91
45 7
46 1
47 7
48 10
49 5
50 51
51 2
52 9
53 5
54 6
55 3
56 7
57 5
58 5
59 4
60 3
61 10
62 7
63 8
64 9
65 7
66 3
67 4
68 6
69 7
70 4
71 2
72 9
73 7
74 9
75 8
76 88
77 90
78 2
79 6
80 2
81 9
82 5
83 9
84 8
85 86
86 5
87 2
88 8
89 5
90 9
91 3
92 84
93 8
94 10
95 7
96 10
97 9
98 3
99 5
100 4
101 91
102 5
103 6
104 8
105 10
106 4
107 4
108 8
109 10
110 9
111 1
112 10
113 8
114 51
115 5
116 8
117 7
118 1
119 1
DEPOT_SECTION
1
-1
EOF
