NAME : mamut-brest-n167-k10-par
COMMENT : Mamut2026 shortest metric; city brest; No of trucks: 10 (lower bound, fleet not fixed); 3-decimal seconds/meters; ENU ref in mamut-brest-n167-k10-par.vrp.json
TYPE : CVRP
DIMENSION : 168
EDGE_WEIGHT_TYPE : EXPLICIT
EDGE_WEIGHT_FORMAT : FULL_MATRIX
CAPACITY : 1263
EDGE_WEIGHT_SECTION
0.000 5998.629 5993.625 5972.381 3065.238 3809.268 7470.340 5052.331 4941.425 5551.671 8272.047 6682.005 1029.278 4340.943 2642.093 1629.493 2863.189 5211.742 5519.764 5826.474 5426.466 5481.418 4901.416 6586.995 8392.716 4596.967 3988.454 8789.774 4058.500 6214.118 6063.101 633.716 4983.842 6457.974 6794.752 5785.595 4000.854 4706.200 7513.902 6862.667 12531.558 3294.469 4402.697 6381.339 4252.258 1595.074 4341.129 5590.901 5733.586 4496.047 3886.723 5070.950 4809.655 2620.657 4816.064 2299.147 5109.003 2768.551 5585.346 6630.425 6926.613 1913.974 7157.944 2000.894 6001.063 2787.135 6115.069 2014.594 3222.902 1059.628 8858.301 2036.477 5567.016 4335.232 5052.905 6046.124 4082.420 2095.079 2992.058 6446.492 5483.824 5324.954 2473.349 7155.489 5360.836 5873.813 2163.284 7282.261 6300.495 981.075 4984.589 2535.162 4386.573 3281.582 4555.449 6175.306 6044.408 5002.732 6671.230 4575.689 7114.429 8364.611 7635.819 5351.405 3699.877 1089.605 5425.865 4599.311 3111.878 7035.696 2575.017 2660.153 6438.011 7194.493 7102.838 6131.797 5322.591 7282.845 5325.505 2007.242 2081.795 6960.872 3454.470 5143.325 5458.156 7070.683 3818.447 2827.065 5030.981 3966.934 5067.072 2361.419 6003.100 6512.655 5645.782 9763.125 3022.545 5193.782 7354.098 5910.829 8757.895 7111.486 6800.098 7186.150 4429.741 5157.053 5283.199 2684.233 5973.088 7132.629 3293.178 3581.990 4325.955 4541.918 5862.790 8512.492 5155.894 5816.802 2826.879 4786.954 2395.143 5032.518 4231.872 5054.378 5596.256 4189.455 4919.688 4036.516
6221.276 0.000 747.098 1277.967 5788.926 5713.599 2570.174 3184.889 1658.153 773.481 11503.511 2157.107 5309.377 6171.128 5409.479 7291.721 8157.602 1571.324 764.968 1334.019 4038.434 9668.492 4293.910 9970.449 11776.171 1855.451 4080.530 4086.073 5342.780 3363.978 1359.399 6546.699 3685.559 2856.028 2807.740 371.411 3926.935 7626.630 6023.146 1322.308 11160.529 4345.038 2372.302 2322.388 3889.610 5026.605 8528.204 521.869 342.080 3831.206 4482.181 3203.508 2176.780 7915.070 1781.283 4823.182 4432.700 4399.776 1213.708 1868.877 2232.199 4338.564 2463.530 5925.669 1996.290 3652.447 3468.702 5127.843 4273.471 6291.917 3591.715 5791.837 9670.628 5780.694 3434.266 3513.783 3883.832 4520.102 5759.443 1875.582 784.658 1439.588 3836.705 1824.136 1856.386 67.759 4823.240 2587.847 1729.585 6103.495 1403.176 8129.101 5857.558 4104.153 2264.002 448.969 6914.764 4174.400 1909.682 6046.674 7151.990 3660.909 7434.116 3770.623 4337.214 5369.704 4159.559 1778.525 4356.829 3204.056 7869.430 5427.538 9128.399 1944.364 1777.891 6360.797 1437.225 7511.846 1459.924 7601.181 4772.403 2257.171 3758.181 3746.740 3645.232 2376.269 5648.632 8174.618 3646.529 3860.108 1709.270 4840.981 5432.979 1818.241 3618.070 7369.034 6137.167 4067.763 2659.683 7709.358 3681.707 1786.539 4835.574 1854.797 6259.926 1628.375 3857.222 3650.175 1480.634 2438.215 6764.625 7769.064 4159.634 7898.157 148.535 11895.946 1270.528 4003.878 8121.292 3384.367 6362.396 1749.261 2559.817 7347.941 527.224 8376.529 1647.100 5866.701
5978.811 508.749 0.000 1541.023 5611.054 5535.727 2097.373 3447.945 1083.102 807.139 11325.639 1511.468 5066.912 5993.256 5075.366 7113.849 7823.489 1049.828 840.674 1523.848 4301.491 9490.620 4556.966 9792.577 11598.299 1677.579 4343.586 3440.433 5288.975 2616.880 713.759 6368.827 3948.615 3119.085 3070.797 647.577 4189.992 7448.758 5953.843 1118.575 10956.796 4167.166 2194.430 1676.748 3555.497 4848.733 8350.332 838.043 602.800 4094.262 4564.338 3466.564 1672.974 7580.958 1222.267 4645.310 4695.756 4221.904 466.610 1251.540 2495.255 4160.692 2726.586 5747.797 1350.650 3474.575 3731.758 4793.731 4095.599 6114.046 3118.914 5613.965 9492.756 5630.663 3697.322 3776.839 4146.888 4342.230 5425.331 2138.638 575.011 1543.479 3502.593 1620.403 1109.287 383.933 4489.127 2850.903 1992.642 5925.623 1106.586 7951.229 5682.005 3770.041 1760.197 725.134 7177.821 4437.457 1292.345 5871.121 7082.688 3015.270 7364.814 4033.679 4159.342 5127.239 4422.615 1600.654 4178.957 3467.113 7535.318 5093.426 8950.527 1740.631 1305.090 6623.854 1541.116 7774.902 712.825 7423.309 4438.290 1611.531 3580.310 4009.796 3908.288 2639.325 5470.760 7840.506 3909.585 4123.164 1071.077 4663.109 5696.036 1765.506 3881.126 7165.301 5803.055 4330.819 2922.740 7563.142 3208.907 1313.738 4631.841 1651.064 6082.054 881.277 4120.278 3316.063 1670.462 2701.271 6586.753 7591.192 4422.690 7720.286 464.709 11718.075 1374.419 4266.934 7787.180 3647.423 6184.524 1079.909 2381.945 7170.069 836.916 8198.657 1125.605 5688.829
6175.035 1364.326 1546.502 0.000 5556.804 5210.237 3369.578 2417.519 1821.111 976.629 10596.860 2956.512 5263.136 5529.261 5363.238 7245.480 8111.361 1734.282 968.116 825.413 3271.064 9622.252 3526.540 9435.677 11389.799 1809.210 3313.160 4885.477 4575.410 3989.349 2158.803 6500.458 2918.188 1852.189 1803.901 937.308 3159.565 7123.267 5019.307 1392.909 10196.632 4170.000 2326.062 3121.792 3597.027 4980.365 8481.963 870.521 1237.568 3063.836 3714.811 2436.138 2130.539 7868.829 1944.241 4776.941 3665.330 4353.535 2013.112 2668.281 1228.360 4292.323 1459.691 5879.429 2795.694 3606.207 2464.863 5081.603 4140.590 6245.677 4391.119 5745.596 9434.158 4935.103 2666.896 2509.944 3116.462 4473.862 5713.202 1108.212 987.806 1393.347 3790.465 1457.236 2296.334 1239.509 4776.999 1584.008 962.215 6057.255 1462.980 8082.860 5011.968 4057.912 2217.762 1248.373 5910.925 3407.030 2709.087 5201.084 6148.151 4460.314 6430.277 3003.253 3783.791 5323.463 3392.189 1732.285 4310.589 2200.217 7823.189 5381.297 8221.747 1496.240 2577.295 5356.958 1390.984 6508.007 2087.314 7554.940 4726.162 3056.575 3711.941 2979.370 2803.922 1372.430 5145.269 8128.377 2879.159 3092.738 1872.228 4794.741 4429.140 814.402 2614.231 7128.299 6090.927 3300.393 1655.844 6705.519 4481.112 2585.943 4305.503 1487.897 5477.492 1918.862 3089.852 3603.935 840.756 1434.376 6718.385 7703.338 3392.264 7394.795 1320.286 11170.173 1224.287 3060.693 8075.051 2616.996 6316.155 1912.219 2513.576 6706.074 875.876 8330.289 1810.058 5291.165
3321.670 5562.599 5557.595 5536.351 0.000 1337.283 7422.724 3620.159 5011.687 5115.641 5747.885 6719.150 3285.762 1489.920 4599.006 3485.796 4837.773 4924.857 5083.734 5330.582 4059.198 4716.260 2715.295 4318.237 6123.958 4160.937 3018.019 8742.159 1617.306 6829.465 6015.485 3008.854 3616.574 4385.672 4722.450 5349.565 3051.630 1871.003 4942.091 6426.637 9811.738 1901.921 3966.666 6507.413 4615.849 2307.618 3409.919 5154.871 5297.556 2728.388 2498.361 3638.778 5054.306 4595.242 5134.817 1571.076 2922.883 1913.227 5415.198 6582.809 5486.548 2846.541 5148.905 2081.335 6127.137 3144.160 3883.519 3971.507 1916.946 2715.560 8528.811 1018.774 4018.415 1615.412 3620.733 4123.041 2821.321 2469.002 4948.971 5613.380 5047.794 4888.924 3520.387 6719.459 5486.910 5437.783 4120.198 5415.218 5467.383 2422.964 4548.559 4211.919 1666.753 4533.868 5128.791 5739.276 3324.588 3128.210 6623.614 1855.869 4394.609 8316.995 4916.000 3549.928 2750.653 3346.089 3416.356 4378.233 2779.710 4963.394 4549.602 4617.066 3372.772 6758.463 6714.987 3411.977 4886.561 4563.025 5277.889 3387.546 4038.708 6913.257 3286.164 3776.057 3976.092 6003.033 1118.102 4503.822 3640.060 2684.536 5062.803 1107.682 3427.120 6076.625 3895.061 7043.305 4979.458 3096.622 5487.054 2907.789 8618.803 6723.635 4568.547 6750.120 1578.719 5109.438 3915.930 3731.271 5345.925 5123.590 1205.709 2287.595 2546.029 2142.531 5426.760 6243.734 4719.864 4238.804 4801.464 3354.782 1520.761 5102.795 4225.866 1989.140 5160.226 3321.692 5000.634 1336.171
3766.199 5465.073 5460.068 5181.685 878.549 0.000 7325.198 3222.331 4914.160 5018.114 6147.738 6621.623 3628.075 1096.323 4992.782 4209.190 5561.167 4827.331 4986.207 4932.754 3661.370 5568.822 2167.607 4731.667 6537.388 4063.411 2620.191 8644.632 964.106 6731.938 5917.959 3625.543 3218.746 3841.396 4178.175 5252.038 2684.270 2270.856 4535.094 5996.667 9404.741 1504.093 3869.140 6409.886 4218.022 2649.931 3973.251 5057.344 5200.029 2330.560 2100.533 3240.950 4956.779 5318.635 5037.290 1953.829 2375.195 1838.754 5317.672 6485.283 4942.273 3008.237 4604.630 2525.864 6029.611 3046.634 3339.243 4365.283 1519.118 3332.250 8431.284 1897.323 4581.747 1208.415 3222.905 3575.353 2423.493 2630.698 5342.746 5215.552 4950.267 4791.397 3533.102 6184.131 5389.383 5340.256 4513.973 4870.942 5069.556 2908.569 4451.032 4935.312 1259.756 4572.499 5031.264 5641.749 2917.591 2580.522 6526.088 1448.872 3987.612 8219.469 4509.003 3002.240 2653.127 3688.402 2789.919 4280.706 2705.237 4419.119 5272.995 5010.841 3772.625 6223.135 6617.460 3004.980 4789.034 4156.028 5180.363 4110.939 4432.484 6815.730 3074.171 3378.229 3428.404 5458.757 573.827 5227.215 3242.233 2286.708 4965.277 1552.211 2882.844 5541.297 3347.373 6636.308 5373.233 2548.934 4942.779 2666.209 8521.277 6626.108 4024.272 6214.792 1185.121 5011.911 3518.103 3727.229 4948.097 4579.315 1896.725 2850.927 2131.667 2542.384 5329.234 6657.164 4622.337 3691.116 5524.857 2956.954 2399.310 5005.268 4128.340 2273.136 5062.699 3885.024 4903.107 791.896
7481.006 2272.745 1993.604 3317.465 7471.164 7395.837 0.000 5224.387 2687.134 2583.581 12948.132 1182.858 6569.107 7853.366 6577.561 8834.072 9325.684 2909.938 2617.116 3300.290 6077.933 11350.730 6333.408 11652.687 13458.409 3537.689 6120.028 1756.508 7149.085 3930.228 1431.610 7877.104 5725.057 4203.462 4155.173 2411.573 5966.434 9308.868 6966.304 2241.549 11969.256 6027.276 4054.540 2126.496 5057.692 6568.956 10210.442 2602.038 2379.242 5870.705 6424.448 5243.006 3160.723 9083.152 2649.257 6505.420 6088.870 6082.014 2175.560 1099.047 3579.632 5730.627 3810.963 7468.020 2154.079 5180.850 4816.135 6295.926 5955.709 7834.269 1979.479 7474.075 11352.866 7286.375 5473.764 4861.216 5923.330 6062.454 6927.525 3915.080 2351.453 3319.921 5004.788 2743.377 2422.635 2147.928 5991.322 3935.280 3769.084 7645.847 2966.696 9556.649 7363.240 5272.236 3262.391 2489.130 8262.197 5830.570 838.599 7552.356 8095.149 1331.344 8377.274 5528.030 6019.452 6629.434 5815.729 3460.764 6013.141 4551.489 9037.513 6595.620 10573.020 2863.606 1343.470 7708.230 3317.558 8806.718 2139.816 9143.532 5940.485 557.681 5440.420 5786.238 5155.194 3930.592 7330.870 9342.700 5686.028 5899.607 2498.068 6523.219 6780.412 2888.481 4965.503 8177.762 7305.250 5723.932 4007.116 9056.791 1879.073 1352.118 5644.302 2774.038 7828.764 2308.267 5896.720 4818.258 3446.904 3785.648 8446.863 9451.302 6199.132 9580.396 2228.705 13521.445 3150.861 5411.965 9289.374 5423.865 8044.634 2506.899 4053.484 9030.179 2600.911 10058.767 2783.440 7548.939
4910.966 3223.593 3405.770 2369.864 3500.058 3130.522 5228.845 0.000 3680.378 2835.896 8504.472 4815.779 4012.610 3436.873 5377.316 5625.536 6859.232 3593.549 2827.383 2120.933 1213.013 7979.107 1378.417 7343.289 9333.054 3535.803 1439.987 6744.744 2427.288 5848.616 4018.071 4880.514 868.247 1504.250 1841.028 2796.576 1504.066 5066.522 3085.774 3488.645 8263.099 2113.255 3341.532 4981.059 3295.003 3360.420 6768.916 2729.788 3096.835 915.714 1682.350 18.619 3989.806 6616.700 3803.509 3133.796 1270.878 2710.391 3872.379 4527.549 2605.126 3179.145 2267.484 4259.484 4654.961 2897.495 1297.534 4749.817 2179.983 4625.733 6250.387 4102.451 7377.412 2842.715 608.845 1048.311 1243.289 2853.917 5727.281 2403.731 2847.073 3252.614 3383.964 3552.972 4155.602 3098.777 4898.508 2533.796 2257.734 4437.310 3322.247 6462.916 2919.580 4423.361 4077.029 3107.640 3818.538 1012.579 4568.354 3108.696 4214.618 6319.581 4496.744 608.801 1751.330 4072.937 997.737 3591.552 2662.070 2081.973 6571.060 5395.376 6129.360 3591.976 4436.562 3264.571 3250.251 4415.619 3946.581 5916.585 4817.018 4915.842 2687.602 921.319 460.343 2902.112 3026.445 6754.819 821.108 1106.504 3731.495 3151.596 2336.752 2910.138 647.969 5442.836 5757.768 905.941 2605.633 4613.131 6340.379 4445.210 2371.970 3583.633 3385.104 3778.130 1031.801 3578.090 2136.275 2242.169 4692.391 5646.593 1244.141 5338.050 3179.553 9077.785 3083.554 818.989 6822.922 558.945 4673.010 3771.486 3198.304 4613.686 2735.143 6680.689 3669.325 3143.042
5048.903 1433.982 1098.870 1678.170 4864.321 4788.994 2650.656 3585.092 0.000 1151.305 10578.906 1947.081 4137.004 5246.523 4145.458 6367.116 6893.581 303.095 1184.840 1532.262 4348.308 8743.887 4694.112 9045.845 10851.566 930.846 3701.186 3970.090 4542.242 2244.426 1243.417 5445.000 3905.684 3256.231 3207.943 1398.362 3713.586 6702.025 6423.348 2217.444 11600.673 3420.433 1447.697 1703.106 2625.589 4102.000 7603.599 1203.668 1168.939 4231.409 3817.606 3603.710 728.620 6651.049 217.154 3898.577 4832.903 3475.171 684.627 1810.741 2632.401 3298.524 2863.732 5001.064 1322.830 2727.842 3868.904 3863.823 3348.866 5367.313 4015.944 4867.232 8746.023 4883.930 3834.468 3913.985 3745.257 3595.497 4495.422 2152.280 919.177 1030.742 2572.685 2719.273 682.603 1309.166 3559.219 2988.049 2006.283 5178.891 359.853 7124.546 4935.272 2840.132 830.288 1717.909 6593.106 4574.603 1851.546 5124.388 7552.193 3544.927 7834.319 4170.825 3412.609 4197.331 4559.761 853.921 3432.225 3604.259 6605.409 4163.517 8203.794 2839.501 2202.120 6680.495 1028.379 7831.543 505.821 6676.576 3508.382 2141.188 2833.577 4065.167 4045.434 2776.471 4724.027 6910.597 3952.823 3679.666 193.706 3916.377 5833.182 2218.443 4018.272 8264.171 4873.147 4467.965 3059.886 6816.409 3938.211 2210.768 5709.545 2749.934 5335.321 337.369 4205.040 2386.155 1678.876 2838.417 5840.020 6844.459 4372.795 6973.553 1298.143 10971.342 861.682 4404.080 6857.271 3784.569 5437.791 212.834 1621.381 6423.336 1209.023 7451.924 108.985 4942.096
5681.878 746.933 868.528 954.835 5249.528 5174.202 2691.604 2861.757 1105.623 0.000 10964.114 2278.537 4769.980 5631.730 4870.081 6752.324 7618.205 1018.793 44.060 880.559 3715.302 9129.095 3970.778 9431.052 11236.773 1316.054 3757.397 4207.503 4927.449 3273.861 1480.829 6007.302 3362.426 2532.896 2484.608 468.007 3603.803 7087.232 5700.014 1610.971 10877.339 3805.641 1832.905 2443.818 3350.213 4487.208 7988.807 273.313 481.890 3508.074 4159.049 2880.376 1637.382 7375.673 1228.753 4283.785 4109.568 3860.379 1335.138 1990.307 1909.067 3799.166 2140.398 5386.272 2117.720 3113.050 3145.570 4588.446 3734.074 5752.520 3713.145 5252.439 9131.231 5269.138 3111.134 3190.650 3560.700 3980.705 5220.046 1500.577 232.128 900.191 3297.308 2112.799 1580.846 622.117 4283.842 2264.714 1354.581 5564.098 850.646 7589.704 5320.479 3564.756 1724.605 857.718 6591.632 3851.268 2031.112 5509.595 6828.858 3782.339 7110.984 3447.491 3797.816 4830.307 3836.427 1239.128 3817.432 2880.924 7330.033 4888.141 8589.002 2176.946 1899.321 6037.665 897.828 7188.713 1371.826 7061.784 4233.006 2378.601 3218.784 3423.607 3322.099 2053.136 5109.234 7635.221 3323.397 3536.976 1156.740 4301.584 5109.847 1495.109 3294.937 7657.698 5597.770 3744.630 2336.551 7201.617 3803.137 1907.969 4986.210 2143.460 5720.529 1203.374 3534.090 3110.778 1027.174 2115.082 6225.228 7229.667 3836.502 7358.760 611.094 11356.549 731.131 3680.745 7581.895 3061.234 5822.998 1196.731 2020.420 6808.544 278.669 7837.132 1094.570 5327.303
8503.708 11110.803 11105.798 10666.262 5787.800 6258.468 12970.928 8599.071 10559.890 10663.844 0.000 12267.353 8636.869 5406.047 9796.239 8318.973 9670.950 10473.061 10631.937 10578.484 9307.100 7760.182 7781.495 2212.581 1634.847 9709.141 8265.921 14290.362 6538.491 12377.668 11563.689 7911.692 8864.476 8757.629 9094.407 10897.768 8330.000 4160.060 7366.400 10912.900 7904.949 7149.823 9514.870 12055.616 9863.752 7853.415 6164.611 10703.074 10845.759 7976.290 7746.263 8590.137 10602.509 9428.418 10683.020 7221.035 7783.085 7484.484 10963.402 12131.013 9858.505 8392.338 9520.863 7437.609 11675.341 8692.364 8255.476 9168.740 7164.848 7580.514 14025.807 6212.698 6024.791 6004.164 8868.635 8592.816 8069.223 8014.799 10146.203 10861.282 10595.997 10437.127 9066.184 11100.364 11035.113 10985.987 9317.430 9787.175 10715.286 7616.888 10096.762 8779.480 6081.028 10079.665 10676.994 11287.479 5188.266 8194.410 12171.818 6041.730 5953.091 13865.199 6474.481 8220.952 8298.857 8600.199 8119.953 9926.436 8350.967 9335.352 9382.778 9814.298 2402.278 11139.368 12263.190 5376.251 10434.764 5324.731 10826.093 8220.722 9235.941 12461.460 8719.901 9023.959 8605.418 10374.990 5928.543 9336.999 8887.963 7932.438 10611.007 6826.127 7799.077 10457.530 8524.388 9467.614 9913.316 8014.126 9859.012 4099.951 14134.986 12271.838 8547.124 11131.025 5420.313 10657.641 9163.833 9277.069 10593.827 9495.547 5431.870 6289.391 7745.555 3896.172 10974.964 710.193 10268.067 8868.130 9634.640 8602.684 6434.013 10650.998 9774.070 4409.909 10708.430 6210.921 10548.837 6257.356
6806.722 1946.809 1476.935 2979.084 6796.880 6721.554 1221.772 4886.006 2012.851 2245.200 12511.466 0.000 5894.824 7179.082 5903.278 8159.789 8651.401 2235.655 2278.734 2961.908 5739.551 10676.447 5995.026 10978.404 12784.125 2863.406 5633.745 2131.780 6474.801 2955.000 812.661 7202.820 5386.675 4338.869 4290.581 2085.638 5628.052 8634.584 7101.712 2266.443 12104.664 5352.993 3380.257 951.129 4383.409 5894.673 9536.158 2276.103 2040.860 5532.323 5750.165 4904.624 2486.440 8408.869 1974.974 5831.136 6133.817 5407.731 1501.276 912.267 3715.040 5056.343 3946.371 6793.737 1135.988 4506.567 4951.543 5621.642 5281.425 7159.985 3089.960 6799.791 10678.582 6816.490 5135.383 4996.624 5584.949 5388.170 6253.242 3576.699 2013.072 2963.302 4330.504 2768.271 1447.407 1821.993 5317.039 4070.687 3430.702 6971.563 2292.413 8882.365 6867.831 4597.952 2586.638 2163.195 8397.605 5875.517 953.072 7056.947 8230.556 1706.616 8512.682 5471.739 5345.168 5955.150 5860.675 2786.480 5338.858 4686.897 8363.229 5921.337 10136.353 2888.500 1639.148 7843.638 2960.939 8942.126 1465.532 8469.249 5266.202 1061.255 4766.136 5447.856 5290.602 3955.487 6656.586 8668.417 5347.646 5561.225 1823.784 5848.936 6915.820 2913.375 5100.911 8313.170 6630.966 5768.879 4142.524 8748.969 2435.023 1647.796 5779.710 2798.932 7267.881 1633.984 5558.339 4143.974 3108.523 3921.055 7772.580 8777.019 5860.751 8906.112 1902.770 12903.901 2794.242 5547.373 8615.091 5085.483 7370.350 1832.616 3379.200 8355.895 2274.976 9384.484 2109.157 6874.655
1582.980 5362.670 5357.666 5336.422 2993.586 3628.395 6834.381 4416.372 4305.466 4915.712 8200.394 6046.046 0.000 4119.664 1764.487 2588.539 3822.234 4575.783 4883.805 5190.515 4790.507 5740.516 4488.408 6515.342 8321.063 3961.008 3352.495 8153.815 3837.222 5578.159 5427.142 1693.195 4347.883 5822.015 6158.793 5149.636 3364.895 4634.547 6877.943 6226.708 12055.268 2881.461 3766.738 5745.380 3616.299 1094.198 4600.227 4954.942 5097.627 4025.180 3473.715 4434.991 4173.696 3579.703 4180.105 1886.139 4695.995 2347.330 4949.387 5994.466 6290.654 1278.015 6521.985 1820.021 5365.104 2151.176 5479.110 1136.988 2809.894 1588.735 8222.342 1964.825 5826.115 4113.953 4416.946 5410.165 3446.461 1512.594 2114.452 5810.533 4847.865 4688.995 1837.390 6519.530 4724.877 5237.854 1285.679 6646.302 5664.536 1400.313 4348.630 3425.918 4165.295 2406.397 3919.490 5539.347 5823.130 4421.970 6035.271 4354.411 6893.151 7728.652 7414.541 4715.446 3063.918 568.447 4789.906 3963.352 2475.919 6399.737 3534.063 1782.547 6366.358 6558.534 6466.879 5910.518 4686.632 7061.566 4689.546 2897.999 1204.189 6324.913 2818.511 4507.366 4822.197 6434.724 3597.168 3717.822 4395.022 3330.975 4431.113 2180.545 5781.821 5876.696 5009.823 9235.005 2144.939 4557.823 6718.139 5689.551 8121.936 6475.527 6164.139 6550.191 4208.463 4521.094 4647.240 2048.274 5337.129 6496.670 3259.288 3841.088 3912.947 4470.265 5226.831 8440.839 4519.935 5180.843 3785.925 4150.995 2437.494 4396.559 3595.913 4982.726 4960.297 4448.553 4283.729 3815.237
4389.926 5922.602 5917.597 5621.607 1509.930 1016.944 7782.727 3653.211 5371.689 5475.643 5382.394 7079.152 4085.604 0.000 5450.310 4832.916 6184.893 5284.859 5443.736 5372.675 4101.292 5924.730 2571.681 4134.188 5939.909 4520.939 3060.112 9102.161 1170.821 7189.467 6375.487 4249.270 3658.667 3879.455 4216.233 5709.567 3124.192 1633.466 3569.626 6034.725 8439.273 1961.622 4326.669 6867.415 4675.550 3107.460 4329.159 5514.873 5657.558 2770.481 2558.062 3644.277 5414.308 5942.362 5494.819 2411.358 2573.270 2296.283 5775.200 6942.811 4980.331 3465.766 4642.688 3149.591 6487.140 3504.163 3377.302 4822.811 1976.647 3955.977 8888.813 2528.704 4937.655 672.650 3662.827 3714.642 2863.415 3088.226 5800.275 5655.474 5407.796 5248.926 3990.631 6222.189 5846.912 5797.785 4971.502 4909.001 5509.477 3532.296 4908.561 5559.039 749.515 5030.028 5488.793 6099.278 1918.099 2984.595 6983.616 710.216 3022.144 8676.998 3543.535 3275.092 3110.655 4145.931 2910.139 4738.235 3162.766 4457.177 5896.722 5468.370 3007.282 6261.194 7074.989 2039.512 5246.563 3190.560 5637.892 4734.666 4890.012 7273.259 3531.700 3818.150 3701.256 5496.816 522.496 5850.942 3682.154 2726.630 5422.806 2175.938 2920.903 5579.356 3620.225 5670.840 5830.762 2804.312 4980.837 1569.887 8978.806 7083.637 4062.330 6252.850 88.799 5469.440 3958.024 4184.757 5388.018 4617.373 2252.633 3206.835 2535.740 2040.318 5786.762 5955.707 5079.866 3963.967 6148.584 3396.876 3030.691 5462.797 4585.869 1176.813 5520.228 4240.932 5360.636 889.686
2663.348 5314.530 5198.084 5381.841 4430.473 4982.676 6645.843 5270.827 4116.929 4961.131 9637.281 5857.509 1751.449 5440.205 0.000 2790.690 2774.094 4387.245 4929.224 5235.934 5644.962 7177.403 5346.635 7952.230 9757.951 3893.122 4206.950 7965.278 5048.006 5389.622 5238.604 2920.369 5202.337 6676.469 6911.615 5195.055 4219.350 6071.434 7732.397 6178.567 12909.722 3926.197 4143.344 5556.843 3205.409 2385.570 6037.115 5000.361 5049.486 4879.634 4313.984 5289.445 3985.158 2531.562 3991.567 3323.026 5554.223 3532.885 4760.849 5805.928 6336.073 2326.045 6567.404 3256.908 5176.567 2527.783 6333.565 921.470 3854.630 2924.395 8033.805 3401.712 7263.002 5389.694 5271.401 6264.620 4241.636 2636.324 349.964 5855.952 4799.724 4734.414 2118.330 6564.949 4536.340 5189.713 779.062 6691.721 5709.955 2837.200 4240.400 3231.288 5441.036 1797.662 3730.953 5584.766 7098.871 5276.425 5846.733 5630.152 8168.892 7540.114 8690.282 5569.901 3918.373 1648.814 5644.361 3774.814 3044.297 7254.192 2485.923 440.396 7803.246 6603.953 6278.342 7186.259 4732.051 8337.308 4501.008 3310.675 697.573 6136.376 3195.118 5361.820 5676.651 6480.143 4917.709 2943.099 5249.477 4185.430 4242.576 3617.433 6843.090 5922.115 5864.277 10089.460 727.689 5412.278 6763.558 7010.092 7933.398 6286.990 7018.594 6595.610 5529.004 4332.557 5501.694 2212.111 5382.548 6542.089 4696.176 5277.975 4878.559 5907.152 5178.691 9877.727 4565.354 6035.297 2737.784 5005.450 3874.381 4208.022 3407.375 6419.613 5005.716 5885.440 4095.191 5135.778
1685.870 7139.031 7134.027 7112.783 3442.575 4265.870 8877.577 5905.610 6348.662 6692.073 8376.973 8089.242 2436.515 4797.544 3080.947 0.000 2099.794 6501.289 6660.166 6966.876 6279.745 4974.852 5456.807 6691.921 8497.642 5737.369 4841.733 10197.011 4515.101 7621.355 7470.337 995.778 5837.121 7117.182 7453.960 6925.997 4854.133 4937.060 8118.512 8003.069 12988.159 3929.237 5543.099 7788.576 5659.495 2517.464 3834.563 6731.303 6873.988 5130.815 4521.491 5924.229 6216.892 1857.263 6223.300 2991.633 5664.394 3461.037 6991.630 8037.662 8067.015 3234.722 7880.415 2599.098 7408.300 3952.006 6754.628 3398.370 3857.670 999.804 10105.243 2413.814 5335.613 4791.833 5906.184 6731.924 4935.699 2857.182 3009.725 7586.894 6624.226 6465.356 3880.586 8295.891 6768.073 7014.215 3547.060 8146.728 7440.897 1517.212 6124.991 909.186 4843.174 4667.779 5962.686 7315.708 6501.009 5637.500 8078.467 5032.290 7571.030 9771.848 8092.421 6158.812 4553.156 2496.842 6065.423 5954.665 4028.900 7694.904 1811.623 3355.350 6771.936 8334.895 8291.419 6588.398 6462.993 7739.446 6732.742 519.985 3465.571 8368.109 4607.432 5996.604 6311.435 8211.085 4275.048 1201.089 5884.260 4820.213 6474.309 2885.808 6459.701 7653.057 6499.061 10219.726 2342.161 5833.341 8218.564 6350.364 10165.131 8300.067 7439.656 8326.552 4886.342 6564.290 6136.478 4091.470 7113.490 7855.100 3061.775 3350.587 4960.723 4646.843 7003.192 8617.418 6296.296 6670.081 2006.940 5640.233 2406.496 6439.755 5639.109 5431.715 6736.658 3682.889 6326.924 4493.117
2832.518 7941.662 7825.216 8008.973 4781.977 5605.271 9272.975 7160.591 6744.061 7588.263 9741.317 8484.641 3583.163 6136.945 2927.431 2121.080 0.000 7014.378 7556.356 7863.066 7534.726 5535.518 6796.208 8056.265 9210.342 6520.254 6096.714 10592.410 5854.503 8016.754 7865.736 2250.758 7092.102 8429.881 8766.659 7822.187 6109.114 6301.404 9457.913 8805.699 14327.560 5241.936 6534.716 8183.975 5966.848 3772.445 4395.230 7627.493 7676.618 6443.514 5834.189 7179.209 6612.291 261.390 6618.699 4246.614 7003.796 4716.018 7387.981 8433.060 8963.205 4467.859 9193.114 3854.079 7803.699 4919.154 8067.327 3422.275 5170.369 2254.784 10660.937 3753.216 5914.436 6131.234 7161.165 8044.623 6190.680 4112.163 2856.210 8483.084 7426.856 7361.546 4509.702 9192.081 7163.472 7816.846 3540.501 9318.853 8337.087 2772.193 6867.532 1469.853 6182.576 4559.101 6358.085 8211.898 7840.410 6950.199 8473.865 6371.692 8910.432 10167.246 9431.822 7459.665 5808.137 3643.490 7378.122 6401.946 5283.881 9007.603 789.998 3201.835 8136.280 9231.085 8905.474 7927.799 7359.183 9078.847 7128.140 2237.249 3459.012 8763.508 5586.489 7251.585 7566.415 9107.275 5614.449 1410.437 7139.241 6075.194 6869.708 4214.603 7799.102 8549.247 7754.042 11559.127 2188.646 7146.040 9390.690 7689.766 10560.530 8914.122 8752.355 9222.742 6225.744 6959.689 7391.458 4603.483 8009.680 9167.799 4426.119 4714.931 6273.422 6011.188 7805.823 9981.762 7192.486 7925.061 117.162 6895.214 3770.840 6835.154 6034.507 6771.117 7632.848 4243.555 6722.323 5832.518
5069.561 1206.873 1141.780 1451.060 4637.212 4561.885 3006.909 3357.982 595.871 924.196 10351.797 2303.334 4157.663 5019.413 4257.764 6140.007 7005.888 0.000 957.731 1305.152 4121.199 8516.778 4467.003 8818.735 10624.456 703.737 3474.076 4326.344 4315.132 2764.109 1599.670 5394.985 3678.574 3029.122 2980.834 1171.252 3486.476 6474.915 6196.239 2070.911 11373.564 3193.324 1220.588 2091.598 2737.896 3874.891 7376.490 976.559 941.830 4004.299 3590.496 3376.601 1025.065 6763.356 719.002 3671.468 4605.793 3248.062 999.383 2166.994 2405.292 3186.849 2636.623 4773.955 1711.322 2500.733 3641.795 3976.129 3121.757 5140.203 4173.085 4640.122 8518.914 4656.821 3607.359 3686.876 3518.148 3368.388 4607.729 1925.171 692.068 803.633 2684.991 2572.739 1071.095 1082.057 3671.525 2760.940 1779.174 4951.781 132.744 6977.387 4708.162 2952.439 1112.288 1490.800 6365.997 4347.494 2207.799 4897.278 7325.084 3901.180 7607.209 3943.716 3185.499 4217.990 4332.652 626.811 3205.115 3377.149 6717.716 4275.824 7976.685 2673.172 2359.261 6453.386 801.270 7604.434 862.074 6449.467 3620.689 2497.442 2606.467 3838.057 3818.325 2549.362 4496.917 7022.904 3725.714 3452.556 646.988 3689.267 5606.072 1991.334 3791.163 8117.638 4985.453 4240.856 2832.776 6589.300 4263.077 2367.908 5482.436 2603.400 5108.212 693.623 3977.931 2498.461 1451.767 2611.308 5612.911 6617.350 4145.686 6746.443 1071.034 10744.232 634.573 4176.971 6969.578 3557.460 5210.681 686.979 1408.103 6196.227 981.914 7224.815 584.818 4714.986
5649.971 780.468 902.063 946.322 5217.621 5142.294 2725.139 2853.244 1139.158 44.060 10932.207 2312.072 4738.073 5599.823 4838.174 6720.417 7586.297 1052.328 0.000 848.652 3706.789 9097.188 3962.265 9399.145 11204.866 1284.147 3748.885 4241.038 4895.542 3307.396 1514.364 5975.395 3353.913 2524.383 2476.095 459.494 3595.290 7055.325 5691.501 1644.506 10868.826 3773.734 1800.998 2477.353 3318.306 4455.301 7956.899 264.800 515.425 3499.561 4150.536 2871.863 1605.475 7343.766 1262.288 4251.877 4101.055 3828.472 1368.673 2023.842 1900.554 3767.259 2131.885 5354.365 2151.255 3081.143 3137.057 4556.539 3702.166 5720.613 3746.680 5220.532 9099.323 5237.231 3102.621 3182.138 3552.187 3948.798 5188.139 1468.670 265.663 868.284 3265.401 2129.429 1614.381 655.652 4251.935 2256.201 1322.674 5532.191 884.181 7557.797 5288.572 3532.849 1692.698 849.205 6583.119 3842.755 2064.647 5477.688 6820.345 3815.874 7102.471 3438.978 3765.909 4798.399 3827.914 1207.221 3785.525 2872.411 7298.126 4856.234 8557.094 2168.434 1932.856 6029.152 865.921 7180.200 1405.361 7029.877 4201.098 2412.136 3186.877 3415.094 3313.587 2044.623 5077.327 7603.314 3314.884 3528.463 1190.275 4269.677 5101.334 1486.596 3286.425 7691.233 5565.863 3736.117 2328.038 7169.710 3836.672 1941.504 4977.697 2160.090 5688.622 1236.909 3525.577 3078.871 995.267 2106.569 6193.321 7197.760 3827.989 7326.853 644.629 11324.642 699.223 3672.233 7549.988 3052.721 5791.091 1230.266 1988.513 6776.636 270.156 7805.225 1128.105 5295.396
5968.065 1434.557 1556.152 833.877 5316.336 4969.769 3379.227 2177.051 1614.141 851.474 10658.456 2966.161 5056.167 5367.013 5156.268 7038.510 7904.391 1527.312 819.567 0.000 3030.596 9415.282 3286.072 9343.610 11149.332 1602.241 3072.692 4895.127 4334.942 3782.379 2168.453 6293.489 2677.721 2351.434 2303.146 1016.902 2919.097 6882.800 5239.757 1952.658 10417.082 3929.533 2119.092 3109.868 3356.559 4773.395 8274.993 822.208 1169.514 2823.368 3474.343 2195.670 1923.569 7661.860 1737.272 4569.971 3424.862 4146.566 2017.653 2677.931 1727.605 4085.353 1958.936 5672.459 2729.592 3399.237 2964.108 4874.633 3900.122 6038.707 4400.769 5538.626 9193.690 4772.856 2426.428 3009.189 2875.994 4266.892 5506.232 620.018 919.752 1186.377 3583.495 2016.985 2089.365 1309.741 4570.029 2083.252 474.022 5850.285 1256.010 7875.890 4849.720 3850.943 2010.792 1406.613 5972.521 3166.563 2718.736 5038.836 6368.602 4469.963 6650.728 2762.785 3543.323 5116.493 3151.721 1525.315 4103.619 2699.462 7616.220 5174.328 8283.343 2055.989 2586.945 5418.554 1184.014 6569.603 1880.344 7347.971 4519.192 3066.225 3504.971 2738.902 2637.394 1693.608 4904.801 7921.407 2638.691 2852.270 1665.258 4587.771 4490.736 1374.151 2825.020 7596.820 5883.957 3059.925 2155.089 6767.115 4490.761 2595.592 4525.954 2047.646 5315.244 1711.893 2849.384 3396.965 146.614 1933.621 6508.668 7462.871 3151.796 7154.327 1298.718 11231.769 1017.317 2996.040 7868.082 2376.529 6109.185 1705.249 2306.607 6543.827 827.563 8123.319 1603.088 5050.697
5310.220 2417.257 2599.433 1563.528 3923.597 3577.030 4422.509 1247.453 2874.042 2029.560 9366.943 4009.443 4411.865 4034.559 5507.901 6024.791 7258.487 2787.213 2021.047 1314.596 0.000 8378.362 1972.204 7950.872 9756.593 2729.467 1679.953 5938.408 3021.074 5042.280 3211.734 5279.769 442.624 2747.957 2705.314 1990.239 1526.359 5490.061 4118.361 2682.308 9295.686 2536.794 2535.196 4174.723 2488.667 3759.675 7192.455 1923.452 2290.499 1509.500 2081.605 1266.072 3183.470 7015.955 2997.172 3533.051 2179.792 3109.645 3066.043 3721.212 2129.773 3578.400 2361.104 4658.739 3848.625 3036.430 2519.174 5149.072 2603.522 5024.987 5444.050 4501.706 7800.952 3458.988 640.774 2295.764 1483.256 3253.172 5857.865 1597.395 2040.737 2446.278 3687.529 2746.635 3349.265 2292.440 4921.662 2485.420 1451.398 4836.565 2515.911 6862.171 3535.852 4202.575 3270.692 2301.304 4851.125 1901.994 3762.017 3724.968 5247.205 5513.244 5529.331 1641.388 2150.585 4472.191 2030.324 2785.216 3061.325 3101.630 6970.315 5525.960 6991.830 2785.640 3630.226 4297.158 2443.915 5448.206 3140.245 6315.840 4870.825 4109.506 2724.789 414.430 1707.796 2095.775 3512.063 7154.074 477.756 1459.532 2925.159 3550.851 3369.340 2103.802 1895.422 6475.423 6157.023 1938.528 2557.257 5604.446 5534.043 3638.874 3404.557 2777.296 4001.377 2971.793 369.387 3748.597 1329.939 2335.788 5115.930 6070.132 1770.161 5761.589 2373.217 9876.369 2277.218 2066.442 7222.177 750.800 5072.265 2965.150 2391.967 5211.372 1928.807 7086.399 2862.989 3730.132
5392.549 9388.852 9383.848 9362.604 4669.956 5827.901 11248.977 7926.514 8837.940 8941.894 7610.095 10545.403 5983.462 5848.199 7142.832 4977.639 5604.996 8751.110 8909.987 9216.696 8303.495 0.000 7144.111 6338.349 6491.824 7987.190 6865.483 12568.412 6107.924 10289.758 9841.738 4800.533 7860.871 8876.290 9213.068 9175.818 6877.883 5502.288 9369.934 10252.890 13774.995 5833.165 7792.919 10333.666 8348.516 5356.839 1500.113 8981.124 9123.809 7034.743 6425.418 7945.133 8880.559 5374.783 8891.703 5223.430 7351.699 5739.480 9241.451 10409.062 9977.166 5895.762 9639.523 5043.562 9953.390 6604.454 8374.136 6515.333 5761.598 4469.355 12355.064 4176.472 3678.194 6074.122 7927.089 8551.857 6959.449 5518.222 7469.721 9836.715 8874.047 8715.177 6569.608 10545.712 9313.163 9264.036 6664.023 9905.835 9690.718 4651.113 8374.812 4019.514 6125.463 7583.089 8631.089 9565.529 7734.607 7541.428 10449.867 6283.712 8822.452 12143.248 9343.843 7978.744 6576.906 5946.792 7874.514 8204.486 6554.925 9454.012 5664.443 7160.891 7109.106 10584.716 10541.240 7839.820 8712.814 8974.587 9104.142 4986.901 6582.534 10739.510 7112.417 8020.354 8332.339 10356.058 5608.720 4681.983 7908.010 6843.963 8889.056 4933.935 7917.738 9902.878 8323.877 11471.148 6802.156 7525.438 9977.672 6960.956 12445.057 10549.888 9059.165 10576.373 5905.307 8935.691 8160.227 6780.492 9363.311 9614.208 3723.305 3017.417 6864.651 5212.072 9253.013 7841.315 8546.117 8667.620 5487.834 7661.138 3911.524 8929.048 8052.119 6042.307 8986.479 1707.039 8826.887 5826.789
4942.455 4691.690 4873.867 3837.961 2690.899 2090.385 6402.908 1551.033 4960.426 4303.993 7801.616 6283.876 4193.167 2419.222 5557.873 5439.133 6791.110 4873.597 4295.480 3589.029 2317.646 7189.141 0.000 6553.410 8359.131 4109.676 1620.543 8011.292 1387.151 6559.799 5486.168 4855.487 1875.022 2131.284 2468.062 4264.673 1684.623 4052.688 3167.562 4286.554 8344.887 1632.310 3915.406 6449.156 3983.076 3380.748 5916.131 4197.885 4564.932 614.713 1573.048 1542.099 5003.045 6548.578 5083.556 2793.586 330.814 2569.571 5340.476 5860.608 3232.160 3359.702 2894.517 3755.808 6075.877 3078.052 1768.730 4930.374 1691.998 4562.193 7399.461 3361.156 6524.627 1825.064 1763.028 1746.026 1423.845 3034.474 5907.837 3871.828 4315.170 4720.711 3564.521 4474.018 5435.649 4566.874 5079.064 3160.830 3725.831 4138.512 4497.298 6165.256 1901.929 4603.918 4901.130 4575.737 3291.016 751.195 5901.413 2091.045 3719.682 7624.266 4235.651 1172.913 1931.886 4253.493 868.072 4326.972 2842.627 2709.006 6502.938 5575.932 5426.503 4513.023 5689.078 2737.049 4718.348 3888.097 5226.629 5340.882 4997.575 6356.955 2868.159 2034.505 1599.077 3748.645 1986.309 6457.159 1898.508 1287.060 5011.543 2697.007 1809.231 3831.185 1518.046 5524.624 5938.325 719.607 3232.666 3974.946 7508.640 5697.726 2453.758 4504.679 2367.453 5058.177 2174.378 3758.647 3604.372 2869.202 3839.606 4793.808 575.460 4459.540 4647.650 8374.929 4551.651 1861.789 6754.800 1613.230 3931.715 5051.534 3887.475 3596.035 4203.240 5827.904 4949.373 2102.905
6830.899 9437.994 9432.989 9154.606 4230.903 4585.659 11298.119 7195.252 8887.081 8991.035 2231.891 10594.544 6964.060 3849.149 8123.430 6646.164 7998.141 8800.251 8959.128 8905.675 7634.291 6582.898 6266.811 0.000 2883.772 8036.331 6593.112 12617.553 4865.682 10704.859 9890.879 6238.883 7191.667 7506.472 7843.250 9224.959 6657.191 2487.251 6558.368 9661.742 7983.179 5477.014 7842.061 10382.807 8190.942 6180.606 4987.327 9030.265 9172.950 6303.481 6073.454 7213.871 8929.700 7755.609 9010.211 5548.226 6327.863 5811.675 9290.593 10458.204 8607.348 6719.529 8269.705 5764.800 10002.532 7019.555 7004.319 7495.931 5492.039 5907.705 12404.205 4539.889 4847.508 4447.266 7195.826 7341.659 6396.414 6341.990 8473.394 9188.473 8923.188 8764.318 7393.375 9849.206 9362.304 9313.177 7644.621 8536.018 9042.476 5944.079 8423.953 7372.286 4524.131 8406.856 9004.185 9614.670 4007.405 6679.726 10499.009 4484.832 5145.059 12192.390 5666.449 6969.794 6626.048 6927.390 6664.732 8253.627 6678.158 8084.194 7709.969 8141.489 1213.929 9888.211 10590.381 4386.402 8761.955 4523.920 9153.284 6547.913 7563.132 10788.651 7047.092 7351.150 7354.261 9123.833 4366.478 7664.190 7215.153 6259.629 8938.198 5245.937 6547.920 9206.373 7273.230 8659.582 8240.507 6558.905 8607.854 2911.602 12494.198 10599.029 7689.347 9879.867 3863.415 8984.832 7491.023 7604.259 8921.018 8244.390 3759.061 4616.582 6121.122 2223.363 9302.155 2649.257 8595.258 7616.972 7961.831 6929.875 4761.204 8978.189 8101.261 2853.012 9035.620 5033.638 8876.028 4584.547
8624.614 11231.708 11226.704 10948.321 6024.617 6379.374 13091.833 8988.967 10680.796 10784.750 1634.847 12388.259 8757.775 5642.864 9917.145 8439.879 9325.520 10593.966 10752.843 10699.389 9428.006 6720.740 8060.526 2785.288 0.000 9830.046 8386.827 14411.268 6659.397 12498.574 11684.594 8032.598 8985.381 9300.186 9636.965 11018.674 8450.906 4280.966 8238.927 11455.457 8894.455 7270.729 9635.776 12176.522 9984.657 7974.321 5125.168 10823.980 10966.665 8097.195 7867.168 9007.585 10723.415 9095.307 10803.926 7341.941 8121.578 7605.390 11084.307 12251.918 10401.063 8513.244 10063.420 7558.514 11796.246 8813.270 8798.033 9289.646 7285.754 7701.420 14197.920 6333.604 4985.349 6240.981 8989.541 9135.374 8190.129 8135.704 10267.109 10982.188 10716.903 10558.033 9187.090 11642.921 11156.019 11106.892 9438.336 10329.732 10836.191 7737.794 10217.668 7740.038 6317.846 10200.571 10797.900 11408.385 6016.613 8473.441 12292.723 6278.547 6825.618 13986.104 7347.008 8763.509 8419.762 8721.104 8458.447 10047.342 8471.872 9877.909 9384.967 9935.204 3223.138 11681.925 12384.096 6248.778 10555.670 6197.257 10946.998 8341.628 9356.847 12582.366 8840.807 9144.864 9147.976 10917.547 6160.193 8402.507 9008.868 8053.344 10731.912 7039.652 8341.635 11000.087 9066.945 10340.141 10034.222 8352.620 10401.569 4920.810 14287.913 12392.744 9419.651 11673.582 5657.130 10778.547 9284.738 9397.974 10714.732 10038.105 5552.776 5681.034 7914.837 4017.078 11095.869 1760.716 10388.973 9410.687 9208.358 8723.590 6554.919 10771.904 9894.975 4646.727 10829.335 5171.479 10669.743 6378.262
4567.760 1685.382 1620.289 1752.694 4135.410 4060.083 3485.418 3531.104 1074.380 1331.983 9849.996 2781.843 3655.861 4517.612 3884.683 5638.205 6632.806 987.551 1300.076 1606.786 3619.397 8014.977 4111.960 8316.934 10122.655 0.000 2972.275 4804.852 3813.331 2925.650 2078.179 4893.184 3176.773 3330.755 3282.467 1565.907 2984.675 5973.114 6497.722 2549.420 11675.047 2691.522 718.787 2570.106 2364.815 3373.090 6874.688 1371.213 1420.339 3644.959 3088.695 3549.723 951.799 6390.275 1177.279 3169.666 4319.548 2746.260 1477.892 2645.503 2706.926 2685.048 2938.257 4272.154 2189.831 1998.932 3943.429 3603.048 2619.955 4638.402 4651.594 4138.321 8017.112 4155.019 3408.782 3988.510 3016.347 2866.587 4234.648 2226.804 1170.577 1105.266 2311.910 2935.801 1549.604 1560.566 3298.444 3062.573 2080.808 4449.980 611.253 6475.585 4206.361 2579.358 1039.022 1955.618 5864.196 4041.750 2686.308 4395.477 6934.217 4379.689 7455.607 4081.250 2683.698 3716.188 4409.686 217.296 2703.314 3678.783 6344.635 3902.743 7474.883 2974.805 2837.770 5951.584 1102.903 7102.633 1340.583 5947.665 3247.607 2975.950 2104.666 3336.256 3991.446 2850.995 3995.116 6649.823 3223.912 2950.755 1125.497 3187.466 5608.415 2292.968 4092.797 8596.147 4612.372 4177.603 3134.410 6087.499 4741.586 2846.417 5783.918 2966.462 4606.411 1172.131 3476.130 2125.380 1753.400 2912.941 5111.110 6115.549 3643.884 6244.642 1549.543 10242.431 936.206 4350.092 6596.497 3093.929 4708.880 1165.488 799.441 5694.425 1376.569 6723.014 1043.096 4213.185
3879.714 4092.081 4274.258 3238.352 2927.506 2580.939 6097.333 1524.792 3748.618 3704.384 8370.852 5456.081 2981.359 3038.468 4346.065 4594.285 5827.981 3661.789 3695.871 2989.421 1718.037 6947.856 1600.601 6954.781 8760.502 2897.869 0.000 7479.090 2172.838 5530.967 4752.417 3849.263 1275.413 2930.435 3267.213 3665.064 191.678 4493.970 3986.363 4357.133 9163.688 1504.865 2703.598 5244.344 2673.039 2329.169 5807.567 3598.276 3965.323 1133.600 1015.242 1543.411 3791.237 5585.449 3871.748 2102.545 1808.189 1679.139 4152.130 5319.741 3804.597 2147.894 3693.669 3228.233 4864.069 1866.244 2587.530 3718.566 1547.460 3594.481 7118.875 3071.200 6804.861 2596.885 1507.422 2518.585 273.244 1822.666 4696.029 3272.219 3715.561 3625.855 2352.713 4421.460 4223.841 3967.265 3867.256 3959.981 3126.223 3406.059 3285.491 5431.665 2648.227 3392.110 3865.722 3976.128 4306.061 1530.390 5360.546 2837.343 5007.506 7053.927 5397.333 1823.867 631.292 3041.686 1898.326 3115.164 1630.819 3508.158 5539.809 4364.125 5995.739 4460.464 5305.051 4024.873 3623.492 5175.922 4014.821 4885.334 3785.767 5650.188 1558.122 1434.896 1930.617 3770.600 2515.972 5723.568 1322.552 393.169 3799.735 2120.345 3097.055 3778.626 2118.243 6343.425 4726.517 1666.244 4031.818 4608.355 7208.867 5313.698 3272.559 4452.121 3113.751 3846.369 1574.770 2546.839 3004.764 3668.353 4043.989 5048.428 1132.525 4765.498 4048.042 8880.278 3456.795 2289.263 5791.671 1192.569 3641.759 3839.726 2962.798 4215.281 3603.631 5655.893 3737.565 2734.041
8899.589 3797.482 3518.342 4842.203 8889.747 8814.420 2004.432 6749.125 4105.717 4108.319 14461.232 2092.866 7987.690 9271.949 7996.144 10252.655 10744.267 4328.521 4141.854 4825.028 7602.670 12769.313 7848.728 13071.270 14876.992 4956.272 7644.766 0.000 8567.668 4867.539 2905.528 9295.686 7249.795 5716.561 5668.273 3936.311 7491.171 10727.451 8479.404 3766.287 13482.356 7445.859 5473.123 3036.504 6476.275 7987.539 11629.025 4126.776 3903.980 7395.442 7843.031 6767.744 4579.306 10501.735 4067.840 7924.003 7601.970 7500.597 3594.143 2641.945 5092.732 7149.210 5324.063 8886.603 3228.854 6599.433 6329.235 7714.509 7374.292 9252.852 1548.139 8892.658 12771.449 8799.475 6998.502 6374.316 7448.068 7481.036 8346.108 5439.818 3876.191 4844.659 6423.371 4268.115 3540.274 3672.666 7409.905 5448.379 5293.821 9064.430 4385.279 10975.232 8876.339 6690.818 4679.504 4013.868 9775.297 7343.670 2381.497 9065.455 9608.248 535.540 9890.374 7041.130 7438.035 8048.017 7328.828 4879.347 7431.724 6064.589 10456.096 8014.203 12086.119 4388.343 2868.208 9221.330 4842.296 10319.818 3558.399 10562.115 7359.068 2129.545 6859.002 7310.976 6668.294 5455.330 8749.453 10761.283 7210.765 7424.344 3916.651 7941.802 8293.512 4413.218 6478.603 9690.862 8723.833 7237.032 5520.216 10569.891 578.045 2876.856 7157.402 4298.776 9341.863 3726.850 7421.458 6236.841 4971.642 5298.747 9865.446 10869.885 7723.870 10998.979 3753.443 14996.768 4675.599 6925.065 10707.957 6948.603 9463.217 3925.482 5472.067 10448.762 4125.649 11477.350 4202.023 8967.522
4107.483 5201.105 5196.100 4488.385 1466.996 964.106 7061.230 2529.031 4650.192 4754.146 6533.573 6357.655 3803.162 1151.179 5167.868 4550.474 5902.451 4563.362 4722.239 4239.454 2968.070 6157.269 1401.130 5285.366 7091.088 3799.442 2101.888 8380.664 0.000 6453.122 5653.990 3966.828 2525.446 2913.397 3250.175 4915.097 2165.967 2784.645 3810.076 5068.668 8797.710 1178.351 3605.172 6145.918 3892.279 2825.018 4561.697 4793.376 4936.061 1637.260 1774.790 2547.650 4692.811 5659.919 4773.322 2128.915 1488.944 2013.841 5053.704 6221.315 4014.273 3049.468 3676.630 2867.149 5765.643 2767.818 2411.244 4540.369 1193.376 3673.534 8167.316 2472.497 5170.194 601.384 2529.605 2748.584 1905.190 2724.240 5517.832 4522.252 4686.299 4527.429 3254.287 5256.131 5125.415 5076.288 4689.059 3942.943 4376.256 3249.853 4187.064 5276.597 652.726 4293.684 4767.296 5226.161 2310.560 1814.044 6262.120 841.842 3380.582 7955.501 3901.972 2190.766 2374.311 3863.488 1825.813 4016.738 2532.393 3491.119 5614.279 5185.928 4158.460 5295.136 6353.492 2397.949 4525.066 3548.997 4916.395 4452.223 4607.570 6551.762 2748.429 2684.929 2616.930 4530.758 628.683 5568.500 2548.933 1768.405 4701.309 1893.496 1954.845 4613.298 2535.899 6029.277 5548.320 1719.986 4014.779 2721.066 8257.309 6362.140 3096.272 5286.792 1118.250 4747.943 2824.803 3448.413 4254.797 3651.315 2485.172 3439.374 1365.189 3130.831 5065.266 7106.886 4358.369 2879.641 5866.141 2263.654 2987.757 4741.300 3864.372 2327.992 4798.731 4473.470 4639.139 745.279
7472.517 3197.330 2727.457 4229.605 7927.848 7852.521 3049.624 6136.527 3094.596 3495.721 13642.434 2028.468 6560.618 8310.050 6476.607 8825.584 9224.730 3397.692 3529.256 4212.430 6990.072 11597.722 7245.548 12109.372 13915.093 4025.443 6764.713 3339.105 7605.769 0.000 2423.876 7868.615 6637.196 5807.666 5759.378 3336.159 6777.113 9765.552 8642.425 3807.156 13645.377 6483.960 4542.294 1495.753 4666.848 6560.468 10457.433 3526.624 3291.381 6782.844 6881.133 6155.146 3553.489 8982.199 3042.023 6892.636 7384.338 6538.698 2751.798 2853.802 5183.837 5722.138 5415.168 7459.532 2189.475 5172.361 6420.340 6194.972 6412.393 7825.780 4612.442 7822.031 11683.321 7947.457 6385.904 6465.421 6808.785 6053.965 6826.572 4827.220 3263.593 4125.338 4996.299 4308.985 2485.825 3072.514 5890.368 5539.484 4681.223 7637.358 3454.449 9455.695 7998.799 4881.391 3440.959 3413.716 9656.634 7126.038 2894.607 8187.915 9771.270 2913.941 10053.395 6722.261 6476.136 6620.945 7111.197 3930.470 6004.653 6155.694 8936.559 6494.667 11267.321 4429.213 3580.684 9312.435 4122.975 10463.484 2716.054 9135.044 5839.531 2975.978 5608.951 6698.378 6596.870 5327.906 7787.554 9241.747 6598.167 6743.193 2934.220 6943.132 8384.617 4454.088 6569.708 9853.883 7204.296 7019.400 5611.321 9879.937 3642.348 3589.332 7320.423 4339.646 8398.849 2884.505 6808.860 4809.769 4359.044 5389.853 8903.548 9698.294 7111.272 10037.080 3153.291 14034.869 3956.278 6955.516 9188.421 6336.004 8294.700 2879.112 4048.872 9486.863 3525.497 10305.759 3176.206 8005.623
6265.799 1353.743 883.869 2386.017 6255.957 6180.630 1487.287 4292.939 1471.927 1652.133 11970.542 812.661 5353.900 6638.159 5362.354 7618.865 8110.477 1694.731 1685.668 2368.842 5146.484 10135.523 5401.960 10437.481 12243.202 2322.482 5092.822 2806.721 5933.878 2762.733 0.000 6661.897 4793.609 3881.100 3832.812 1492.571 5034.985 8093.661 6643.943 1808.674 11646.895 4812.069 2839.333 1341.834 3842.485 5353.749 8995.235 1683.036 1447.794 4939.256 5209.242 4311.558 1945.516 7867.946 1434.050 5290.213 5540.750 4866.807 960.353 647.371 3257.271 4515.420 3488.602 6252.813 1015.737 3965.643 4493.774 5080.719 4740.502 6619.062 2875.248 6258.868 10137.659 6275.566 4542.316 4538.855 4991.882 4847.247 5712.318 2983.632 1420.005 2388.473 3789.581 2310.502 1255.140 1228.927 4776.115 3612.918 2837.636 6430.640 1751.489 8341.442 6326.908 4057.029 2047.184 1570.128 7939.836 5282.451 688.176 6516.024 7772.787 2381.557 8054.913 4878.673 4804.245 5414.227 5267.609 2245.557 4797.934 4229.128 7822.306 5380.414 9595.430 2430.731 1341.037 7385.869 2386.110 8484.357 924.609 7928.325 4725.278 977.819 4225.213 4854.790 4753.282 3484.319 6115.663 8127.493 4754.579 4968.158 1282.861 5308.013 6458.051 2455.606 4643.142 7855.401 6090.043 5175.813 3684.755 8208.045 2774.841 1349.685 5321.941 2341.163 6726.957 1093.060 4965.272 3603.051 2515.456 3463.286 7231.656 8236.095 5267.684 8365.189 1309.703 12362.978 2219.413 5089.604 8074.168 4492.417 6829.427 1291.692 2838.277 7814.972 1681.910 8843.560 1568.233 6333.732
690.092 6392.136 6387.132 6365.888 2918.420 3662.450 7881.799 5160.588 5352.885 5945.178 7974.660 7093.464 1440.738 4194.124 3053.552 995.778 2229.473 5623.201 5913.271 6219.980 5534.723 4847.702 4848.880 6289.608 8095.329 4990.474 4096.711 9201.234 3911.682 6625.577 6474.560 0.000 5092.099 6429.878 6766.656 6179.102 4109.111 4534.747 7466.156 7256.174 12384.739 3241.933 4796.203 6792.798 4663.717 1600.642 3707.413 5984.408 6127.093 4443.511 3834.187 5179.207 5221.114 1986.942 5227.523 2246.611 5056.467 2716.015 5996.805 7041.884 7320.120 2325.434 7193.112 1854.076 6412.523 3198.595 6067.324 2426.054 3170.366 488.128 9269.760 1889.659 4933.301 4188.413 5161.162 6044.620 4190.677 2100.647 3139.404 6839.999 5877.331 5718.461 2884.808 7548.996 5772.295 6267.320 2574.744 7459.424 6694.002 772.190 5378.096 1901.446 4239.755 3693.042 4966.909 6568.813 5897.589 4950.196 7082.689 4428.871 6967.611 8776.070 7489.001 5459.663 3808.135 1501.064 5378.120 5010.770 3283.878 7007.601 1941.302 3071.612 6291.192 7588.000 7514.298 5984.978 5716.098 7136.026 5736.964 1373.527 2493.255 7372.332 3860.537 5251.582 5566.413 7464.190 3671.628 2193.349 5139.238 4075.191 5478.532 2214.600 5856.281 6906.162 5754.039 9616.306 2471.840 5146.037 7531.261 5764.011 9169.354 7522.945 6752.353 7579.657 4282.923 5568.513 5391.456 3095.693 6366.595 7167.796 2659.462 2948.274 4273.419 4244.531 6256.297 8215.105 5549.401 5925.059 2193.164 4895.211 2004.183 5443.978 4643.331 4907.560 5989.763 3555.739 5331.147 3889.697
4867.596 2816.668 2998.845 1962.940 3480.973 3134.406 4821.921 924.805 3273.454 2428.971 8924.318 4408.854 3969.240 3591.935 5333.947 5582.166 6815.862 3186.624 2420.458 1714.008 442.624 7935.737 1627.438 7508.248 9313.969 3128.879 1237.329 6337.820 2676.309 5441.691 3611.146 4837.145 0.000 2403.191 2739.969 2389.651 1083.734 5047.437 3773.595 3081.720 8950.920 2094.170 2934.608 4574.135 2888.079 3317.051 6749.831 2322.863 2689.911 1164.735 1638.980 943.423 3582.881 6573.330 3396.584 3090.427 1835.026 2667.021 3465.455 4120.624 2529.184 3135.776 2760.515 4216.115 4248.037 2796.586 2174.408 4706.448 2160.898 4582.363 5843.462 4059.082 7358.327 3114.222 348.551 1973.116 1040.631 2810.548 5683.911 1996.806 2440.149 2845.690 3340.594 3146.047 3748.677 2691.852 4855.138 2884.832 1850.810 4393.941 2915.322 6419.546 3191.087 4379.991 3670.104 2700.715 4506.359 1557.228 4161.429 3380.203 4902.440 5912.656 5184.565 1296.623 1707.960 4029.567 1685.559 3184.627 2618.700 2980.914 6527.690 5352.006 6549.206 3185.051 4029.638 3952.392 2843.327 5103.440 3539.657 5873.216 4773.649 4508.918 2484.944 159.483 1385.147 2495.187 3069.439 6711.449 47.139 1016.907 3324.571 3108.226 3024.574 2503.213 1572.773 6130.658 5714.398 1593.762 2956.669 5161.821 5933.454 4038.286 3059.791 3176.708 3656.611 3371.205 299.357 3534.721 1729.351 2735.200 4673.306 5627.508 1327.537 5318.965 2772.629 9433.745 2676.630 1743.793 6779.552 332.418 4629.640 3364.562 2791.379 4768.748 2328.219 6643.774 3262.401 3287.508
6266.458 2998.830 3181.007 1908.633 4195.804 3702.817 4271.624 1410.010 3455.616 2611.133 8744.671 4349.987 5368.102 3677.071 6732.808 6981.028 8214.724 3368.786 2602.620 2406.137 2623.023 8886.076 2132.166 7583.487 9616.980 3443.715 2795.479 5880.008 2991.501 5623.853 3681.274 6236.006 2278.257 0.000 336.778 2571.813 2859.558 5310.537 3167.117 2155.271 8344.442 3203.452 3960.566 4756.297 4705.013 4715.912 7290.505 2505.025 2872.073 2130.978 3037.842 1391.391 3765.043 7972.192 3578.746 4364.728 1885.408 4065.883 3647.617 3729.324 1100.876 4534.638 763.234 5419.294 4430.199 4252.988 612.674 6105.309 3263.141 5981.225 5268.178 5155.043 7899.001 3082.913 2018.855 657.754 2598.781 4209.410 7082.773 2688.936 2622.311 3027.852 4739.456 2342.735 3930.839 2874.014 6254.000 1029.546 2542.939 5792.803 3097.484 7818.408 3159.778 5692.417 3852.266 2882.877 4058.736 1627.109 3770.129 3348.894 4295.962 5492.983 4578.088 1324.568 3106.822 5428.429 1612.267 3366.789 4017.562 577.723 7926.552 6750.868 6369.558 2381.739 3557.794 3504.769 3025.489 4655.817 3721.818 7004.369 6172.510 4225.671 4043.094 2331.329 951.732 1617.361 3357.490 8110.311 2231.118 2461.996 3506.732 4268.149 2576.951 1699.901 762.041 5524.180 7113.260 1520.471 1101.383 4853.330 5377.357 3566.442 2453.314 2373.396 3625.302 3553.367 2441.811 4933.582 2421.480 737.918 5213.980 6168.182 2146.603 5717.389 2954.791 9317.983 2858.792 1208.503 8178.414 1968.955 5716.565 3546.724 4148.081 4853.884 2510.381 7202.278 3444.563 3474.087
6603.236 2904.442 3086.618 1814.244 4532.582 4039.595 4177.236 1746.788 3361.227 2516.745 9081.449 4255.599 5704.880 4013.850 6903.354 7317.806 8551.502 3274.398 2508.232 2311.749 2959.801 9222.855 2468.945 7920.265 9953.758 3349.326 3132.257 5785.619 3328.279 5529.465 3586.886 6572.785 2615.036 336.778 0.000 2477.424 3196.336 5647.316 3503.896 2060.882 8681.221 3540.230 3866.178 4661.908 4755.880 5052.691 7627.283 2410.637 2777.684 2467.756 3374.620 1728.170 3670.655 8308.970 3484.357 4701.506 2222.187 4402.661 3553.228 3634.935 764.098 4871.416 426.455 5756.072 4335.810 4589.766 949.452 6442.088 3599.919 6318.003 5173.789 5491.821 8235.780 3419.692 2355.633 994.533 2935.559 4546.188 7253.318 2594.547 2527.922 2933.463 5076.234 2248.346 3836.450 2779.625 6317.115 692.768 2448.551 6129.581 3003.096 8155.186 3496.556 5598.028 3757.878 2788.489 4395.514 1963.887 3675.740 3685.672 4632.740 5398.594 4914.866 1661.347 3443.600 5765.207 1949.045 3272.401 4354.340 567.567 8263.330 6921.413 6706.336 2287.350 3463.406 3841.547 2931.100 4992.595 3627.430 7341.147 6266.278 4131.283 4379.872 2668.107 1288.511 1522.972 3694.269 8447.089 2567.896 2798.774 3412.344 4604.928 2913.729 1605.512 1098.820 5860.958 7450.038 1857.249 764.604 5190.108 5282.968 3472.053 2790.092 2279.007 3962.080 3458.978 2778.589 5144.051 2327.092 401.140 5550.758 6504.960 2483.381 6054.168 2860.402 9654.762 2764.403 1545.282 8515.192 2305.734 6053.343 3452.335 4053.692 5190.663 2415.992 7539.056 3350.174 3810.865
5915.802 495.123 687.841 985.202 5483.452 5408.125 2510.916 2892.124 1352.680 468.007 11198.038 2097.850 5003.904 5865.654 5104.005 6986.248 7852.128 1265.850 459.494 1028.546 3745.669 9363.019 4001.145 9664.976 11470.697 1549.978 3787.765 4026.815 5050.016 3304.721 1300.142 6241.226 3392.794 2563.264 2514.976 0.000 3634.171 7321.156 5730.381 1263.050 10907.706 4039.565 2066.829 2263.130 3584.137 4721.132 8222.730 194.694 656.853 3538.441 4189.416 2910.743 1871.306 7609.597 1475.810 4517.708 4139.935 4094.303 1154.450 1809.620 1939.434 4033.090 2170.765 5620.196 1937.032 3346.974 3175.937 4822.370 3967.997 5986.444 3532.458 5486.363 9365.154 5487.929 3141.501 3221.018 3591.067 4214.629 5453.970 1582.817 479.185 1134.115 3531.232 1764.878 1797.128 370.306 4517.766 2295.082 1436.821 5798.022 1097.703 7823.628 5554.403 3798.680 1958.529 389.711 6622.000 3881.636 1850.425 5743.519 6859.226 3601.652 7141.352 3477.858 4031.740 5064.230 3866.794 1473.052 4051.356 2911.291 7563.957 5122.065 8822.925 1885.107 1718.633 6068.033 1131.751 7219.081 1400.666 7295.708 4466.929 2197.913 3452.708 3453.975 3352.467 2083.504 5343.158 7869.145 3353.764 3567.343 1403.796 4535.508 5140.215 1525.476 3325.305 7309.777 5831.694 3774.998 2366.918 7416.594 3622.450 1727.281 4776.317 1795.539 5954.453 1450.431 3564.457 3344.702 1175.160 2145.450 6459.152 7463.591 3866.869 7592.684 451.083 11590.473 965.054 3711.113 7815.819 3091.602 6056.922 1443.787 2254.344 7042.467 189.339 8071.056 1341.627 5561.227
3884.609 3900.403 4082.580 3046.674 2932.400 2585.833 5905.655 1529.686 3753.512 3512.706 8375.746 5460.975 2986.253 3043.362 4350.959 4599.179 5832.875 3666.683 3504.193 2797.742 1526.359 6952.750 1605.495 6959.675 8765.396 2902.763 184.172 7421.554 2177.732 5535.861 4694.881 3854.157 1083.734 2935.329 3272.107 3473.386 0.000 4498.864 3991.257 4165.455 9168.582 1509.759 2708.492 5249.238 2677.933 2334.063 5812.461 3406.598 3773.645 1138.494 1020.136 1548.305 3796.131 5590.343 3876.642 2107.439 1813.083 1684.034 4157.024 5204.359 3612.919 2152.788 3698.563 3233.127 4868.963 1871.138 2592.425 3723.460 1552.354 3599.376 6927.196 3076.094 6809.755 2601.779 1315.743 2523.479 278.138 1827.560 4700.924 3080.541 3523.883 3630.749 2357.607 4229.782 4228.736 3775.587 3872.150 3964.875 2934.544 3410.953 3290.385 5436.559 2653.121 3397.004 3870.616 3784.450 4310.956 1535.285 5245.164 2842.237 5012.400 6996.391 5402.227 1828.761 636.186 3046.580 1903.220 3120.059 1635.713 3513.052 5544.703 4369.019 6000.633 4268.786 5113.372 4029.767 3628.386 5180.816 4019.715 4890.228 3790.661 5592.652 1563.016 1243.218 1935.511 3578.922 2520.866 5728.462 1130.874 398.063 3804.629 2125.239 3101.949 3586.948 2123.137 6348.319 4731.411 1671.138 4036.712 4613.249 7017.189 5122.020 3277.453 4260.443 3118.645 3851.263 1383.091 2551.733 2813.085 3673.248 4048.883 5053.322 1137.419 4770.392 3856.363 8885.172 3461.689 2294.157 5796.565 1000.891 3646.653 3844.620 2967.692 4220.175 3411.953 5660.787 3742.459 2738.935
4998.786 7386.176 7381.172 7102.789 1916.133 2533.841 9246.301 5143.434 6835.264 6939.218 4185.774 8542.726 5119.538 1680.224 6278.908 4949.514 6301.491 6748.434 6907.311 6853.857 5582.474 5637.826 4177.372 2500.722 4306.443 5984.514 4541.294 10565.736 2813.865 8653.041 7839.062 4542.233 5139.849 5337.546 5674.324 7173.142 4605.374 0.000 4505.947 7492.817 8478.006 3425.197 5790.243 8330.990 6139.125 4154.396 4042.255 6978.448 7121.133 4251.663 4021.636 5162.053 6877.883 6058.959 6958.394 3417.854 4178.961 3759.858 7238.775 8406.386 6438.422 4693.320 6100.780 3920.278 7950.714 4967.737 4835.393 5651.409 3440.222 4211.056 10352.388 2695.367 4152.117 2278.341 5144.009 5172.734 4344.597 4315.780 6628.872 7136.656 6871.371 6712.501 5367.165 7680.281 7310.487 7261.360 5800.099 6367.092 6990.659 4099.557 6372.136 5675.637 2355.205 6380.646 6952.368 7562.853 2839.186 4590.286 8447.191 2315.907 3958.466 10140.572 4479.856 4800.869 4574.230 5082.867 4515.829 6201.810 4626.340 5915.269 6013.319 6296.967 1834.876 7719.285 8538.564 2975.833 6710.138 3472.299 7101.466 4851.263 5718.610 8736.834 4995.275 5299.332 5185.336 6954.907 2202.720 5967.540 5163.336 4207.811 6886.380 2954.460 4378.994 7037.447 5104.305 6607.161 6543.857 4410.003 6438.929 1733.328 10442.380 8547.211 5520.422 7710.942 1694.490 6933.015 5439.206 5578.050 6869.200 6075.465 2048.734 2919.932 4069.305 406.852 7250.337 4426.219 6543.441 5448.047 6265.181 4878.058 2916.682 6926.371 6049.443 684.086 6983.803 3954.028 6824.211 2532.730
7458.005 5970.497 5924.814 5045.214 4905.884 4412.898 6958.627 2978.024 6592.198 5747.715 7214.530 7036.991 6559.650 3496.889 7924.356 8172.576 9406.272 6505.368 5739.202 5098.956 4021.567 9421.619 3256.213 6401.818 8184.318 6476.160 3987.026 8567.011 3844.583 8541.694 6368.278 7427.554 3676.801 3136.582 3473.360 5708.395 4051.106 4433.519 0.000 4842.274 5901.660 4327.498 6281.889 7500.103 6238.714 5907.460 7826.047 5641.607 6008.654 3255.025 4229.390 2969.090 6901.625 9163.740 6715.328 5488.775 3009.455 5257.430 6391.424 6416.327 4237.458 5726.185 3899.815 6543.341 7174.006 5444.535 2634.429 7296.857 4387.187 7172.772 7955.181 5924.658 8434.544 3402.835 3417.399 2971.769 3790.329 5400.957 8274.320 5381.755 5758.892 6164.434 5931.004 5435.994 7034.101 5845.681 7445.547 4166.128 5235.758 6926.045 6234.066 8952.789 3479.700 6970.401 6988.848 6019.459 2712.808 2751.155 6457.132 3452.883 1301.458 8179.986 1583.583 2599.904 4298.370 6619.977 2736.314 6503.371 5209.110 3714.304 9118.100 7942.416 5187.888 5518.321 6244.798 2241.128 6162.071 2013.027 6637.640 8128.415 7364.058 6912.675 5234.642 3729.872 2984.371 4753.943 3918.450 9244.692 3629.662 3653.544 6643.314 5392.196 3558.902 4836.483 2903.340 3081.398 8304.808 2644.517 4237.964 3957.000 8064.360 6253.445 1353.337 5466.655 3478.982 6689.949 3840.355 6125.130 5114.299 3874.500 5749.522 6703.724 3270.649 4840.371 5926.458 7823.238 5995.373 3247.083 9369.962 3367.499 6426.645 6683.305 6142.015 3976.866 5646.962 7737.820 6581.145 4285.640
6891.345 1128.223 1082.540 1365.120 6360.121 5867.135 2275.350 3508.511 2165.642 1568.137 10908.988 2194.716 5979.446 5841.389 6079.548 7961.790 8827.671 2122.674 1601.672 1916.406 4362.056 10338.562 4296.484 9747.805 11781.298 2525.521 4404.152 3889.535 5155.818 3699.420 1526.004 7216.769 4009.181 2164.317 2116.029 1267.052 4250.557 7474.855 4927.160 0.000 9930.112 5015.107 3042.372 2657.829 4559.679 5696.675 9198.273 1457.517 1289.953 4154.828 4805.803 3527.130 2745.820 8585.140 2304.807 5493.251 4049.726 5069.845 1549.150 1574.053 1540.488 5008.633 1771.819 6595.739 2331.732 4322.517 2776.991 5797.913 4943.540 6961.987 3147.975 6461.906 10063.319 5247.231 3757.888 2822.072 4207.454 5190.172 6429.512 2199.204 1336.009 2304.477 4506.775 593.720 2191.827 1003.407 5493.309 1896.136 2053.207 6773.565 1954.527 8799.170 5324.096 4774.223 2833.043 1344.609 6223.053 3791.426 1614.858 5513.212 6056.004 3474.139 6338.130 3488.886 4874.783 6039.773 3776.585 2448.595 5026.899 2512.345 8539.500 6097.608 8533.875 713.948 1402.524 5669.086 2302.114 6767.574 1795.365 8271.250 5442.472 2070.401 4428.251 4070.362 3116.050 1780.935 5521.808 8844.687 3970.151 4183.730 2153.617 5511.051 4741.268 738.823 2926.359 6138.618 6807.237 3684.788 1967.972 7017.647 3386.883 1411.171 3605.158 624.381 5789.620 1963.817 4180.844 4320.245 1931.749 1746.504 7378.297 8332.499 4310.920 7881.707 1084.184 11482.301 2135.417 3372.821 8791.362 3707.989 7032.465 2162.449 3229.887 7018.202 1456.390 9046.599 2198.451 5638.404
12553.033 11000.817 10955.133 10140.242 9825.428 9332.441 11988.947 8073.052 11687.225 10842.743 7977.796 12067.310 11654.678 8416.432 13019.384 13148.414 14500.391 11600.396 10834.230 10193.984 9116.594 13830.171 8351.241 8013.411 9002.859 11571.187 9082.054 13597.331 8764.126 13572.014 11398.597 12522.582 8771.829 8231.609 8568.388 10803.423 9146.133 8479.090 5858.594 9872.593 0.000 9422.526 11376.917 12530.423 11333.742 11002.488 12234.599 10736.635 11103.682 8350.052 9324.417 8064.118 11996.653 14257.859 11810.355 10583.802 8104.483 10352.458 11421.743 11446.647 9332.486 10821.213 8994.843 11465.089 12204.325 10539.563 7729.456 12391.885 9482.215 12267.800 12985.500 10844.202 12094.780 8322.379 8512.426 8066.797 8885.356 10495.985 13369.348 10476.782 10853.920 11259.461 11026.031 10466.313 12064.421 10876.001 12540.575 9261.155 10330.786 11847.793 11329.094 13874.537 8399.243 12065.428 12083.876 11114.487 6718.311 7846.183 11487.452 8372.427 5546.427 13210.305 5558.058 7694.932 9393.397 11715.004 7831.341 11598.399 10304.138 8809.332 14212.219 13037.443 7612.764 10586.541 11275.117 6390.508 11257.098 5684.368 11667.959 13050.163 12459.086 11942.994 10329.670 8824.900 8079.399 9848.970 8837.994 14166.440 8724.689 8748.571 11738.342 10487.224 8653.929 9931.511 7998.368 5232.090 13399.836 7739.545 9332.992 7491.283 13094.680 11283.765 6448.365 10496.974 8398.526 11784.977 8935.382 11220.158 10209.327 8969.528 10527.825 11399.022 8365.677 8885.942 10956.777 8586.504 11090.401 8342.110 14464.081 8462.527 11346.189 11778.333 11237.042 8586.963 10741.990 12280.910 11676.172 9205.183
3322.024 4079.296 4074.292 4053.048 1850.660 1504.093 5939.421 2097.535 3528.383 3632.338 7294.006 5235.846 2738.461 1961.622 4103.167 3911.046 5221.869 3441.554 3600.430 3807.958 2536.575 5875.317 1663.489 5877.935 7683.656 2677.634 1435.384 7258.856 1178.351 5331.314 4532.182 3243.152 2093.950 3244.487 3581.265 3866.261 1499.463 3417.124 4280.765 4943.334 9458.090 0.000 2483.363 5024.110 2770.470 1760.317 4735.028 3671.568 3814.253 1205.764 596.439 2116.154 3571.003 4979.338 3651.514 1173.155 1871.076 949.140 3931.895 5099.506 4345.364 1927.660 4007.721 2227.721 4643.834 1646.010 2881.933 3475.668 71.567 2988.370 7045.508 1998.661 5728.015 1520.039 2098.110 2859.230 1238.686 1602.432 4453.131 4090.756 3564.491 3405.621 2132.478 5236.155 4003.607 3954.480 3624.358 4274.033 3944.760 2610.426 3065.256 4637.169 1571.381 3171.875 3645.488 4255.972 3229.216 1764.805 5140.311 1760.497 4299.237 6833.692 4820.627 2286.117 1252.502 2798.788 2192.729 2894.930 1410.584 3822.210 4933.698 4121.227 4918.893 5275.160 5231.684 3316.604 3403.258 4467.652 3794.586 3812.795 3542.869 5429.954 1626.620 2253.433 2503.360 4589.137 1439.126 4929.072 2117.437 1101.901 3579.500 1076.576 3076.932 4593.322 2631.250 6637.828 4483.619 1960.646 4345.870 3531.509 7135.500 5240.331 3566.962 5266.817 2036.905 3626.135 2393.307 2326.604 3823.301 3982.406 2971.450 3975.889 1088.029 3688.652 3943.457 7803.432 3236.561 2862.006 5185.560 1832.159 2569.220 3619.491 2742.563 3138.435 3676.923 4583.354 3517.330 1657.195
4424.159 1943.300 2036.617 1917.052 3991.809 3916.482 3887.970 3420.284 1490.709 1496.341 9706.395 3198.172 3512.260 4374.011 4283.310 5494.604 6728.300 1403.880 1464.434 1771.144 3508.577 7871.376 3968.359 8173.333 9979.054 669.823 2828.674 5221.181 3669.730 3469.621 2494.508 4749.583 3065.953 3495.113 3446.825 1730.265 2841.074 5829.513 6354.121 2807.337 11531.446 2547.921 0.000 2986.435 2763.441 3229.489 6731.087 1535.571 1678.256 3501.358 2945.094 3438.902 1614.092 6485.768 1613.839 3026.065 4175.947 2602.659 1894.221 3061.832 2871.283 2541.447 3102.614 4128.553 2606.160 1855.331 4107.787 4001.675 2476.354 4494.801 4909.511 3994.720 7873.511 4011.418 3297.962 4152.867 2872.746 2722.986 4633.274 2391.162 1428.494 1269.624 2506.429 3100.159 1965.932 1818.483 3697.071 3226.931 2245.165 4306.379 1057.445 6331.984 4062.760 2977.985 1701.315 2119.976 5720.595 3898.149 3102.637 4251.876 6790.616 4796.018 7312.006 3970.430 2540.097 3572.587 4266.085 887.119 2559.713 3843.141 6440.128 4301.369 7331.282 3139.163 3095.687 5807.983 1267.261 6959.032 1756.912 5804.065 3646.234 3392.279 1961.065 3225.436 3880.626 3015.353 3851.515 6623.887 3113.092 2807.154 1541.826 3043.865 5464.814 2457.325 4068.252 8711.184 5010.999 4034.002 3298.768 5943.898 4999.504 3104.335 5640.318 3130.820 4462.810 1588.460 3365.309 2524.007 1917.758 3077.299 4967.509 5971.948 3500.283 6101.041 1807.461 10098.830 1100.564 4239.272 6691.990 2983.109 4565.279 1581.817 1111.219 5550.824 1540.927 6579.413 1479.656 4069.584
6410.016 2115.289 1645.415 3147.563 6495.161 6419.834 2114.506 5054.485 1630.840 2413.679 12209.746 951.129 5498.117 6877.363 5506.571 7763.082 8254.694 1933.935 2447.214 3130.388 5908.030 10374.727 6163.506 10676.684 12482.406 2561.686 5332.025 3024.514 6173.082 2348.009 1341.834 6806.114 5536.523 4725.625 4677.337 2254.117 5344.425 8332.865 7560.383 2725.115 12563.336 5051.273 3078.537 0.000 3986.702 5497.967 9234.439 2444.583 2209.340 5700.802 5448.445 5073.104 2089.733 8012.163 1578.267 5529.417 6302.296 5106.011 1503.653 1771.760 4101.795 4659.637 4333.126 6397.031 725.719 4109.860 5338.298 5224.936 4979.706 6763.279 3982.694 6498.072 10376.863 6514.770 5303.862 5383.379 5376.097 4991.464 5856.535 3745.178 2181.551 2661.582 3933.798 3226.943 1022.068 1990.473 4920.332 4457.443 3599.182 6574.857 1990.693 8485.659 6566.111 4201.246 2161.299 2331.674 8223.946 6043.997 1812.565 6755.227 8689.228 2599.350 8971.354 5640.219 5043.449 5558.444 6029.155 2466.714 4942.151 5073.652 7966.523 5524.631 9834.634 3347.171 2498.642 8230.394 2659.219 9381.442 1455.059 8072.542 4869.495 1955.914 4464.416 5616.336 5514.828 4245.865 6354.867 8271.710 5516.125 5310.505 1470.463 5547.216 7302.575 3372.046 5487.666 8771.841 6234.260 5937.359 4529.279 8447.249 3327.756 2507.290 6238.381 3257.604 6966.161 1560.444 5726.818 3747.268 3277.002 4307.811 7470.860 8475.299 6003.635 8604.392 2071.249 12602.181 2492.522 5873.474 8218.385 5253.963 7068.631 1415.356 2982.494 8054.176 2443.456 9082.764 1712.450 6572.936
4654.814 3827.082 3547.254 3621.917 5437.730 5091.163 4995.013 3305.842 2466.099 3473.684 10881.075 4188.445 3742.915 5548.692 3398.384 5936.874 6146.508 2736.416 3441.777 3372.985 3394.135 8780.018 3896.930 9465.004 11270.726 2405.674 3346.482 6314.448 4772.069 3518.955 3587.774 5050.912 2951.511 4810.092 4763.703 3707.608 3192.887 7004.194 6282.692 4665.829 11460.017 3650.261 2887.777 3887.779 0.000 3742.764 7639.730 3512.914 3562.039 3429.929 3591.451 3324.460 2471.414 5903.976 2340.737 4335.471 4104.518 4276.832 3110.019 4155.098 4188.162 2904.435 4419.492 4641.828 3507.503 2728.386 4603.376 3116.749 3578.693 5008.077 6382.975 5004.327 8865.617 5113.757 3183.520 4354.153 3149.784 3236.261 3748.349 3655.783 3312.277 3246.967 2178.596 4805.024 2867.276 3702.266 2812.145 4543.809 3509.787 4819.655 2752.953 6377.472 5165.099 1803.168 1874.634 4097.319 6822.934 3826.720 4195.903 5354.215 7303.835 5889.284 7693.662 3855.988 3817.113 3803.242 4194.655 2287.367 3560.677 5160.019 5858.336 3416.444 8505.963 4844.028 4627.512 6321.203 3244.604 7472.251 2850.178 6317.340 2761.308 4485.546 3164.975 3110.994 3766.184 4154.164 5026.196 6163.524 2998.650 3126.060 2591.746 4451.095 5393.384 4162.191 3953.810 8639.754 4126.073 3962.573 4615.646 7118.578 6282.568 4636.160 5568.888 4835.685 5630.623 2681.727 3250.868 1992.066 3388.328 4394.177 6298.791 6880.590 3436.689 7275.722 3691.243 11390.502 3077.907 4124.830 6110.198 2868.667 5476.996 2557.192 2051.419 6725.505 3518.269 7488.055 2444.361 5244.265
1700.147 4842.132 4837.127 4815.883 2462.726 2702.923 6596.632 3634.220 4067.717 4395.173 7837.478 5808.297 1145.178 3160.452 2484.731 2428.611 3662.306 4204.389 4363.266 4669.976 4008.355 5377.599 3455.502 6152.426 7958.147 3440.469 2570.343 7916.066 2878.009 5340.410 5189.392 1683.589 3565.731 5036.500 5373.278 4629.097 2582.743 4271.630 6072.778 5706.169 11250.103 1848.555 3246.199 5507.631 3380.937 0.000 4237.311 4434.403 4577.088 3035.729 2426.404 3652.839 3935.947 3419.775 3942.355 1073.274 3663.089 1253.132 4694.730 5756.716 5770.115 928.182 5799.733 1239.409 5127.355 1655.106 4673.946 1857.232 1776.988 1428.807 7808.343 1601.908 5463.198 3154.741 3634.794 4628.013 2664.309 550.643 2834.696 5289.994 4327.326 4168.456 1602.028 5998.991 4487.128 4717.315 2005.923 6066.046 5143.997 1240.385 3828.091 3265.991 3206.082 2477.323 3681.741 5018.808 4863.917 3556.818 5797.521 3395.198 5933.938 7490.903 6455.329 3933.294 2281.766 1205.504 3984.741 3657.765 1757.510 5614.222 3374.135 2502.791 5835.499 6037.995 5994.519 4951.306 4166.093 6102.354 4451.797 2738.071 1924.433 6087.164 2310.532 3725.214 4040.045 5914.185 2637.956 3557.894 3612.870 2548.823 4193.364 1388.800 4822.609 5356.157 4227.671 8429.840 2865.183 3752.659 6137.882 4730.338 7884.186 6003.167 5358.974 6029.652 3249.250 4283.345 3865.087 1812.913 4816.590 5774.418 2896.372 3478.171 2880.041 4107.348 4706.292 8077.923 3999.396 4398.691 3625.997 3368.843 2074.577 4158.810 3358.164 4337.265 4439.758 4085.636 4045.979 2856.025
4299.349 8295.653 8290.649 8269.405 3518.019 4327.788 10155.778 6833.315 7744.741 7848.695 6109.983 9452.203 4890.262 4348.087 6049.632 3884.440 4511.797 7657.911 7816.788 8123.497 7210.296 1595.571 6008.941 4838.237 4991.711 6893.991 5772.284 11475.213 4607.811 9196.559 8748.539 3707.333 6767.671 7376.177 7712.955 8082.618 5784.684 4002.176 7869.822 9159.691 12274.883 4739.966 6699.720 9240.467 7255.317 4263.640 0.000 7887.925 8030.610 5941.544 5332.219 6851.934 7787.360 4281.584 7798.504 4130.230 6069.992 4646.281 8148.252 9315.863 8477.053 4802.563 8139.411 3950.363 8860.191 5511.254 6874.024 5422.134 4668.398 3376.155 11261.865 3083.273 2178.081 4574.009 6833.889 7211.364 5866.250 4425.023 6376.522 8743.515 7780.848 7621.978 5476.409 9452.513 8219.964 8170.837 5570.824 8405.723 8597.519 3557.914 7281.613 2926.315 4625.351 6489.889 7537.890 8472.330 6234.495 6421.856 9356.668 4783.600 7322.340 11050.049 7843.730 6771.814 5483.707 4853.592 6406.861 7111.287 5461.726 7953.900 4571.243 6067.692 5608.994 9491.517 9448.041 6339.707 7619.615 7474.475 8010.943 3893.702 5489.335 9646.311 6019.218 6927.154 7197.978 8993.538 4108.607 3588.784 6814.811 5750.764 7795.857 3840.736 6417.625 8809.679 7116.947 9971.035 5708.957 6301.034 8477.560 5460.843 11351.857 9456.688 7559.052 9483.174 4405.194 7842.492 7067.028 5687.293 8270.112 8114.095 2378.285 1579.736 5771.452 3711.959 8159.814 6341.203 7452.918 7460.690 4394.635 6567.939 2818.325 7835.848 6958.920 4542.194 7893.280 369.318 7733.688 4326.676
5721.108 673.530 882.535 848.727 5288.758 5213.432 2705.610 2755.649 1157.986 273.313 11003.344 2292.544 4809.210 5670.960 4909.311 6791.554 7657.435 1071.156 264.800 833.852 3609.194 9168.325 3864.670 9470.282 11276.003 1355.284 3651.290 4221.509 4913.540 3326.223 1494.835 6046.532 3256.318 2426.788 2378.500 194.694 3497.695 7126.462 5593.906 1457.744 10771.231 3844.871 1872.135 2457.824 3389.443 4526.438 8028.036 0.000 534.253 3401.966 4052.941 2774.268 1676.612 7414.903 1281.116 4323.014 4003.460 3899.609 1349.144 2004.314 1802.959 3838.396 2034.290 5425.502 2131.726 3152.280 3039.462 4627.676 3773.303 5791.750 3727.151 5291.669 9170.461 5308.368 3005.026 3084.543 3454.592 4019.935 5259.276 1446.342 284.491 939.421 3336.538 1959.572 1633.209 548.714 4323.072 2158.606 1300.345 5603.328 903.009 7628.934 5359.709 3603.986 1763.835 584.405 6485.524 3745.160 2045.119 5548.825 6722.750 3796.346 7004.876 3341.383 3837.046 4869.537 3730.319 1278.358 3856.662 2774.816 7369.263 4927.371 8628.232 2070.838 1913.327 5931.557 937.058 7082.605 1424.189 7101.014 4272.235 2392.607 3258.014 3317.499 3215.991 1947.028 5148.464 7674.451 3217.289 3430.868 1209.102 4340.814 5003.739 1389.001 3188.830 7504.471 5637.000 3638.522 2230.443 7240.847 3817.144 1921.975 4880.102 1990.233 5759.759 1255.737 3427.982 3150.008 980.466 2008.974 6264.458 7268.897 3730.394 7397.990 629.490 11395.779 770.361 3574.637 7621.125 2955.126 5862.228 1249.094 2059.650 6847.774 5.355 7876.362 1146.933 5366.533
6421.830 365.597 947.653 1478.522 5989.480 5914.153 2770.728 3385.444 1858.708 974.035 11704.066 2357.662 5509.932 6371.682 5610.033 7492.276 8358.156 1771.878 965.522 1534.574 4238.989 9869.047 4494.464 10171.004 11976.725 2056.006 4281.084 4286.628 5543.335 3564.533 1559.954 6747.254 3886.113 3056.583 3008.295 571.966 4127.490 7827.184 6223.701 1522.862 11361.083 4545.593 2572.857 2522.942 4090.164 5227.160 8728.758 722.423 0.000 4031.761 4682.735 3404.062 2377.334 8115.625 1981.838 5023.736 4633.255 4600.331 1414.263 2069.432 2432.754 4539.118 2664.084 6126.224 2196.845 3853.002 3669.257 5328.398 4474.025 6492.472 3792.270 5992.391 9871.182 5981.248 3634.821 3714.337 4084.387 4720.657 5959.998 2076.136 985.213 1640.142 4037.260 2024.691 2056.940 240.780 5023.794 2788.401 1930.140 6304.050 1603.731 8329.655 6058.113 4304.708 2464.557 649.523 7115.319 4374.955 2110.237 6247.229 7352.545 3861.464 7634.671 3971.177 4537.768 5570.258 4360.113 1979.080 4557.384 3404.611 8069.985 5628.093 9328.953 2144.919 1978.446 6561.352 1637.779 7712.400 1660.478 7801.736 4972.957 2457.726 3958.736 3947.294 3845.786 2576.823 5849.186 8375.173 3847.084 4060.663 1909.824 5041.536 5633.534 2018.795 3818.624 7569.589 6337.722 4268.317 2860.238 7909.913 3882.262 1987.093 5036.129 2055.352 6460.481 1828.930 4057.777 3850.730 1681.188 2638.769 6965.180 7969.619 4360.189 8098.712 229.757 12096.501 1471.082 4204.432 8321.847 3584.921 6562.950 1949.815 2760.372 7548.495 727.779 8577.084 1847.655 6067.255
4522.949 4137.225 4319.402 3283.496 2592.567 2246.000 6142.477 1324.142 4422.820 3749.528 8035.913 5729.411 3655.560 2695.655 5020.267 5111.971 6422.795 4335.990 3741.015 3034.565 1763.181 7076.242 614.713 6619.842 8425.563 3572.070 1082.937 7658.377 1663.584 6005.334 4931.703 4444.077 1320.557 2116.139 2452.917 3710.208 1147.016 4159.031 3152.417 4271.409 8329.742 1205.764 3377.799 5894.691 3429.710 2961.242 5861.425 3643.420 4010.467 0.000 1041.559 1342.761 4451.150 6180.263 4545.950 2374.080 822.301 2150.065 4786.012 5441.181 3217.015 2822.096 2879.372 3428.646 5538.270 2540.446 1753.584 4392.768 1272.492 4189.295 7164.019 3199.587 6469.922 2101.497 1324.716 1730.881 886.239 2496.868 5370.231 3317.363 3760.705 4166.246 3026.914 4458.873 4898.043 4012.409 4541.458 3145.684 3171.366 3811.351 3959.692 5838.094 2178.362 4066.311 4346.665 4021.272 3744.894 661.152 5481.986 2367.478 4173.560 7233.213 4563.387 1157.768 1394.280 3715.887 1064.380 3789.366 2305.020 2693.861 6134.623 5038.326 5660.800 4497.877 5350.195 3190.927 4163.883 4341.975 4689.022 5013.721 4459.969 5829.474 2330.552 1480.040 1583.932 3733.499 2181.033 6129.997 1344.043 749.454 4473.936 2277.501 2263.109 3816.040 1502.901 5509.479 5400.719 832.297 3217.521 4251.379 7254.011 5358.842 2438.613 4489.534 2643.886 4520.571 1619.913 3221.041 3049.908 2854.057 3784.900 4739.102 439.131 4430.559 4093.185 8545.339 3997.186 1846.644 6386.485 1058.765 3770.145 4513.928 3333.010 3872.468 3648.775 5773.198 4411.767 2379.338
3941.582 4497.901 4617.913 3644.172 2470.218 2123.651 6483.042 1749.722 4072.004 4110.204 7913.564 5779.467 3350.576 2581.180 4715.283 4530.604 5841.427 3985.175 4101.691 3395.241 2123.857 6494.875 1481.549 6497.493 8303.214 3221.255 997.808 7802.476 1797.908 5706.765 5075.803 3862.710 1681.233 3062.548 3399.326 4070.884 1061.887 4036.682 4098.826 4762.953 9276.151 619.558 3026.984 5567.730 2877.770 2379.874 5354.586 4004.096 4357.873 1011.064 0.000 1768.341 4114.623 5598.895 4195.134 1792.712 1689.137 1568.697 4475.516 5643.127 4163.424 2517.112 3825.781 2847.278 5187.455 2045.562 2699.993 4087.784 691.125 3607.928 7524.695 2618.219 6347.572 2139.597 1750.296 2677.290 801.110 2191.884 5065.247 3678.039 4108.111 3949.241 2696.660 4827.280 4547.227 4373.085 4236.474 4092.093 3532.042 3229.983 3608.877 5256.726 2190.938 3761.327 4048.097 4381.948 3848.773 1582.866 5683.932 2380.054 4918.794 7377.313 5440.185 2048.796 1089.296 3410.903 2010.789 3438.551 2000.036 3640.270 5553.255 4733.342 5538.451 4866.284 5710.870 3936.162 3946.878 5087.210 4338.207 4432.353 4154.985 5973.574 1733.920 1840.716 2155.546 4176.420 2058.684 5548.630 1728.372 664.325 4123.121 1696.134 3103.038 4184.446 2343.173 6455.888 5095.735 1778.707 4163.930 4151.067 7614.687 5719.518 3385.022 4857.941 2656.463 4169.755 1980.589 2803.857 3410.583 3800.466 3591.008 4595.447 906.089 4308.210 4453.861 8422.990 3780.181 2514.193 5805.117 1484.345 3188.778 4163.112 3286.184 3757.993 4009.451 5202.912 4060.951 2276.753
4929.584 3242.212 3424.388 2388.483 3518.677 3149.141 5247.464 18.619 3698.997 2854.515 8495.538 4834.398 4031.229 3427.939 5395.935 5644.155 6877.850 3612.168 2846.002 2139.551 1231.632 7997.726 1397.036 7334.355 9351.672 3554.422 1458.605 6763.363 2445.906 5867.235 4036.689 4899.133 886.866 1485.631 1822.410 2815.194 1522.685 5061.405 3076.840 3507.263 8254.165 2131.873 3360.151 4999.678 3313.622 3379.039 6787.535 2748.407 3115.454 934.332 1700.968 0.000 4008.425 6635.319 3822.127 3152.415 1261.945 2729.009 3890.998 4546.167 2586.508 3197.764 2248.865 4278.103 4673.580 2916.114 1278.915 4768.436 2198.602 4644.351 6269.005 4121.070 7396.031 2833.781 627.464 1029.692 1261.907 2872.536 5745.899 2422.350 2865.692 3271.233 3402.583 3571.590 4174.220 3117.395 4917.126 2515.177 2276.353 4455.929 3340.866 6481.535 2910.646 4441.980 4095.647 3126.259 3809.604 1003.645 4586.972 3099.762 4205.684 6338.200 4487.810 599.867 1769.948 4091.555 988.803 3610.171 2680.689 2063.354 6589.679 5413.994 6120.426 3610.595 4455.181 3255.637 3268.870 4406.685 3965.200 5935.204 4835.637 4934.461 2706.221 939.937 441.724 2920.730 3045.064 6773.438 839.727 1125.122 3750.114 3170.215 2327.819 2928.757 629.350 5433.902 5776.387 897.007 2587.014 4604.198 6358.998 4463.829 2363.036 3602.251 3376.170 3796.748 1050.420 3596.709 2154.894 2223.550 4711.009 5665.211 1262.760 5356.668 3198.172 9068.851 3102.173 800.370 6841.541 577.564 4691.629 3790.105 3216.923 4604.752 2753.762 6699.308 3687.944 3161.661
4602.301 1752.439 1432.391 1894.378 4978.516 4903.189 3244.078 3801.300 715.163 1469.762 10693.101 2455.743 3690.402 5360.718 3698.856 5955.367 6446.980 621.552 1441.761 1748.470 4290.010 8727.506 4792.805 9160.039 10965.761 843.106 3815.380 4563.512 4656.437 2419.508 1836.838 4998.399 3847.385 3472.440 3424.152 1707.592 3827.780 6816.220 6639.557 2550.965 11816.882 3534.628 1561.892 2155.077 2178.988 3690.252 7587.217 1512.898 1487.396 4325.804 3931.800 3819.919 0.000 6204.448 589.801 4012.772 5000.393 3589.366 1289.994 2404.162 2848.610 2851.922 3079.941 4589.316 1774.801 2302.145 4085.113 3417.221 3463.061 4955.564 4551.305 4951.815 8813.104 4998.125 4050.677 4130.194 3859.452 3183.749 4048.821 2368.488 1237.634 1246.951 2126.083 3052.794 1134.574 1627.623 3112.617 3204.258 2222.492 4767.142 678.310 6677.944 5049.466 2393.531 383.687 2036.366 6707.301 4722.594 2444.967 5238.582 7768.401 4138.349 8050.527 4387.034 3526.804 3750.729 4775.970 733.532 3134.437 3820.467 6158.808 3716.916 8317.989 3116.490 2737.481 6794.690 1244.588 7945.738 1099.243 6264.828 3061.780 2734.610 2738.735 4006.868 4261.643 2992.680 4838.221 6463.996 3894.525 3793.860 840.810 4030.571 6049.390 2434.652 4234.481 8597.692 4426.545 4684.174 3276.094 6930.604 4531.632 2746.129 5925.753 3083.455 5449.516 930.791 4146.742 1939.553 1895.085 3054.626 5954.215 6828.078 4332.564 7087.747 1616.600 11085.536 1077.891 4620.289 6410.670 3764.542 5424.483 806.256 1174.779 6537.531 1518.253 7435.543 654.641 5056.291
2589.986 7699.130 7582.684 7766.442 4539.445 5362.739 9030.444 6918.059 6501.529 7345.731 9498.785 8242.109 3340.631 5894.413 2684.900 1878.548 261.390 6771.846 7313.824 7620.534 7292.194 5305.305 6553.676 7813.733 8980.129 6277.722 5854.182 10349.878 5611.971 7774.222 7623.205 2008.227 6849.570 8187.349 8524.127 7579.655 5866.582 6058.872 9215.382 8563.168 14085.029 4999.404 6292.184 7941.443 5724.316 3529.913 4165.017 7384.961 7434.087 6200.982 5591.658 6936.678 6369.759 0.000 6376.168 4004.082 6761.264 4473.486 7145.449 8190.529 8720.674 4225.327 8950.583 3611.547 7561.167 4676.623 7824.795 3179.743 4927.837 2012.253 10418.405 3510.684 5684.223 5888.702 6918.633 7802.091 5948.148 3869.631 2613.679 8240.552 7184.325 7119.014 4267.170 8949.549 6920.940 7574.314 3297.969 9076.321 8094.556 2529.661 6625.001 1239.640 5940.044 4316.569 6115.553 7969.366 7597.879 6707.667 8231.334 6129.160 8667.900 9924.715 9189.290 7217.133 5565.605 3400.958 7135.591 6159.415 5041.349 8765.072 547.466 2959.303 7893.748 8988.553 8662.942 7685.267 7116.651 8836.316 6885.609 2007.036 3216.480 8520.976 5343.957 7009.053 7323.884 8864.743 5371.917 1180.224 6896.709 5832.662 6627.176 3972.071 7556.571 8306.716 7511.510 11316.596 1946.114 6903.508 9148.158 7447.234 10317.998 8671.590 8509.824 8980.210 5983.212 6717.157 7148.927 4360.951 7767.148 8925.267 4183.587 4472.399 6030.890 5768.656 7563.291 9739.230 6949.954 7682.530 243.973 6652.682 3528.308 6592.622 5791.976 6528.585 7390.317 4013.342 6479.791 5589.986
4831.749 1582.511 1235.892 1826.698 5012.850 4937.523 2654.276 3733.620 155.921 1299.834 10727.435 1888.026 3919.850 5395.052 3928.304 6184.815 6676.427 451.624 1333.369 1680.791 4496.837 8892.416 4842.641 9194.373 11000.094 998.021 3849.714 3973.711 4690.770 2128.679 1247.037 5227.847 4054.212 3404.760 3356.472 1546.891 3862.114 6850.554 6571.877 2354.466 11749.202 3568.962 1596.226 1587.359 2408.435 3919.700 7752.128 1352.197 1317.468 4379.937 3966.134 3752.239 511.466 6433.896 0.000 4047.106 4981.431 3623.700 769.282 1814.361 2780.930 3081.370 3012.261 4818.764 1207.084 2531.593 4017.433 3646.669 3497.395 5185.012 4042.237 5015.761 8894.552 5032.459 3982.997 4062.514 3893.786 3413.197 4278.268 2300.809 1067.706 1179.271 2355.531 2856.295 566.856 1457.695 3342.065 3136.578 2154.812 4996.590 508.382 6907.392 5083.800 2622.979 613.135 1866.438 6741.635 4723.132 1855.166 5272.916 7700.722 3548.547 7982.848 4319.354 3561.137 3980.177 4708.290 888.447 3363.884 3752.788 6388.256 3946.364 8352.323 2976.523 2286.775 6829.024 1176.908 7980.072 509.441 6494.275 3291.228 2144.809 2968.183 4213.695 4193.963 2925.000 4872.555 6693.443 4101.352 3828.194 251.009 4064.905 5981.711 2366.972 4166.801 8401.193 4655.993 4616.494 3208.414 6964.938 3941.831 2295.422 5858.074 2886.956 5483.850 340.990 4353.569 2169.001 1827.405 2986.946 5988.549 6992.988 4521.324 7122.081 1446.672 11119.870 1010.211 4552.609 6640.118 3933.098 5586.319 216.455 1404.227 6571.865 1357.552 7600.453 134.183 5090.624
2311.100 4645.111 4640.107 4618.863 1923.858 2164.055 6505.236 3185.618 4094.198 4198.152 7671.743 5801.661 1727.536 2621.584 3092.242 2977.249 4210.945 4007.369 4166.245 4472.955 3559.754 5710.242 2916.633 6105.382 7911.103 3243.449 2121.742 7824.671 2339.141 5500.998 5097.997 2232.227 3117.129 4497.632 4834.410 4432.076 2134.142 3794.861 5533.910 5509.149 10711.235 1309.687 3049.178 5589.924 3741.070 749.392 4569.953 4237.382 4380.068 2496.860 1887.536 3204.237 4096.535 3968.413 4102.943 0.000 3124.221 714.264 4497.710 5665.321 5573.095 1288.315 5260.865 1572.052 5209.649 1815.694 4135.078 2464.744 1238.120 1977.446 7611.323 1815.997 5795.840 2615.872 3186.193 4112.374 2215.708 910.776 3442.207 5092.973 4130.306 3971.435 1962.161 5801.970 4569.422 4520.295 2613.434 5527.178 4946.977 1789.024 3631.071 3814.629 2667.214 2975.642 3842.329 4821.787 4325.049 3017.950 5706.126 2856.330 5395.070 7399.507 5916.460 3484.693 1833.165 1787.863 3445.873 3460.745 1344.345 5075.354 3922.773 3110.302 5296.630 5840.975 5797.499 4412.437 3969.072 5563.486 4360.401 3260.694 2531.945 5995.769 2368.676 3276.612 3591.443 5612.316 2099.088 4106.532 3164.269 2100.222 4145.315 849.932 4283.741 5159.137 3779.069 7890.972 3472.694 3213.791 5599.014 4191.470 7701.315 5806.146 4820.106 5832.631 2710.382 4191.950 3416.486 2173.045 4619.569 5235.550 2899.558 3810.814 2341.173 4060.304 4509.272 8030.879 3802.375 3950.089 4174.635 2920.242 2386.556 4185.306 3308.378 3798.397 4242.738 4418.279 4083.145 2317.157
5150.043 4527.868 4710.045 3674.139 2898.487 2297.973 6156.150 1304.275 4984.653 4140.171 7670.081 6120.054 4400.754 2429.580 5765.461 5646.721 6998.698 4897.824 4131.658 3425.207 2262.993 7396.729 330.814 6508.898 8369.489 4317.264 1828.131 7764.534 1481.853 6767.386 5322.346 5063.075 1918.227 1884.526 2221.304 4100.851 1892.210 4063.046 2920.804 4039.796 8098.129 1839.897 4122.993 6285.334 4190.663 3588.336 6043.014 4034.063 4401.110 822.301 1780.636 1295.341 5210.633 6756.166 5107.783 3001.174 0.000 2777.158 5176.654 5613.850 2985.402 3567.290 2647.759 3963.395 5959.236 3285.640 1521.972 5137.962 1899.586 4769.781 7152.703 3568.744 6651.510 1835.422 1658.825 1499.268 1631.433 3242.062 6115.425 3708.006 4151.348 4556.889 3772.108 4227.260 5459.877 4403.052 5286.652 2914.072 3562.009 4346.100 4626.522 6372.843 1912.287 4811.505 5108.718 4411.915 2984.146 777.429 5654.655 2101.403 3412.812 7377.508 3928.781 926.155 2139.474 4461.081 561.202 4534.560 3050.214 2462.248 6710.526 5783.520 5294.968 4266.265 5442.320 2430.179 4554.526 3581.228 5250.856 5548.470 5205.163 6110.197 3075.746 1971.298 1352.319 3501.887 2109.999 6664.746 1871.088 1494.648 5035.770 2904.595 1502.361 3584.427 1271.289 5277.866 6145.912 455.375 2985.908 3778.740 7261.882 5450.968 2207.000 4257.921 2377.811 5082.405 2081.781 3966.235 3440.550 2622.444 3966.489 4920.691 783.048 4469.898 4483.828 8243.394 4387.829 1615.031 6962.388 1608.925 4139.303 5075.761 4095.063 3606.393 4039.418 5954.787 4973.600 2226.596
2764.929 4195.142 4190.138 4168.894 1780.940 1705.613 6055.267 2735.649 3644.229 3748.183 7495.525 5351.692 2181.366 2163.142 3546.072 3431.079 4664.774 3557.400 3716.276 4022.986 3109.785 5660.506 2458.191 5962.463 7768.185 2793.480 1671.773 7374.702 1880.699 5455.002 4648.028 2686.057 2667.160 4039.190 4375.968 3982.107 1684.173 3618.644 5075.468 5059.180 10252.793 851.245 2599.209 5139.956 3308.617 1203.222 4520.218 3787.413 3930.099 2038.418 1429.094 2754.268 3686.849 4422.243 3767.359 802.634 2665.779 0.000 4047.741 5215.352 5123.126 1561.528 4802.423 2012.910 4759.680 1769.697 3676.636 2918.573 779.678 2431.275 7161.354 1783.851 5662.642 2157.431 2736.224 3653.932 1765.739 1183.988 3896.036 4643.004 3680.337 3521.466 2235.374 5352.001 4119.453 4070.326 3067.263 5068.736 4497.008 2242.853 3181.102 4268.459 2208.772 3248.854 3761.333 4371.818 3866.607 2559.508 5256.157 2397.888 4936.628 6949.538 5458.018 3034.724 1383.196 2241.692 2987.431 3010.776 1258.527 4616.912 4376.603 3564.132 5120.413 5391.006 5347.530 3953.996 3519.103 5105.044 3910.432 3597.985 2985.774 5545.800 1918.707 2826.643 3141.474 5162.347 1640.646 4560.362 2714.300 1650.253 3695.346 832.995 3825.299 4709.168 3329.100 7432.530 3926.524 2755.349 5140.572 3733.028 7251.346 5356.177 4361.664 5382.662 2251.940 3741.981 2966.517 2446.258 4169.600 4777.108 2756.639 3761.078 1882.731 3890.172 4059.303 7887.961 3352.406 3500.120 4628.465 2470.273 2354.410 3735.337 2858.409 3339.955 3792.769 4368.543 3633.176 1858.715
5587.406 975.359 466.610 2007.633 5468.657 5393.330 2093.063 3914.555 684.627 1273.749 11183.243 1389.488 4675.507 5850.859 4683.961 6940.472 7432.084 907.432 1307.284 1990.458 4768.100 9348.224 5023.576 9650.181 11455.902 1535.182 4305.522 3412.498 5146.578 2150.270 685.824 5983.504 4415.225 3585.695 3537.407 1114.187 4317.922 7306.361 6420.453 1585.184 11423.406 4024.769 2052.034 1401.721 3164.092 4675.356 8207.935 1304.652 1069.410 4560.872 4421.942 3933.174 1267.123 7189.553 755.657 4502.913 5162.366 4079.507 0.000 1253.148 2961.865 3837.027 3193.196 5574.420 980.222 3287.250 4198.368 4402.326 3953.202 5940.669 3331.317 5471.568 9350.359 5488.266 4163.932 4243.449 4349.594 4168.854 5033.925 2605.248 1041.621 1635.078 3111.188 2087.013 642.678 850.542 4097.722 3317.513 2459.251 5752.247 964.189 7663.049 5539.608 3378.636 1368.791 1191.744 7197.443 4904.067 1293.953 5728.724 7549.298 2987.334 7831.424 4500.289 4016.945 4735.834 4889.225 1458.257 4036.561 3933.722 7143.913 4702.021 8808.130 2207.241 1517.493 7090.464 1632.715 8241.512 246.216 7249.932 4046.885 1583.596 3437.913 4476.406 4374.898 3105.935 5328.363 7449.100 4376.195 4284.002 604.468 4520.713 6162.645 2232.116 4347.736 7631.911 5411.650 4797.429 3389.349 7420.746 3380.618 1526.140 5098.451 2117.674 5939.658 414.667 4586.888 2924.658 2137.072 3167.881 6444.357 7448.796 4889.300 7577.889 931.319 11575.678 1466.018 4733.544 7395.775 4114.033 6042.127 613.299 2159.884 7027.672 1303.526 8056.261 793.613 5546.432
6639.942 1690.478 1220.605 2722.753 6630.100 6554.773 1125.816 4629.675 1846.071 1988.869 12344.686 890.971 5728.044 7012.302 5736.498 7993.009 8484.621 2068.875 2022.404 2705.577 5483.220 10509.667 5738.696 10811.624 12617.345 2696.626 5466.965 2595.557 6308.021 3136.876 590.547 7036.040 5130.344 3742.292 3694.004 1829.307 5371.721 8467.804 6505.134 1669.865 11508.087 5186.213 3213.477 1766.269 4216.629 5727.893 9369.378 2019.772 1784.529 5275.992 5583.385 4648.294 2319.660 8242.089 1808.193 5664.356 5627.700 5240.951 1334.496 0.000 3118.462 4889.563 3349.793 6626.957 1440.171 4339.787 4354.965 5454.862 5114.645 6993.205 2447.519 6633.011 10511.802 6649.710 4879.052 4400.046 5328.618 5221.390 6086.462 3320.368 1756.741 2725.209 4163.724 2171.694 1629.284 1565.662 5150.259 3474.110 3174.371 6804.783 2125.633 8715.585 6701.051 4431.172 2421.328 1906.864 7801.027 5369.400 260.447 6890.167 7633.979 2170.394 7916.105 5066.860 5178.388 5788.370 5354.559 2619.700 5172.078 4090.319 8196.449 5754.557 9969.573 2291.922 1042.571 7247.061 2722.846 8345.548 1298.752 8302.469 5099.422 766.655 4599.356 5191.525 4694.024 3358.909 6489.806 8501.637 5091.315 5304.894 1657.004 5682.156 6319.242 2316.797 4504.333 7716.592 6464.186 5262.762 3545.946 8582.189 2347.112 1051.218 5183.132 2202.355 7101.101 1467.204 5302.008 3977.194 2852.192 3324.478 7605.800 8610.239 5604.420 8739.332 1646.439 12737.121 2556.149 4950.795 8448.311 4829.152 7203.570 1665.836 3212.420 8189.115 2018.645 9217.704 1942.377 6707.875
7266.169 2455.460 2637.637 1365.263 5291.747 4798.761 3728.254 2505.954 2912.246 2067.763 9840.614 3806.617 6354.271 4773.015 6454.372 8076.972 9202.496 2825.416 2059.250 1862.767 3718.967 9982.020 3228.110 8679.431 10712.924 2900.345 3891.422 5336.638 4087.444 5080.483 3137.904 7331.950 3374.201 1095.943 759.165 2028.443 3869.436 6406.481 4263.061 1611.901 9440.386 4299.395 3417.196 4212.926 4306.899 5811.856 8386.449 1961.655 2328.703 3226.922 4133.785 2487.335 3221.673 8959.964 3035.376 5460.672 2981.352 5161.826 3104.247 3185.954 0.000 5383.457 414.955 6515.238 3886.829 4697.341 1708.617 6172.737 4359.084 7077.168 4724.808 6250.986 8994.945 4178.857 3114.798 1753.698 3694.724 5305.353 6804.337 2145.566 2078.940 2484.482 4881.599 1799.365 3387.469 2330.644 5868.133 539.271 1999.569 6888.746 2554.114 8914.352 4255.722 5149.047 3308.896 2339.507 5154.679 2723.052 3226.759 4444.838 5391.905 4949.613 5674.031 2420.512 4202.765 6414.598 2708.211 2823.419 5113.506 1326.733 8914.324 6472.432 7465.501 1838.369 3014.424 4600.712 2482.119 5751.761 3178.448 8100.312 5817.297 3682.301 4543.020 3427.272 2047.676 1073.991 4453.434 9206.255 3327.062 3557.939 2963.362 5364.093 3672.894 1156.531 1857.985 6469.101 7182.061 2616.414 611.108 5949.273 4833.987 3023.072 3549.257 1830.026 4721.246 3009.997 3537.754 4695.069 1878.110 389.639 6309.923 7264.125 3242.546 6813.333 2411.421 10413.927 2315.422 2304.447 9166.186 3064.899 6812.508 3003.354 3604.711 5949.828 1967.010 8298.222 2901.193 4570.030
1948.948 4104.685 4099.681 4078.437 2674.219 2914.416 5722.145 3138.357 3193.231 3657.727 8335.462 4933.811 1037.049 3371.945 2401.755 3103.445 4337.141 3463.547 3625.820 3932.529 3512.492 5875.584 3214.165 6650.410 8456.131 2703.023 2074.480 7041.580 2892.292 4465.924 4314.906 2345.046 3069.867 4543.999 4880.778 3891.651 2086.880 4545.223 5599.927 4968.723 10777.252 1770.484 2508.752 4633.145 2504.063 838.330 4735.295 3696.957 3839.642 2747.164 2345.899 3156.975 3061.460 4094.609 3067.869 1431.036 3421.753 1464.625 3837.151 4882.230 5032.669 0.000 5264.000 1737.394 4252.869 917.659 4201.095 1774.256 1698.916 2103.642 7070.897 2099.892 5961.182 3233.981 3138.931 4132.150 2168.446 331.827 2751.720 4552.547 3589.880 3431.010 725.155 5261.545 3612.642 3979.869 1922.947 5388.317 4406.551 1915.220 3090.645 3940.825 3285.322 1738.635 2807.255 4281.362 4943.157 3143.955 4923.035 3474.438 6013.178 6616.416 6534.569 3437.431 1785.903 1097.376 3511.891 2851.116 1197.903 5121.722 4048.969 2419.815 6046.992 5300.549 5257.073 5030.546 3428.647 6181.594 3577.310 3412.905 1841.457 5212.678 1573.085 3229.350 3544.181 5176.739 2849.449 4232.728 3117.007 2052.960 3318.878 1600.293 4710.620 4618.711 3731.807 7956.990 2782.207 3279.808 5460.153 4941.832 7009.700 5265.720 4886.124 5292.206 3460.744 3408.859 3369.224 936.039 4079.144 5238.685 3394.356 3976.156 2746.089 4605.333 3968.846 8575.907 3261.950 3902.827 4300.831 2872.980 2572.561 3284.324 2483.677 4548.758 3702.312 4583.621 3171.493 3067.518
7029.691 2528.617 2710.793 1438.419 4959.037 4466.051 3801.411 2173.244 2985.402 2140.920 9507.904 3879.774 6131.336 4440.305 6527.529 7744.262 8977.957 2898.573 2132.407 1935.924 3386.257 9649.310 2895.400 8346.721 10380.214 2973.501 3558.712 5409.794 3754.734 5153.640 3211.061 6999.240 3041.491 763.234 426.455 2101.599 3622.791 6073.771 3930.351 1685.057 9107.676 3966.685 3490.353 4286.083 4380.055 5479.146 8053.739 2034.812 2401.859 2894.212 3801.075 2154.625 3294.830 8735.426 3108.532 5127.962 2648.642 4829.116 3177.403 3259.110 388.273 5297.871 0.000 6182.528 3959.985 4770.498 1375.907 6245.894 4026.374 6744.458 4797.964 5918.276 8662.235 3846.147 2782.088 1420.988 3362.014 4972.643 6877.493 2218.722 2152.097 2557.638 4954.756 1872.521 3460.625 2403.800 5941.290 316.943 2072.726 6556.036 2627.271 8581.642 3923.012 5222.203 3382.053 2412.664 4821.969 2390.342 3299.915 4112.128 5059.195 5022.769 5341.321 2087.802 3870.055 6191.662 2375.501 2896.576 4780.796 994.023 8689.786 6545.588 7132.792 1911.525 3087.581 4268.003 2555.275 5419.051 3251.605 7767.602 5890.453 3755.458 4616.177 3094.562 1714.966 1147.147 4120.724 8873.545 2994.352 3225.229 3036.519 5031.383 3340.184 1229.687 1525.275 6287.413 7255.218 2283.704 388.779 5616.563 4907.143 3096.228 3216.547 1903.182 4388.536 3083.153 3205.044 4768.226 1951.267 25.315 5977.213 6931.415 2909.836 6480.623 2484.577 10081.217 2388.578 1971.737 8941.648 2732.189 6479.798 3076.510 3677.867 5617.118 2040.167 7965.512 2974.349 4237.321
2156.138 5065.592 5060.588 5039.344 2050.043 2432.812 6895.156 3606.100 4366.241 4618.634 7768.539 6106.821 1864.713 2890.340 3059.221 2806.515 4040.211 4427.850 4586.727 4893.436 3980.235 5308.661 3259.084 6083.487 7889.209 3663.930 2542.223 8214.590 2607.898 5638.934 5487.916 2061.493 3537.610 4840.082 5176.860 4852.558 2554.623 3921.046 5876.360 5929.630 11053.685 1652.137 3469.659 5806.155 3878.247 886.569 4168.373 4657.864 4800.549 2853.716 2244.391 3624.718 4234.471 3797.679 4240.879 656.815 3466.672 1153.208 4918.191 6055.241 5940.959 1425.492 5603.316 0.000 5425.879 1953.630 4477.528 2431.722 1580.570 1806.712 8031.804 1532.970 5394.260 2884.629 3606.674 4454.825 2636.189 1047.953 3409.185 5513.454 4550.787 4391.917 2099.338 6222.452 4785.652 4940.776 2580.412 5869.628 5367.458 1444.710 4051.552 3643.895 2935.971 3112.819 3980.265 5242.269 4593.806 3360.400 6096.046 3125.087 5663.827 7789.427 6185.217 3881.712 2253.646 1863.180 3788.324 3881.226 1740.543 5417.805 3752.039 3077.280 5422.815 6261.456 6217.980 4681.194 4389.554 5832.242 4750.321 2859.114 2498.923 6385.688 2609.056 3697.094 4011.924 6032.798 2367.844 3935.798 3584.750 2520.703 4491.888 976.117 4552.498 5579.618 4199.550 8233.423 3439.672 3556.241 5941.465 4460.227 8121.796 6226.628 5162.557 6253.113 2979.139 4581.869 3836.967 2310.222 5040.051 5578.001 2827.434 3409.233 2683.624 4038.410 4929.753 8008.985 4222.857 4370.570 4003.901 3340.723 2005.639 4457.334 3656.688 4039.183 4663.219 4016.698 4344.503 2585.913
6028.175 1853.751 1383.877 2886.026 6113.320 6037.993 2203.844 4792.948 1248.999 2152.141 11827.905 1042.375 5116.276 6495.522 5124.730 7381.241 7872.854 1552.094 2185.676 2781.261 5597.307 9992.886 5901.968 10294.844 12100.565 2179.845 4950.185 3174.155 5791.241 2147.820 1080.297 6424.273 5154.683 4464.087 4415.799 1992.579 4962.585 7951.024 7298.846 2463.577 12301.798 4669.432 2696.696 725.719 3604.862 5116.126 8852.598 2183.045 1947.802 5439.265 5066.605 4811.566 1707.892 7630.322 1196.426 5147.576 6040.759 4724.170 1121.812 1510.223 3840.257 4277.796 4071.588 6015.190 0.000 3728.019 5076.760 4843.095 4597.865 6381.438 3738.099 6116.231 9995.022 6132.929 5042.325 5121.841 4994.256 4609.623 5474.695 3401.279 1920.013 2279.741 3551.957 2965.405 640.227 1728.935 4538.491 4195.905 3255.282 6193.016 1608.852 8103.818 6184.271 3819.405 1779.458 2070.137 7842.105 5782.459 1551.028 6373.387 8427.690 2748.991 8709.816 5378.681 4661.608 5176.603 5767.617 2084.873 4560.311 4812.115 7584.682 5142.790 9452.793 3085.633 2237.105 7929.494 2277.378 9080.542 1073.218 7690.702 4487.654 1694.376 4082.576 5314.166 5253.290 3984.327 5973.026 7889.870 5201.822 4928.665 1088.623 5165.376 7041.038 3110.508 5226.128 8510.304 5852.419 5675.821 4267.742 8065.409 3477.397 2245.752 5976.844 2996.066 6584.320 1178.604 5454.039 3365.427 2927.875 4046.273 7089.019 8093.458 5621.794 8222.552 1809.712 12220.341 2110.681 5611.936 7836.544 4992.425 6686.790 1033.515 2600.653 7672.335 2181.918 8700.923 1330.609 6191.095
2814.964 3447.137 3442.132 3420.889 2987.358 3016.896 5038.488 2992.964 2509.574 3000.178 8735.243 4250.154 1903.065 3474.425 3191.334 3902.064 5135.760 2779.890 2968.271 3274.981 3259.698 6674.202 3068.773 7168.882 8974.603 2045.475 1882.744 6357.923 2770.144 3782.267 3631.249 3157.042 2817.073 4398.607 4735.385 3234.102 1895.144 4858.362 5454.535 4311.174 10631.860 1648.335 1851.204 3949.487 2051.208 1636.948 5533.914 3039.408 3182.093 2601.772 1865.651 3011.583 2377.803 4893.228 2384.212 1862.937 3276.361 1703.073 3153.494 4198.573 4375.120 948.907 4606.451 2536.012 3569.212 0.000 4055.702 2640.272 1576.768 2902.261 6413.349 2879.497 6759.801 3111.832 2993.538 3986.757 1793.303 1130.445 3541.298 3894.999 2932.331 2773.461 651.098 4603.996 2928.984 3322.321 2605.095 4730.768 3749.002 2713.838 2433.096 4739.444 3163.174 1920.020 2123.598 3623.813 4821.008 2998.562 4239.378 3352.290 5891.029 5932.759 6412.420 3292.039 1640.511 1963.392 3366.498 2167.459 974.954 4976.330 4847.588 3209.393 6360.131 4643.000 4599.524 4908.397 2771.098 6059.445 2893.653 4211.524 2554.258 4529.021 667.335 2976.556 3398.789 4519.190 2951.929 5031.347 2864.212 1907.567 2635.221 1913.433 4565.227 3961.162 3586.415 7811.597 3648.223 3134.416 4802.605 5044.311 6326.043 4608.172 4740.731 4634.657 3563.223 2725.202 3116.430 828.712 3421.595 4581.136 3963.058 4774.774 2600.697 5123.805 3311.298 9094.379 2604.401 3757.435 5099.450 2727.587 3371.180 2600.667 1800.020 4651.238 3044.764 5382.239 2487.836 3169.998
6018.703 3585.092 3767.269 2494.894 3738.452 3245.466 4857.886 1255.737 4041.877 3197.395 8287.319 4936.249 5120.347 3219.720 6485.054 6733.273 7966.969 3955.048 3188.882 2992.399 2468.750 8428.725 1816.910 7126.135 9159.629 4029.977 2547.724 6466.270 2534.149 6210.115 4267.536 5988.252 2123.984 586.262 923.040 3158.075 2611.803 4853.186 2709.766 2741.532 7887.091 2888.196 4546.828 5342.558 4550.740 4468.158 6833.153 3091.287 3458.334 1815.722 2790.087 1237.118 4351.305 7724.437 4165.007 4049.472 1570.152 3818.128 4233.878 4315.586 1687.138 4286.883 1349.495 5104.038 5016.460 4005.233 0.000 5857.555 2947.885 5733.470 5854.439 4757.226 7441.650 2625.562 1864.581 503.481 2351.026 3961.655 6835.018 3275.197 3208.572 3614.113 4491.701 2928.996 4517.101 3460.276 6006.245 1615.807 3129.201 5486.743 3683.746 7513.486 2702.426 5531.098 4438.528 3469.139 3601.384 1311.853 4356.391 2891.542 3838.610 6079.244 4120.736 1107.962 2859.067 5180.674 1297.011 3953.051 3769.807 1163.984 7678.797 6503.113 5912.206 2968.000 4144.056 3047.417 3611.750 4198.466 4308.080 6689.113 5924.756 4811.933 3795.339 2177.055 797.459 2203.622 2900.139 7805.389 2076.845 2214.241 4092.994 3952.893 2119.599 2286.163 607.768 5066.828 6865.505 1205.215 1687.644 4395.978 5963.618 4152.703 1995.962 2959.657 3167.951 4139.629 2287.537 4685.828 3007.742 1324.180 4756.628 5710.830 1831.347 5260.038 3541.052 8860.632 3445.053 1054.230 7930.659 1814.682 5259.213 4132.985 4454.040 4396.533 3096.642 6744.926 4030.824 3016.735
2067.190 4791.969 4675.523 4859.281 3834.315 4386.518 6123.283 4512.505 3594.368 4438.570 9041.123 5334.948 1155.291 4844.047 898.989 3145.437 3355.070 3864.685 4406.663 4713.373 4886.641 6581.245 4588.314 7356.071 9161.793 3370.561 3448.629 7442.717 4289.685 4867.061 4716.044 2463.288 4444.016 5918.148 6254.927 4672.494 3461.029 5475.276 6974.076 5656.007 12151.401 3167.876 3385.023 5034.282 2886.500 1789.412 5440.957 4477.800 4526.926 4121.313 3555.663 4531.124 3462.598 3112.539 3469.007 2726.868 4795.902 2936.727 4238.289 5283.368 5813.513 1567.724 6044.844 2660.750 4654.006 1769.462 5575.244 0.000 3096.309 2429.464 7511.244 2805.554 6666.844 4631.373 4513.080 5506.298 3483.315 1899.551 1248.953 5333.391 4277.164 4211.853 1360.009 6042.388 4013.779 4667.153 403.203 6169.160 5187.395 2241.042 3717.840 3586.035 4682.715 1540.899 3208.392 5062.205 6340.550 4518.104 5324.173 4871.831 7410.571 7017.554 7931.961 4811.580 3160.052 1052.656 4886.039 3252.254 2285.976 6495.871 3066.899 917.049 7207.087 6081.392 5755.781 6427.938 4209.490 7578.986 3978.448 3665.422 338.691 5613.815 2436.796 4603.499 4918.330 5957.582 4321.551 3372.087 4491.155 3427.109 3720.015 3021.275 6084.768 5399.555 5105.956 9331.138 1626.318 4653.957 6240.997 6413.934 7410.837 5764.429 6260.272 6073.049 4932.846 3809.996 4743.373 1453.790 4859.987 6019.528 4100.018 4681.817 4120.238 5310.994 4656.130 9281.569 4042.793 5276.976 3318.761 4247.129 3278.223 3685.461 2884.815 5823.455 4483.156 5289.282 3572.630 4539.620
3250.457 4007.729 4002.725 3981.481 1859.037 1512.470 5867.854 2164.917 3456.816 3560.770 7302.382 5164.279 2666.894 1969.998 4031.600 3839.479 5150.302 3369.987 3528.863 3835.573 2603.956 5803.750 1678.514 5886.311 7692.032 2606.067 1469.512 7187.288 1193.376 5259.747 4460.615 3171.585 2161.332 3259.512 3596.290 3794.694 1481.912 3425.500 4295.790 4871.767 9473.115 71.567 2411.796 4952.542 2698.903 1688.750 4663.461 3600.000 3742.685 1273.146 663.821 2183.535 3499.435 4907.770 3579.946 1101.587 1886.101 877.572 3860.328 5027.939 4360.388 1856.092 4022.746 2156.153 4572.267 1574.442 2896.958 3404.101 0.000 2916.803 6973.941 1927.094 5736.391 1535.064 2165.491 2874.255 1293.598 1530.864 4381.564 4158.138 3492.923 3334.053 2060.911 5164.588 3932.039 3882.913 3552.791 4289.058 4012.141 2538.858 2993.689 4565.602 1586.406 3100.308 3573.920 4184.405 3244.241 1779.830 5068.744 1775.522 4314.262 6762.125 4835.652 2301.142 1180.935 2727.220 2207.754 2823.363 1339.017 3837.235 4862.131 4049.659 4927.269 5203.592 5160.116 3331.629 3331.690 4482.677 3723.019 3741.228 3471.302 5358.386 1555.053 2320.815 2570.741 4656.519 1447.502 4857.505 2184.818 1156.813 3507.933 1005.009 3091.957 4521.755 2646.275 6652.853 4412.052 1975.671 4360.895 3539.885 7063.933 5168.764 3581.987 5195.249 2051.930 3554.567 2460.688 2255.037 3890.682 3997.431 2899.883 3904.322 1103.054 3697.028 3871.890 7811.808 3164.993 2929.387 5113.992 1899.540 2497.653 3547.924 2670.996 3146.811 3605.356 4511.787 3445.763 1665.571
1091.935 6139.228 6134.224 6112.980 2662.389 3407.668 7893.728 4905.806 5364.814 5692.270 7621.729 7105.393 1803.805 3939.342 3026.066 999.804 2233.499 5501.486 5660.362 5967.072 5279.942 4494.772 4594.098 5936.677 7742.399 4737.566 3841.930 9213.163 3656.900 6637.506 6486.489 466.375 4837.317 6175.096 6511.875 5926.193 3854.330 4181.817 7211.375 7003.266 12129.958 2987.152 4543.295 6804.727 4687.672 1517.660 3354.483 5731.499 5874.185 4188.730 3579.405 4924.425 5233.043 1990.967 5239.452 1991.829 4801.686 2461.234 5991.827 7053.813 7067.212 2234.918 6938.330 1599.294 6424.452 2952.202 5812.542 2398.567 2915.584 0.000 9105.440 1633.628 4580.370 3933.631 4906.381 5789.839 3935.896 1857.378 3143.430 6587.090 5624.423 5465.553 2908.764 7296.087 5784.224 6014.412 2547.257 7204.642 6441.094 517.409 5125.188 1837.183 3984.973 3667.976 4978.838 6315.904 5642.808 4695.414 7094.618 4174.089 6712.829 8787.999 7234.219 5204.881 3553.353 1830.025 5123.338 4954.862 3029.097 6752.819 1945.327 3044.125 6016.693 7335.092 7291.616 5730.196 5463.190 6881.245 5748.893 1309.264 2465.768 7384.261 3607.628 4996.800 5311.631 7211.281 3416.846 2129.086 4884.457 3820.410 5490.461 1959.819 5601.500 6653.254 5499.257 9361.525 2475.865 4891.255 7276.479 5509.229 9181.283 7300.263 6497.571 7326.748 4028.141 5580.442 5136.674 3119.648 6113.687 6913.015 2306.532 2595.344 4018.638 3891.600 6003.389 7862.175 5296.492 5670.277 2197.189 4640.430 1651.253 5455.907 4655.260 4651.529 5736.855 3202.809 5343.076 3634.915
8901.393 3405.002 3125.862 4449.723 8606.697 8531.371 2077.031 6356.645 3998.614 3715.839 13965.628 3067.278 7989.494 8898.029 7997.948 10109.493 10746.071 4175.690 3749.374 4432.548 7210.190 12486.264 7353.124 12788.221 14593.942 4673.223 7252.286 1635.523 8212.458 5448.172 2947.887 9297.490 6857.315 5220.957 5172.669 3543.831 7098.692 10444.401 7983.800 3230.785 12986.752 7162.810 5190.074 4018.407 6478.079 7844.377 11345.976 3734.296 3511.500 7002.962 7559.982 6375.264 4581.110 10503.539 4069.644 7640.953 7106.366 7217.548 3313.987 2580.142 4597.128 7151.014 4828.459 8743.441 3800.671 6470.219 5833.631 7716.313 7091.243 9109.689 0.000 8609.608 12488.400 8303.871 6606.022 5878.712 7055.588 7337.874 8347.912 5047.338 3483.711 4452.179 6425.175 3732.613 3940.580 3280.186 7411.709 4952.775 4901.342 8921.267 4102.230 10946.873 8380.736 6692.622 4682.778 3621.388 9279.693 6848.066 2319.695 8569.851 9112.644 1896.261 9394.770 6545.526 7154.985 8049.821 6833.224 4596.297 7174.601 5568.985 10457.900 8016.007 11590.515 3852.841 1883.582 8725.726 4449.816 9824.214 3560.203 10418.953 7360.872 2303.416 6575.953 6918.496 6172.690 4919.828 8466.403 10763.087 6818.285 7031.864 3918.455 7658.753 7797.908 3877.716 5982.999 9195.258 8725.637 6741.428 5024.612 10074.287 1132.872 1805.177 6661.798 3763.274 8846.260 3728.654 7028.978 6238.645 4579.162 4803.144 9582.397 10586.836 7331.390 10715.929 3360.963 14538.941 4283.119 6429.461 10709.761 6556.123 9180.167 3927.286 5377.589 10074.842 3733.169 11194.301 4107.600 8684.472
2325.725 5540.678 5535.673 5514.429 1028.761 2236.482 7400.803 4078.340 4989.765 5093.719 6235.569 6697.228 2454.327 2518.681 3613.697 2467.023 3819.000 4902.935 5061.812 5368.522 4455.320 4198.331 3427.419 4550.518 6356.239 4139.015 3017.308 8720.237 2485.714 6501.262 5993.563 1990.081 4012.696 5172.935 5509.713 5327.643 3029.708 2669.722 5970.852 6404.715 10840.499 1984.990 3944.745 6485.491 4612.326 1670.873 3058.042 5132.949 5275.634 3186.568 2577.244 4096.958 5032.384 3576.468 5103.208 1128.989 3635.007 1752.889 5393.276 6560.887 6273.811 2209.796 5936.169 1255.067 6105.216 2815.958 4810.381 2986.198 1913.423 1696.787 8506.889 0.000 4206.208 2644.173 4078.914 4787.677 3111.274 1832.256 3963.661 5988.540 5025.872 4867.002 2883.642 6697.537 5464.988 5415.861 3134.888 6202.481 5842.543 1418.283 4526.637 3193.146 2695.514 3897.123 4842.593 5717.354 4353.349 3693.253 6601.692 2884.630 5423.370 8295.074 5944.761 4214.565 2728.731 2417.656 4121.177 4356.311 2460.485 5750.658 3530.828 3631.756 4401.534 6736.541 6693.065 4440.738 4864.639 5591.786 5255.968 2368.772 3053.399 6891.335 3264.243 4172.179 4484.164 6507.883 2146.863 3485.049 4059.835 2995.788 5040.882 941.561 4430.313 6054.703 4559.698 8072.066 3994.148 3808.746 6274.317 3936.550 8596.882 6701.713 5495.409 6728.198 2607.480 5087.516 4312.053 3094.526 5515.136 5910.853 1294.464 2298.903 3016.476 2505.440 5404.838 6476.015 4697.942 4842.810 3782.690 3812.963 570.559 5080.873 4203.945 3017.901 5138.304 2906.368 4978.712 2364.932
5512.991 9462.021 9457.016 9435.773 4080.505 4890.274 11322.146 7499.867 8911.108 9015.062 5935.623 10618.571 6103.904 4910.573 7263.274 5328.256 6084.565 8824.278 8983.155 9210.290 7938.906 3853.858 6571.426 4663.877 4817.351 8060.358 6897.727 12641.580 5170.297 10410.201 9914.906 4920.975 7496.282 7938.663 8275.441 9248.986 6951.051 4121.638 8432.307 10093.933 12100.523 5781.629 7866.088 10406.834 8468.959 5477.282 2258.286 9054.292 9196.977 6608.096 6378.069 7518.485 8953.727 5854.352 9012.146 5296.598 6632.478 5812.648 9314.620 10482.231 9039.539 6016.205 8701.896 5164.005 10026.559 6724.896 7436.510 6635.776 5796.654 4589.797 12428.232 4288.261 0.000 5136.495 7500.441 7773.850 6701.029 5638.665 7590.164 9493.088 8947.215 8788.345 6690.051 10281.397 9386.331 9337.204 6784.466 8968.209 9347.091 4771.556 8447.980 4499.082 5187.837 7703.531 8751.532 9638.697 6796.980 6984.341 10523.036 5346.085 7884.825 12216.417 8406.216 7334.300 6650.075 6067.234 6969.347 8277.654 6628.093 8516.385 6144.011 7281.334 5434.634 10320.402 10614.408 6902.193 8785.982 7532.329 9177.311 5230.005 6702.977 10812.678 7185.586 7655.765 7760.464 9556.024 4671.093 5161.551 7519.768 6564.244 8962.225 5007.103 6980.111 9638.564 7679.433 10533.521 6922.599 6863.520 9040.045 5793.359 12518.225 10623.056 8121.538 10312.058 4967.680 9008.859 7795.638 6900.935 9225.632 8676.581 2940.771 2142.222 6425.737 3707.034 9326.181 6166.843 8619.285 8023.175 5967.402 7234.490 3994.271 9002.216 8125.288 4744.117 9059.647 2170.059 8900.055 4889.162
4502.018 6034.694 6029.689 5214.701 1622.022 1129.036 7706.843 3208.976 5483.781 5587.735 5976.552 7191.244 4197.696 594.158 5562.402 4945.008 6296.985 5396.951 5555.828 4965.770 3694.386 6150.652 2127.445 4728.346 6534.067 4633.031 2838.011 9214.253 942.203 7297.271 6487.579 4361.362 3251.762 3435.219 3771.998 5641.413 2902.090 2227.624 3352.202 5590.490 8221.849 2022.499 4438.761 6979.507 4736.427 3219.552 4555.081 5574.625 5769.650 2363.576 2618.939 3200.042 5526.400 6054.454 5606.911 2523.450 2129.035 2408.375 5887.292 7054.903 4536.096 3577.858 4198.453 3261.683 6599.232 3611.966 2933.066 4934.903 2037.524 4068.069 8703.397 2640.796 5163.577 0.000 3255.921 3270.407 2641.313 3200.318 5912.367 5248.568 5519.888 5361.018 4098.435 5777.954 5959.004 5909.877 5083.594 4464.765 5102.571 3644.388 5020.653 5671.131 76.865 5137.832 5600.885 5952.477 1734.699 2540.360 7095.708 265.981 2804.721 8789.090 3326.111 2830.856 3149.354 4258.023 2465.903 4850.327 3274.858 4012.942 6008.814 5580.462 3601.439 5816.958 6993.014 1822.088 5358.655 2973.136 5749.984 4846.758 5002.104 7385.351 3592.577 3411.245 3257.020 5052.580 634.588 5963.034 3275.248 2504.528 5534.898 2288.030 2476.667 5135.120 3175.990 5453.416 5942.854 2360.076 4536.602 2149.882 8812.576 7001.661 3618.095 5808.615 542.389 5581.532 3551.118 4292.561 4981.112 4173.138 2478.556 3432.758 2091.505 2634.476 5898.854 6549.865 5191.958 3519.732 6260.676 2989.970 3142.783 5574.889 4697.961 1770.971 5579.980 4466.854 5472.728 1001.778
4900.584 3014.818 3196.994 2161.089 3489.676 3120.141 5020.070 665.402 3471.603 2627.120 8831.372 4607.004 4002.229 3448.977 5366.935 5615.155 6848.850 3384.774 2618.608 1912.157 640.774 7968.726 1368.036 7516.951 9322.672 3327.028 1429.605 6535.969 2416.906 5639.841 3809.295 4870.133 348.551 2143.789 2480.567 2587.800 1318.292 5056.140 3514.193 3279.869 8691.518 2102.873 3132.757 4772.284 3086.228 3350.039 6758.535 2521.012 2888.060 905.332 1671.968 684.021 3781.031 6606.319 3594.733 3123.415 1575.624 2700.009 3663.604 4318.773 2727.334 3168.764 2907.022 4249.103 4446.186 2887.114 1915.005 4739.436 2169.602 4615.351 6041.611 4092.070 7367.031 2854.820 0.000 1713.713 1232.907 2843.536 5716.899 2194.956 2638.298 3043.839 3373.583 3344.196 3946.826 2890.001 4888.126 3082.981 2048.959 4426.929 3113.472 6452.535 2931.684 4412.979 3868.253 2898.865 4246.957 1297.825 4359.578 3120.800 4643.037 6110.805 4925.163 1037.220 1740.948 4062.555 1426.156 3382.777 2651.689 2721.511 6560.679 5384.994 6456.259 3383.201 4227.787 3692.990 3041.476 4844.038 3737.806 5906.204 4806.637 4707.067 2677.221 312.474 1125.745 2693.336 3016.064 6744.438 345.738 1096.122 3522.720 3141.215 2765.171 2701.363 1313.371 5871.255 5747.387 1334.360 3154.818 5004.702 6131.604 4236.435 2800.389 3374.857 3397.208 3569.354 459.561 3567.709 1927.500 2881.707 4682.009 5636.211 1233.760 5327.668 2970.778 9404.684 2874.779 1484.391 6812.541 314.853 4662.629 3562.711 2989.528 4625.791 2526.368 6670.308 3460.550 3132.661
5696.717 4047.412 4229.589 2957.214 4070.007 3469.493 5320.206 840.269 4504.198 3659.715 8704.224 5398.569 4798.361 3636.624 6163.067 6411.287 7644.983 4417.368 3651.202 2961.202 2053.282 8568.248 1717.388 7543.040 9576.533 4376.072 2225.738 6928.590 2728.149 6672.435 4729.856 5666.265 1708.516 1048.582 1385.360 3620.395 2289.817 5270.090 3223.481 3203.852 8400.806 2788.673 4181.801 5804.878 4135.272 4146.171 7250.058 3553.607 3920.654 1701.465 2468.101 821.650 4813.625 7402.451 4627.328 3919.547 1470.630 3496.142 4696.199 4777.906 2149.458 3964.897 1811.815 5004.516 5478.781 3683.247 841.866 5535.568 2848.362 5411.484 6316.759 4740.264 7858.554 3042.466 1449.114 0.000 2029.040 3639.669 6513.032 3244.000 3670.892 4076.433 4169.715 3391.316 4979.421 3922.596 5684.259 2078.128 3098.003 5223.062 4146.066 7248.667 3119.331 5209.112 4900.848 3931.459 4018.289 1212.330 4818.711 3308.447 4352.326 6541.564 4634.452 909.790 2537.081 4858.688 1197.488 4415.371 3447.821 1626.304 7356.811 6181.127 6329.111 3430.321 4606.376 3464.322 4074.070 4615.370 4770.400 6589.590 5602.769 5274.253 3473.353 1761.588 381.991 2665.943 3317.043 7540.570 1661.377 1892.255 4555.314 3853.371 2536.504 2748.483 192.300 5580.544 6543.519 1105.692 2149.964 4812.883 6425.939 4615.024 2509.678 3421.977 3584.855 4601.949 1872.070 4363.841 2976.544 1786.500 5173.533 6127.735 1731.824 5676.942 4003.372 9277.536 3907.373 638.762 7608.673 1399.214 5310.823 4595.305 4038.573 4813.437 3558.962 7161.831 4493.145 3433.640
3965.674 3857.299 4039.476 3003.571 2671.122 2324.555 5862.552 1268.408 3799.258 3469.602 8114.468 5449.485 3067.318 2782.084 4432.024 4680.244 5913.940 3712.428 3461.089 2754.639 1483.256 7033.815 1344.217 6698.397 8504.118 2948.508 213.558 7378.451 1916.454 5434.019 4651.777 3935.222 1040.631 2674.051 3010.829 3430.282 277.638 4237.586 3729.979 4122.351 8907.304 1248.482 2754.238 5294.984 2576.091 2415.128 5893.526 3363.494 3730.542 877.216 758.858 1287.027 3841.877 5671.408 3922.388 2188.504 1551.805 1765.099 4202.770 5161.255 3569.816 2233.854 3437.285 3314.192 4914.709 1772.815 2331.147 3804.525 1320.049 3680.441 6884.093 3157.159 6548.477 2340.501 1268.983 2262.201 0.000 1908.626 4781.989 3037.437 3480.780 3676.495 2423.914 4186.678 4274.481 3732.483 3953.216 3703.597 2891.441 3492.019 3336.130 5517.624 2391.843 3478.069 3775.350 3741.347 4049.678 1274.007 5202.060 2580.959 4751.122 6953.287 5140.949 1567.483 717.251 3127.645 1641.942 3165.804 1716.778 3251.774 5625.768 4450.084 5739.355 4225.682 5070.269 3768.489 3674.132 4919.538 4065.461 4971.293 3871.726 5549.549 1461.174 1200.114 1674.233 3535.818 2259.588 5809.527 1087.770 136.785 3850.375 2206.304 2840.671 3543.845 1861.859 6087.041 4812.476 1409.860 3775.434 4351.971 6974.086 5078.917 3016.175 4217.339 2857.367 3897.009 1339.988 2531.111 2769.982 3411.970 3863.455 4817.657 876.141 4509.114 3813.260 8623.894 3507.435 2032.879 5877.630 957.787 3727.718 3890.366 3013.438 3958.897 3368.850 5741.852 3788.205 2477.657
2057.048 4317.035 4312.031 4290.787 2342.393 2582.589 6048.376 3151.635 3519.462 3870.077 8003.635 5260.042 1158.693 3040.118 2523.399 2771.619 4005.314 3679.293 3838.170 4144.879 3525.770 5543.757 3045.603 6318.583 8124.304 2915.373 2087.758 7367.811 2560.466 4792.155 4641.137 2026.597 3083.146 4557.278 4894.056 4104.001 2100.158 4213.396 5613.205 5181.073 10790.530 1438.657 2721.102 4959.375 2830.294 506.503 4403.468 3909.307 4051.992 2623.397 2014.073 3170.254 3387.691 3762.783 3394.100 1099.209 3253.191 1132.798 4163.382 5208.461 5245.019 377.540 5320.511 1405.567 4579.100 1130.009 4214.373 1895.900 1367.090 1771.815 7283.247 1768.066 5629.356 2902.154 3152.209 4145.428 2181.724 0.000 2873.363 4764.897 3802.230 3643.360 1051.386 5473.895 3938.872 4192.219 2044.590 5586.824 4618.901 1583.393 3302.995 3608.999 2953.496 2064.866 3133.486 4493.712 4611.330 3146.920 5249.266 3142.612 5681.351 6942.647 6202.742 3450.709 1799.181 1219.019 3525.169 3132.669 1274.925 5135.000 3717.143 2541.458 5715.165 5512.899 5469.423 4698.719 3640.997 5849.767 3903.541 3081.079 1963.101 5538.909 1785.435 3242.629 3557.460 5389.089 2517.622 3900.902 3130.285 2066.238 3645.109 1268.467 4459.047 4831.061 3745.086 7970.268 2903.851 3293.086 5658.660 4610.005 7335.931 5478.070 4899.402 5504.556 3128.917 3735.090 3382.502 1262.270 4291.494 5295.196 3062.529 3644.329 2470.143 4273.506 4181.196 8244.080 3474.300 3916.106 3969.005 2886.258 2240.735 3610.555 2809.908 4216.931 3914.662 4251.794 3497.724 2735.691
2953.957 5605.139 5488.693 5672.450 4721.082 5273.285 6936.452 5561.436 4407.538 5251.740 9927.891 6148.118 2042.058 5730.814 456.602 2806.439 2789.843 4677.854 5219.833 5526.543 5935.571 7299.718 5637.244 8242.839 10048.560 4183.731 4497.559 8255.887 5338.615 5680.231 5529.213 2936.118 5492.946 6967.079 7202.224 5485.664 4509.959 6362.043 8023.006 6469.176 13200.331 4216.807 4433.953 5847.452 3496.018 2676.179 6159.429 5290.970 5340.095 5170.243 4604.593 5580.054 4275.767 2547.311 4282.176 3613.635 5844.832 3823.494 5051.458 6096.537 6626.682 2616.654 6858.013 3547.517 5467.176 2818.392 6624.174 1212.079 4145.239 2940.143 8324.414 3692.321 7385.317 5680.303 5562.010 6555.229 4532.245 2926.933 0.000 6146.561 5090.333 5025.023 2408.939 6855.558 4826.949 5480.322 1069.671 6982.330 6000.564 3127.809 4531.009 3247.037 5731.645 2088.272 4021.562 5875.375 7389.480 5567.034 6137.342 5920.761 8459.501 7830.723 8980.891 5860.510 4208.982 1939.423 5934.970 4065.423 3334.906 7544.801 2501.671 691.081 8093.855 6894.562 6568.951 7476.868 5022.660 8627.917 4791.617 3326.424 988.182 6426.985 3485.727 5652.429 5967.260 6770.752 5208.318 2958.848 5540.086 4476.039 4533.185 3908.042 7133.699 6212.724 6154.886 10380.069 743.437 5702.887 7054.167 7300.701 8224.007 6577.599 7309.203 6886.219 5819.613 4623.166 5792.303 2502.720 5673.157 6832.698 4986.785 5400.290 5169.168 6197.761 5469.300 10168.336 4855.963 6325.906 2753.533 5296.059 4164.990 4498.631 3697.984 6710.222 5296.325 6007.755 4385.800 5426.387
6605.600 1961.083 2143.260 1107.355 5589.813 5243.246 3966.335 2450.529 2251.677 1489.009 10931.933 3553.269 5693.702 5640.491 5793.803 7676.046 8541.927 2164.847 1457.102 637.535 3304.074 9977.349 3559.549 9617.088 11422.809 2239.776 3346.169 5482.235 4608.420 4419.914 2755.561 6931.024 2951.198 2624.912 2576.624 1534.066 3192.575 7156.277 5513.235 2226.135 10690.560 4203.010 2756.627 3718.550 3630.037 5410.930 8837.060 1459.743 1807.049 3096.846 3747.820 2469.147 2561.104 8299.395 2374.807 5175.341 3698.340 4775.861 2609.870 3265.039 2001.082 4722.888 2232.413 6309.994 3367.127 4036.772 3237.585 5512.168 4173.599 6676.242 4987.877 6100.693 9467.167 5046.333 2699.905 3282.666 3149.471 4904.427 6143.768 0.000 1557.287 1823.913 4221.030 2290.462 2726.900 1836.267 5207.564 2356.730 461.291 6487.820 1893.545 8513.426 5123.198 4488.478 2648.327 1845.130 6245.999 3440.040 3305.844 5312.314 6642.079 5057.071 6924.205 3036.262 3816.800 5754.028 3425.198 2162.850 4727.541 2972.940 8253.755 5811.863 8556.821 2329.466 3174.053 5692.032 1821.550 6843.080 2517.879 7914.827 5156.727 3653.333 3866.158 3012.379 2910.871 1967.085 5178.279 8558.943 2912.169 3125.748 2302.793 5178.608 4764.214 1647.628 3098.497 7870.297 6521.492 3333.402 2428.567 7040.593 5077.869 3182.700 4799.431 2321.123 5588.722 2349.428 3122.861 4034.500 652.878 2207.098 6782.146 7736.348 3425.273 7427.805 1917.044 11505.246 1654.852 3269.517 8505.617 2650.006 6671.252 2342.784 2944.142 6817.304 1465.098 8685.386 2240.624 5324.174
5555.336 514.805 636.400 966.012 5122.986 5047.659 2459.476 2872.934 873.495 232.128 10837.572 2046.409 4643.438 5505.188 4743.539 6625.782 7491.662 786.666 265.663 948.837 3726.479 9002.553 3981.955 9304.510 11110.231 1189.512 3768.575 3975.375 4800.907 3041.733 1248.701 5880.760 3373.604 2544.074 2495.786 479.185 3614.980 6960.690 5711.191 1378.843 10888.516 3679.099 1706.363 2211.690 3223.671 4360.666 7862.264 284.491 249.762 3519.251 4076.271 2891.553 1409.811 7249.131 996.625 4157.242 4120.745 3733.837 1103.010 1758.179 1920.244 3672.624 2151.575 5259.730 1885.592 2986.508 3156.747 4461.904 3607.531 5625.978 3481.017 5125.897 9004.688 5142.595 3122.311 3201.828 3571.877 3854.163 5093.504 1563.627 0.000 968.468 3170.766 1880.671 1348.718 389.989 4157.300 2275.892 1417.630 5437.556 618.519 7463.161 5193.937 3438.214 1497.034 798.732 6602.809 3862.446 1798.984 5383.053 6840.035 3550.211 7122.161 3458.668 3671.274 4703.764 3847.604 1112.586 3690.890 2892.101 7203.491 4761.599 8462.459 2000.900 1667.193 6048.842 966.105 7199.891 1139.698 6935.242 4106.463 2146.473 3092.242 3434.785 3333.277 2064.314 4982.692 7508.679 3334.574 3548.153 924.612 4175.042 5121.024 1506.286 3306.115 7425.570 5471.228 3755.808 2347.728 7075.075 3571.010 1675.841 4892.110 1911.332 5593.987 971.246 3545.267 2984.236 1095.451 2126.260 6098.686 7103.125 3847.679 7232.218 378.966 11230.007 799.408 3691.923 7455.353 3072.412 5696.456 964.603 1893.878 6682.001 289.846 7710.590 862.442 5200.761
5474.365 1502.477 1624.072 1340.105 5042.015 4966.688 3447.147 3247.027 1120.441 919.394 10756.601 2827.904 4562.466 5424.217 4662.568 6544.810 7410.691 1033.612 887.487 1194.197 4100.572 8921.582 4356.047 9223.539 11029.260 1108.541 3878.880 4850.914 4719.936 3288.679 2124.240 5799.789 3747.696 2918.166 2869.878 1153.318 3891.280 6879.719 6085.283 2366.515 11262.608 3598.127 1625.392 2616.168 3142.699 4279.695 7781.293 958.624 1237.434 3893.344 3995.300 3265.645 1429.869 7168.159 1243.571 4076.271 4494.838 3652.865 1523.953 2691.564 2294.336 3591.653 2525.667 5178.759 2235.892 2905.537 3530.840 4380.933 3526.560 5545.007 4468.689 5044.926 8923.717 5061.624 3496.404 3575.920 3922.952 3773.192 5012.532 1814.215 987.672 0.000 3089.795 2523.212 1595.665 1377.661 4076.329 2649.984 1668.218 5356.585 762.310 7382.190 5112.966 3357.243 1517.092 1543.029 6770.801 4236.538 2732.369 5302.082 7214.128 4425.750 7496.254 3832.760 3590.303 4622.793 4221.696 1031.615 3609.919 3266.194 7122.520 4680.627 8381.488 2562.216 2654.865 6422.935 16.197 7573.983 1386.644 6854.270 4025.492 3022.012 3011.271 3808.877 3707.369 2438.406 4901.721 7427.707 3708.667 3857.360 1171.558 4094.071 5495.117 1880.378 3680.207 8194.276 5390.257 4129.900 2721.821 6994.104 4558.681 2663.512 5371.480 2553.873 5513.016 1218.193 3919.360 2903.265 1340.811 2500.352 6017.715 7022.154 4221.772 7151.247 1366.638 11149.036 169.060 4066.015 7374.381 3446.504 5615.485 1211.549 1812.907 6601.030 963.980 7629.619 1109.388 5119.790
2476.218 3665.677 3549.231 3732.989 3346.426 3579.480 4996.991 3641.513 2468.076 3312.278 9061.301 4208.656 1564.319 4037.009 2686.494 3829.284 5038.230 2738.393 3280.371 3587.081 3908.246 6601.423 3717.321 7376.249 9181.970 2244.269 2531.293 6316.425 3418.692 3740.769 3589.751 2872.316 3465.622 5047.156 5262.762 3546.202 2543.693 5217.429 6103.083 4529.715 11280.408 2296.884 2499.752 3907.990 1778.908 1564.169 5461.134 3351.508 3400.633 3250.320 2514.199 3660.131 2336.306 4795.698 2342.714 2156.875 3924.909 2136.831 3111.996 4157.075 4687.220 725.839 4918.551 2463.233 3527.714 648.549 4704.251 2301.527 2225.316 2829.481 6384.952 2825.731 6687.021 3760.380 3642.087 4635.306 2441.851 1057.666 3036.458 4207.099 3150.871 3085.561 0.000 4916.096 2887.487 3540.861 2100.255 5042.868 4061.102 2641.059 2591.547 4666.664 3811.722 1415.180 2082.100 3935.913 5469.557 3647.111 4197.880 4000.838 6539.578 5891.261 7060.968 3940.587 2289.059 1624.646 4015.047 2125.961 1444.091 5624.878 4750.059 2704.553 6719.198 4955.100 4629.489 5556.945 3083.198 6707.994 2852.156 4138.744 2049.418 4487.523 1251.133 3625.105 4047.337 4831.290 3514.513 4958.567 3512.761 2556.116 2593.723 2272.500 5213.776 4273.262 4234.963 8460.146 3309.477 3782.964 5114.705 5606.896 6284.545 4638.137 5389.280 4946.757 4125.808 2683.704 3764.978 210.884 3733.695 4893.236 4120.195 4701.995 3249.245 5331.172 3529.838 9301.746 2916.501 4405.983 5001.920 3376.136 3298.400 2559.169 1758.523 5213.822 3356.863 5309.460 2446.338 3732.582
7357.943 1718.073 1672.390 1457.036 6548.415 6055.428 2865.199 3600.427 2755.492 2157.987 11097.281 2784.566 6446.044 6029.682 6546.146 8428.388 9294.269 2712.524 2151.024 2008.322 4453.972 10805.160 4484.777 9936.098 11969.591 2992.119 4496.068 4479.385 5344.111 4289.270 2115.854 7683.367 4101.097 2352.611 2304.323 1856.902 4342.473 7663.148 5425.119 589.850 10428.071 5352.909 3508.970 3247.679 4779.935 6163.273 9643.116 2047.367 1879.803 4246.744 4897.719 3619.046 3313.447 9051.737 2894.656 5959.849 4238.019 5536.443 2139.000 2163.903 1728.781 5475.231 1960.112 7062.337 2921.582 4789.115 2965.284 6264.511 5323.498 7428.585 3737.824 6928.504 10251.612 5435.524 3849.804 3010.365 4299.370 5656.770 6896.110 2291.120 1925.859 2576.255 4973.373 0.000 2781.677 1593.257 5959.907 2084.429 2145.123 7240.163 2544.377 9265.768 5512.389 5240.821 3400.670 1934.459 6411.347 3979.719 2204.708 5701.505 6553.963 4063.989 6836.089 3677.179 4966.699 6506.371 3964.878 2915.193 5493.497 2700.638 9006.098 6564.205 8722.169 120.228 1992.373 5857.380 2573.892 7008.428 2385.215 8737.848 5909.070 2660.250 4894.849 4162.278 3304.343 1872.851 5710.101 9311.285 4062.067 4275.646 2743.467 5977.649 4929.561 954.338 3114.652 6636.577 7273.835 3873.081 2156.265 7205.940 3976.733 2001.021 4103.117 30.661 5977.913 2553.667 4272.760 4786.843 2023.664 1934.797 7566.590 8520.792 4499.213 8070.000 1674.034 11670.594 2407.195 3561.114 9257.959 3799.905 7499.063 2752.299 3696.485 7206.495 2046.240 9513.197 2788.301 5826.698
5387.948 1648.826 1158.116 2286.941 5473.092 5397.766 2379.271 4193.863 608.772 1760.077 11187.678 1321.169 4476.049 5855.294 4484.503 6741.014 7232.626 911.867 1793.612 2141.033 4957.080 9352.659 5302.884 9654.616 11460.337 1539.618 4309.957 3452.949 5151.013 1769.052 1016.590 5784.045 4514.455 3865.003 3816.715 1787.654 4322.357 7310.796 7032.120 2258.652 12096.873 4029.205 2056.469 1020.503 2964.634 4475.898 8212.370 1812.440 1742.877 4840.180 4426.377 4212.482 1067.665 6990.094 556.199 4507.348 5441.674 4083.943 691.506 1583.914 3241.173 3637.569 3472.504 5374.962 640.227 3087.792 4477.676 4202.868 3957.637 5741.211 3811.790 5476.003 9354.795 5492.702 4443.240 4522.757 4354.029 3969.395 4834.467 2761.051 1527.949 1639.514 2911.730 2760.480 0.000 1524.010 3898.264 3596.821 2615.055 5552.788 968.625 7463.591 5544.043 3179.177 1139.230 1865.211 7201.878 5183.375 1624.719 5733.159 8160.965 3027.785 8443.090 4779.597 4021.380 4536.376 5168.533 1444.646 3920.083 4213.030 6944.454 4502.562 8812.566 2880.708 2091.322 7289.267 1637.151 8440.315 642.912 7050.474 3847.427 1869.803 3442.348 4673.938 4654.206 3385.243 5332.798 7249.642 4561.595 4288.437 448.395 4525.148 6441.953 2827.215 4627.044 8305.378 5212.192 5076.737 3668.657 7425.181 3711.383 2099.970 5771.918 2791.141 5944.093 538.376 4813.812 2725.200 2287.648 3447.189 6448.792 7453.231 4981.566 7582.324 1604.786 11580.113 1470.454 5012.852 7196.316 4393.341 6046.562 393.287 1960.426 7032.108 1817.795 8060.696 690.382 5550.867
6272.849 124.816 798.672 1329.541 5840.499 5765.173 2621.747 3236.463 1709.727 825.054 11555.085 2208.681 5360.951 6222.701 5461.052 7343.295 8209.176 1622.897 816.541 1385.593 4090.008 9720.066 4345.484 10022.023 11827.744 1907.025 4132.104 4137.647 5394.354 3415.552 1410.973 6598.273 3737.132 2907.602 2859.314 422.985 3978.509 7678.203 6074.720 1373.881 11212.103 4396.612 2423.876 2373.961 3941.184 5078.179 8579.777 573.443 286.546 3882.780 4533.755 3255.082 2228.353 7966.644 1832.857 4874.755 4484.274 4451.350 1265.282 1920.451 2283.773 4390.137 2515.104 5977.243 2047.864 3704.021 3520.276 5179.417 4325.044 6343.491 3643.289 5843.410 9722.202 5832.267 3485.840 3565.357 3935.406 4571.676 5811.017 1927.156 836.232 1491.162 3888.279 1875.710 1907.959 0.000 4874.813 2639.420 1781.159 6155.069 1454.750 8180.675 5909.132 4155.727 2315.576 500.542 6966.338 4225.974 1961.256 6098.248 7203.564 3712.483 7485.690 3822.197 4388.787 5421.278 4211.133 1830.099 4408.403 3255.630 7921.004 5479.112 9179.973 1995.938 1829.465 6412.371 1488.799 7563.420 1511.497 7652.755 4823.976 2308.745 3809.755 3798.314 3696.806 2427.842 5700.205 8226.192 3698.103 3911.682 1760.843 4892.555 5484.553 1869.815 3669.644 7420.608 6188.741 4119.336 2711.257 7760.932 3733.281 1838.112 4887.148 1906.371 6311.500 1679.949 3908.796 3701.749 1532.207 2489.788 6816.199 7820.638 4211.208 7949.731 80.777 11947.520 1322.102 4055.452 8172.866 3435.940 6413.969 1800.835 2611.391 7399.515 578.798 8428.103 1698.674 5918.274
2218.251 4638.306 4521.860 4705.617 3985.376 4469.720 5969.619 4560.860 3440.705 4284.907 9192.184 5181.285 1306.352 4927.249 758.008 3296.498 3506.131 3711.021 4253.000 4559.710 4934.995 6732.306 4636.669 7507.132 9312.853 3216.898 3496.983 7289.054 4338.039 4713.398 4562.380 2614.348 4492.371 5966.503 6235.391 4518.831 3509.383 5626.337 7022.430 5502.343 12199.755 3216.231 3433.377 4880.619 2580.327 1940.473 5592.017 4324.137 4373.262 4169.668 3604.017 4579.479 3308.934 3263.600 3315.343 2877.929 4844.256 3027.071 4084.625 5129.704 5659.849 1616.079 5891.180 2811.811 4500.343 1817.816 5623.598 403.203 3144.663 2580.525 7357.581 2956.615 6817.905 4679.728 4561.434 5554.653 3531.669 1947.905 1107.972 5179.728 4123.500 4058.190 1408.364 5888.725 3860.116 4513.489 0.000 6015.497 5033.731 2392.103 3564.176 3737.096 4731.069 1263.706 3054.729 4908.542 6388.904 4566.458 5170.509 4920.185 7458.925 6863.890 7980.316 4859.934 3208.406 1203.717 4934.394 3098.590 2334.331 6544.225 3217.960 776.068 7358.148 5927.729 5602.118 6476.293 4055.827 7627.341 3824.784 3816.483 120.932 5460.152 2485.151 4651.854 4966.685 5803.919 4404.752 3523.147 4539.510 3475.463 3566.352 3162.739 6133.123 5245.891 5154.311 9379.493 1485.697 4702.311 6087.334 6497.135 7257.174 5610.766 6308.627 5919.386 5016.047 3656.333 4791.727 1502.145 4706.324 5865.865 4251.078 4832.878 4168.592 5462.055 4502.467 9432.629 3889.130 5325.331 3469.822 4295.483 3429.284 3531.798 2731.151 5974.516 4329.492 5440.343 3418.967 4622.821
7218.473 2647.819 2829.996 1557.621 5147.819 4654.832 3920.613 2362.025 3104.604 2260.122 9696.686 3998.976 6320.117 4629.086 6646.731 7933.043 9166.739 3017.775 2251.609 2055.126 3575.038 9838.091 3084.181 8535.502 10568.995 3092.704 3747.494 5528.997 3943.516 5272.842 3330.263 7188.021 3230.272 952.015 615.237 2220.802 3811.573 6262.552 4119.132 1804.259 9296.457 4155.467 3609.555 4405.285 4499.257 5667.927 8242.520 2154.014 2521.061 3082.993 3989.857 2343.406 3414.032 8924.207 3227.735 5316.743 2837.423 5017.898 3296.605 3378.313 507.475 5486.653 271.026 6371.309 4079.187 4889.700 1564.689 6365.096 4215.156 6933.240 4917.166 6107.058 8851.016 4034.928 2970.870 1609.769 3550.796 5161.425 6996.695 2337.924 2271.299 2676.840 5073.958 1991.723 3579.828 2523.003 6060.492 0.000 2191.928 6744.818 2746.473 8770.423 4111.793 5341.406 3501.255 2531.866 5010.751 2579.124 3419.118 4300.909 5247.977 5141.971 5530.103 2276.583 4058.837 6380.444 2564.282 3015.778 4969.577 1182.804 8878.567 6664.790 7321.573 2030.727 3206.783 4456.784 2674.477 5607.832 3370.807 7956.384 6009.655 3874.660 4735.379 3283.344 1903.747 1266.349 4309.505 9062.326 3183.133 3414.011 3155.721 5220.165 3528.966 1348.890 1714.056 6476.195 7374.420 2472.486 149.728 5805.345 5026.345 3215.430 3405.329 2022.384 4577.317 3202.356 3393.826 4887.428 2070.469 245.711 6165.995 7120.197 3098.618 6669.404 2603.779 10269.998 2507.780 2160.518 9130.429 2920.970 6668.580 3195.712 3797.070 5805.899 2159.369 8154.293 3093.551 4426.102
6459.604 1815.087 1997.264 961.358 5443.817 5097.250 3820.339 2304.532 2105.680 1343.013 10785.937 3407.273 5547.705 5494.494 5647.807 7530.049 8395.930 2018.851 1311.106 491.539 3158.077 9831.353 3413.553 9471.091 11276.812 2093.779 3200.173 5336.238 4462.423 4273.918 2609.565 6785.027 2805.202 2478.915 2430.627 1388.070 3046.578 7010.280 5367.238 2080.139 10544.563 4057.013 2610.630 3572.553 3484.040 5264.933 8691.064 1313.747 1661.052 2950.849 3601.824 2323.151 2415.108 8153.398 2228.810 5029.345 3552.343 4629.865 2463.873 3119.043 1855.086 4576.892 2086.417 6163.997 3221.131 3890.776 3091.589 5366.172 4027.603 6530.246 4841.881 5954.697 9321.171 4900.336 2553.909 3136.670 3003.475 4758.431 5997.771 461.291 1411.290 1677.916 4075.033 2144.466 2580.903 1690.271 5061.568 2210.733 0.000 6341.824 1747.549 8367.429 4977.201 4342.481 2502.330 1699.134 6100.002 3294.043 3159.848 5166.317 6496.083 4911.075 6778.209 2890.266 3670.804 5608.032 3279.202 2016.854 4581.544 2826.943 8107.758 5665.866 8410.824 2183.470 3028.056 5546.035 1675.553 6697.084 2371.883 7768.831 5010.731 3507.336 3720.162 2866.383 2764.875 1821.088 5032.282 8412.946 2766.172 2979.751 2156.797 5032.612 4618.217 1501.632 2952.501 7724.301 6375.495 3187.406 2282.570 6894.596 4931.873 3036.704 4653.435 2175.127 5442.725 2203.431 2976.865 3888.503 506.882 2061.101 6636.149 7590.351 3279.277 7281.808 1771.047 11359.250 1508.856 3123.521 8359.620 2504.010 6525.256 2196.788 2798.145 6671.308 1319.102 8539.390 2094.627 5178.178
981.075 5844.656 5839.652 5818.408 2164.916 2942.689 7599.156 4605.477 5070.242 5397.697 7371.725 6810.821 1622.161 3474.363 2844.422 1477.056 2710.752 5206.914 5365.790 5672.500 4979.612 4617.942 4133.626 5686.673 7492.394 4442.994 3541.600 8918.591 3191.920 6342.934 6191.917 770.546 4536.987 5726.213 6062.992 5631.621 3554.000 3805.878 6762.491 6708.694 11664.978 2538.268 4248.723 6510.155 4393.100 1317.006 3477.654 5436.927 5579.613 3739.847 3130.522 4624.095 4938.471 2468.220 4944.880 1656.192 4341.213 2152.585 5697.255 6759.241 6772.640 1940.346 6489.447 1134.315 6129.880 2657.630 5363.659 2216.923 2466.701 477.252 8810.868 1136.155 4703.541 3468.652 4606.051 5340.956 3635.566 1562.806 3194.387 6292.518 5329.851 5170.981 2614.192 7001.515 5489.652 5719.840 2365.613 6755.759 6146.522 0.000 4830.616 2288.873 3519.993 3486.332 4684.265 6021.332 5177.828 4246.531 6800.046 3709.109 6247.849 8493.427 6769.240 4767.843 3253.023 1648.382 4674.455 4660.290 2734.525 6303.936 2422.580 2862.482 5537.689 7040.520 6997.044 5265.217 5168.617 6416.265 5454.321 1529.922 2284.124 7089.689 3313.056 4696.470 5011.301 6916.709 2951.867 2580.776 4584.127 3520.080 5195.889 1494.839 5136.520 6358.682 5112.976 8896.545 2953.118 4442.372 6827.596 5044.249 8886.711 7005.691 6048.688 7032.176 3563.161 5285.870 4836.344 2825.076 5819.114 6464.132 2429.702 2718.514 3569.755 3641.596 5708.817 7612.170 5001.920 5369.947 2674.442 4340.100 1414.069 5161.335 4360.688 4154.056 5442.283 3325.979 5048.504 3169.936
5055.047 1074.129 1009.036 1318.317 4622.697 4547.370 2874.165 3225.239 463.128 791.452 10337.283 2170.590 4143.149 5004.899 4243.250 6125.493 6991.374 376.298 824.987 1172.409 4078.784 8502.264 4334.259 8804.221 10609.942 689.223 3459.562 4193.600 4300.618 2631.365 1466.926 5380.471 3664.060 2896.378 2848.090 1038.509 3471.962 6460.401 6063.495 1938.167 11240.820 3178.810 1206.074 1958.854 2723.382 3860.377 7361.975 843.815 809.086 3871.556 3575.982 3243.857 999.444 6748.842 586.258 3656.953 4473.050 3233.548 866.639 2034.250 2272.548 3172.335 2503.879 4759.441 1578.578 2486.219 3509.051 3961.615 3107.242 5125.689 4040.341 4625.608 8504.399 4642.307 3474.615 3554.132 3503.634 3353.874 4593.215 1792.427 559.324 670.889 2670.477 2439.996 938.351 949.313 3657.011 2628.196 1646.430 4937.267 0.000 6962.873 4693.648 2937.925 1086.666 1358.056 6351.483 4214.750 2075.055 4882.764 7192.340 3768.436 7474.466 3810.972 3170.985 4203.475 4199.908 612.297 3190.601 3244.406 6703.202 4261.310 7962.170 2540.428 2226.517 6401.147 668.526 7552.195 729.330 6434.953 3606.174 2364.698 2591.953 3787.089 3685.581 2416.618 4482.403 7008.390 3686.879 3438.042 514.244 3674.753 5473.329 1858.590 3658.419 7984.894 4970.939 4108.112 2700.033 6574.786 4130.334 2235.165 5349.692 2470.657 5093.698 560.879 3897.571 2483.947 1319.023 2478.564 5598.397 6602.836 4131.171 6731.929 938.290 10729.718 501.829 4044.227 6955.064 3424.716 5196.167 554.235 1393.589 6181.712 849.170 7210.301 452.075 4700.472
2640.477 8025.350 8020.346 7999.102 4128.459 4951.753 9779.850 6708.470 7250.935 7578.391 8858.760 8991.515 3391.123 5483.428 3529.781 958.125 1585.482 7387.608 7546.484 7853.194 7085.451 4065.665 6142.690 7374.333 7740.489 6623.688 5647.439 11099.285 5200.985 8523.628 8372.611 1950.385 6642.827 7803.066 8139.844 7812.315 5659.839 5619.473 8804.396 8889.388 13674.043 4615.121 6429.417 8690.849 6569.198 3403.782 2925.377 7617.621 7760.307 5816.699 5207.374 6727.089 7119.165 1355.269 7125.574 3759.120 6350.278 4347.355 7877.949 8939.935 8903.942 4121.040 8566.299 3458.987 8310.574 4838.324 7440.512 4024.625 4543.554 1886.122 10991.562 3099.698 4444.583 5477.717 6709.045 7417.808 5741.405 3743.500 3458.560 8473.212 7510.545 7351.674 4794.886 9182.209 7670.346 7900.534 4142.851 8832.612 8327.216 2403.531 7011.310 0.000 5529.058 5161.451 6864.959 8202.026 7186.893 6323.384 8980.740 5718.174 8256.914 10674.121 8778.304 6844.695 5358.862 3451.449 6751.307 6840.984 4915.219 8380.788 1644.928 3804.185 7454.349 9221.214 9177.738 7274.282 7349.311 8425.330 7635.015 967.387 4061.361 9270.383 5493.750 6802.310 7114.295 9097.403 4960.932 662.469 6689.966 5625.919 7376.583 3571.692 7145.585 8539.376 7189.829 10905.610 2790.995 6519.225 8904.448 7036.248 11067.405 9186.385 8125.540 9212.870 5572.226 7466.564 6942.183 5005.770 7999.808 8540.984 3744.188 3542.364 5646.607 5329.256 7889.511 9089.980 7182.614 7472.941 1468.320 6443.094 3088.909 7342.029 6541.382 6117.599 7622.977 2773.702 7229.198 5179.001
4653.568 5968.388 5963.384 5137.837 1773.572 1280.586 7629.979 3132.111 5417.476 5521.430 5899.687 7124.938 4349.246 517.293 5713.952 5096.558 6448.535 5330.646 5489.523 4888.905 3617.521 6204.350 2050.581 4651.481 6457.202 4566.726 2761.146 9147.948 865.339 7220.406 6421.274 4512.912 3174.897 3358.355 3695.133 5564.548 2825.225 2150.759 3275.338 5513.625 8144.985 1945.635 4372.455 6913.202 4659.563 3371.102 4608.778 5497.760 5703.345 2286.711 2542.074 3123.178 5460.095 6206.004 5540.606 2675.000 2052.170 2559.925 5820.987 6988.598 4459.231 3729.408 4121.588 3413.233 6532.926 3535.102 2856.202 5086.453 1960.659 4219.619 8626.532 2792.346 5217.275 151.550 3179.056 3193.542 2564.448 3351.868 6063.917 5171.703 5453.583 5294.713 4021.570 5701.089 5892.699 5843.572 5235.144 4387.901 5025.707 3795.938 4954.348 5822.681 0.000 5060.967 5534.580 5875.612 1657.835 2463.496 7029.403 189.116 2727.856 8722.784 3249.246 2753.992 3072.489 4409.573 2389.039 4784.022 3299.676 3936.077 6160.364 5732.012 3524.575 5740.094 6916.149 1745.223 5292.350 2896.272 5683.678 4998.308 5153.654 7319.046 3515.712 3334.380 3180.156 4975.716 786.138 6114.584 3198.384 2427.663 5468.592 2439.580 2399.803 5058.256 3099.125 5376.552 6094.404 2283.212 4459.737 2073.017 8735.711 6924.797 3541.230 5731.750 465.524 5515.227 3474.254 4215.697 4904.248 4096.273 2532.253 3486.455 2014.640 2557.611 5832.549 6473.000 5125.653 3442.867 6412.226 2913.106 3294.333 5508.583 4631.655 1694.106 5503.116 4520.551 5406.423 1153.328
3269.052 3998.324 3881.879 4065.636 4344.507 4577.561 5329.638 4475.613 2800.723 3644.926 10059.382 4541.303 2357.153 5035.090 1971.278 4509.768 4719.401 3071.040 3613.018 3919.728 4563.907 7599.504 4744.510 8374.330 10180.051 2576.916 3595.843 6649.073 4445.881 4073.416 3922.399 3665.150 4121.282 5643.697 5595.409 3878.849 3608.243 6215.510 7130.272 4862.362 12307.597 3324.072 3012.803 4240.637 1407.746 2562.250 6459.215 3684.156 3733.281 4277.509 3578.750 4494.232 2668.953 4476.869 2675.362 3154.956 4952.098 3134.912 3444.644 4489.723 5019.868 1723.920 5251.199 3461.314 3860.362 1925.658 5731.440 1689.642 3252.505 3775.089 6717.599 3823.813 7685.103 4787.569 4353.292 5523.924 3506.402 2055.747 2321.242 4539.746 3483.519 3418.209 1323.773 5248.743 3220.134 3873.508 1385.039 5375.515 4393.750 3586.666 2924.195 4950.365 4838.911 0.000 2414.747 4268.560 6496.746 4674.300 4530.528 5028.027 7566.767 6223.909 8088.157 4967.776 3316.248 2416.987 5042.235 2458.609 2442.172 5991.725 4431.229 1989.337 7717.279 5287.748 4962.136 6584.134 3415.846 7735.182 3184.803 5029.752 1334.202 4820.171 2386.749 4280.766 4935.956 5163.938 4512.594 4736.417 4168.422 3583.305 2926.371 3270.581 6240.964 4605.910 5123.582 9487.334 2698.966 4810.153 5447.352 6604.977 6617.193 4970.784 6416.468 5279.405 5123.889 3016.352 4420.639 1213.839 4066.343 5225.884 5118.276 5700.076 4276.434 6329.253 3862.485 10299.827 3249.149 5294.602 4683.091 4038.439 4296.482 2891.817 2091.170 6211.903 3689.511 6307.541 2778.986 4730.663
4563.757 2139.700 1819.651 2281.639 5019.088 4943.761 3267.411 4167.049 738.496 1857.022 10733.673 2460.842 3651.858 5401.290 3660.312 5916.823 6408.435 1008.813 1829.021 2135.731 4255.342 8688.961 4758.137 9200.611 11006.332 1195.357 3855.952 4586.845 4697.008 2182.598 1860.172 4959.855 3812.718 3859.700 3811.412 2094.852 3868.352 6856.792 7026.818 2938.226 12204.143 3575.200 1757.127 2160.176 1990.116 3651.707 7548.673 1900.158 1874.656 4291.136 3972.372 4185.667 743.811 6165.903 613.135 3983.875 4965.725 3629.938 1382.417 2427.496 3235.871 2813.378 3467.202 4550.771 1779.900 2263.601 4472.374 3378.677 3503.633 4917.020 4655.372 4913.270 8774.560 5038.697 4044.727 4517.455 3900.024 3145.204 4010.276 2755.749 1624.894 1634.212 2087.539 3440.054 1139.673 2014.884 3074.073 3591.518 2609.753 4728.598 1065.570 6639.400 5090.038 2204.659 0.000 2423.626 6747.873 4687.927 2468.301 5279.154 7817.894 4161.682 8339.285 4717.195 3567.375 3712.185 5055.862 1077.050 3095.892 4207.728 6120.264 3678.371 8358.561 3503.751 2899.909 6835.262 1631.848 7986.310 1122.576 6226.283 3023.236 2757.943 2700.190 3972.201 4627.391 3379.940 4878.793 6425.451 3859.857 3834.432 864.143 4034.371 6254.591 2821.913 4621.742 8984.953 4388.001 4823.780 3663.355 6971.176 4554.965 2908.557 6313.014 3470.715 5490.088 954.124 4112.074 1901.009 2282.345 3441.886 5994.787 6789.533 4297.896 7128.319 2003.861 11126.108 1465.151 4986.037 6372.125 3729.874 5385.939 829.589 1140.111 6578.103 1905.514 7396.998 716.758 5096.862
6106.935 343.813 298.130 1389.197 5674.585 5599.258 2121.205 3296.119 1381.232 783.726 11389.170 1708.139 5195.036 6056.787 5295.138 7177.380 8043.261 1338.264 817.261 1485.257 4149.664 9554.151 4405.140 9856.109 11661.830 1741.110 4191.760 3637.104 5352.506 2915.010 910.431 6432.358 3796.789 2945.765 2897.477 482.641 4038.165 7512.289 5708.608 873.339 10711.560 4230.697 2257.961 1873.419 3775.269 4912.264 8413.863 673.107 505.543 3942.436 4593.411 3314.738 1961.410 7800.729 1520.396 4708.841 4543.930 4285.435 764.739 1419.909 2321.936 4224.223 2553.267 5811.328 1547.321 3538.107 3558.439 5013.503 4159.130 6177.577 3142.747 5677.496 9556.287 5694.194 3545.496 3603.520 3995.062 4405.761 5645.102 1986.812 551.599 1520.067 3722.364 1375.167 1407.417 218.997 4708.899 2677.583 1840.815 5989.155 1170.117 8014.760 5745.536 3989.812 2048.632 0.000 7004.501 4285.630 1460.714 5934.652 6837.452 3211.941 7119.578 3881.853 4222.873 5255.363 4270.789 1664.185 4242.489 3293.793 7755.089 5313.197 9014.058 1495.396 1328.922 6450.534 1517.704 7549.022 1010.955 7486.840 4658.062 1808.202 3643.841 3857.970 3756.462 2487.499 5534.291 8060.277 3757.759 3971.338 1369.207 4726.641 5522.716 1520.271 3707.807 6920.066 6022.826 4178.993 2749.420 7626.674 3232.739 1337.570 4386.606 1405.828 6145.585 1179.407 3968.452 3535.834 1631.871 2527.952 6650.284 7654.723 4270.864 7783.817 299.773 11781.606 1351.007 4115.108 8006.951 3495.597 6248.055 1378.039 2445.476 7233.600 671.980 8262.188 1414.041 5752.360
6195.505 6941.344 7123.521 5851.146 3315.510 2822.523 8214.138 3783.956 6806.346 6553.647 5165.778 8292.501 5891.184 1906.514 7255.890 6638.496 7990.473 6719.516 6545.134 5904.888 4827.499 7831.244 3439.451 4004.594 6083.898 5955.596 4150.016 9822.522 2254.208 8609.276 7623.788 6054.850 4482.733 3942.514 4279.292 6514.327 4214.095 2813.854 2845.037 6097.784 6771.135 3334.504 5761.325 8302.072 6048.433 4913.040 6235.673 6447.539 6814.586 3675.581 3930.944 3775.022 6848.965 7747.941 6929.476 4216.937 3441.040 4101.863 7209.857 7671.838 5043.390 5205.622 4705.747 4955.171 7921.796 4923.972 3440.361 6628.391 3349.529 5761.556 9210.691 4334.284 6844.169 1812.461 4223.330 3777.701 3953.318 4880.394 7605.854 6187.687 6564.824 6683.583 5410.440 6285.248 7281.569 6816.528 6777.081 4972.060 6041.690 5337.875 6343.218 7364.619 1889.325 6449.837 6923.450 6825.391 0.000 3557.087 7712.643 1862.509 1454.313 9435.496 1975.703 3405.836 4461.359 5951.510 3542.246 6172.892 4688.546 4520.236 7702.301 7273.950 2790.665 6324.253 7500.308 695.656 6681.220 1622.729 7072.548 6540.245 6695.592 8168.185 4904.582 4535.804 3790.303 5559.875 2328.076 7656.522 4435.594 3816.533 6857.462 3981.518 2983.962 5642.415 3709.272 4946.251 7636.342 3450.449 5043.896 1687.482 9319.871 7508.956 4025.761 6315.909 1888.608 6904.097 4646.286 5604.566 5920.231 4680.432 4159.148 5113.350 3403.510 3220.706 6897.304 5739.090 6514.523 4053.015 7954.163 4173.431 4836.271 6897.453 6020.525 2386.492 6452.894 6147.446 6795.293 2695.266
4994.570 4128.138 4310.315 3274.410 3103.814 2503.300 5908.589 1056.714 4584.924 3740.441 7951.655 5720.324 4096.215 2832.137 5460.921 5632.794 6942.836 4498.094 3731.928 3025.478 1773.284 7597.065 751.195 6790.472 8772.046 4012.724 1523.591 7516.973 1800.066 6405.588 4922.616 4964.119 1428.518 1636.965 1973.743 3701.121 1587.670 4465.603 2673.243 3792.236 7850.568 1733.626 3818.454 5885.605 3829.964 3444.025 6329.046 3634.333 4001.381 661.152 1674.364 1047.780 4851.404 6700.305 4708.054 2894.902 718.061 2670.887 4776.925 5366.289 2737.841 3262.750 2400.198 3949.468 5559.507 2981.100 1274.411 4833.422 1793.315 4709.337 6905.143 3720.409 6937.542 2237.979 1169.116 1251.707 1326.893 2937.522 5810.885 3308.276 3751.619 4157.160 3467.568 3979.700 5060.147 4003.322 4982.112 2666.511 3162.280 4332.173 4226.792 6358.916 2314.843 4506.965 4746.919 4012.185 3265.720 0.000 5407.094 2503.959 3694.386 7129.947 4084.213 678.594 1834.934 4156.541 585.206 4230.020 2745.675 2214.687 6654.665 5478.980 5576.543 4018.704 5194.759 2711.754 4154.797 3862.802 4851.127 5534.543 4900.623 5820.388 2771.207 1481.590 1104.759 3254.326 2399.223 6650.819 1381.379 1190.108 4636.041 2798.324 1783.935 3336.866 1023.728 5030.305 5841.373 353.124 2738.347 4060.314 7014.322 5203.407 1959.439 4010.361 2780.368 4682.675 1592.072 3661.695 3040.821 2374.883 4252.521 5206.723 676.777 4872.455 4084.099 8524.968 3988.100 1367.470 6906.527 1119.217 4290.968 4676.032 3733.265 4008.950 3639.689 6240.819 4573.871 2515.820
6680.747 1731.283 1261.410 2763.558 6670.905 6595.578 865.369 4670.480 1886.876 2029.674 12385.491 931.776 5768.849 7053.107 5777.303 8033.814 8525.426 2109.680 2063.209 2746.382 5524.025 10550.472 5779.501 10852.429 12658.150 2737.431 5507.770 2511.294 6348.826 3177.681 631.352 7076.845 5171.149 3776.964 3728.676 1870.112 5412.526 8508.609 6539.807 1704.538 11542.759 5227.018 3254.282 1807.074 4257.434 5768.698 9410.183 2060.577 1825.334 5316.797 5624.190 4689.099 2360.465 8282.894 1848.998 5705.161 5662.373 5281.756 1375.301 260.447 3153.135 4930.368 3384.466 6667.762 1480.976 4380.592 4389.638 5495.667 5155.450 7034.010 2187.071 6673.816 10552.607 6690.515 4919.857 4434.719 5369.423 5262.195 6127.267 3361.173 1797.546 2766.014 4204.529 2206.366 1670.089 1606.467 5191.064 3508.782 3215.176 6845.588 2166.438 8756.390 6741.856 4471.977 2462.133 1947.669 7835.700 5404.073 0.000 6930.972 7668.651 2086.130 7950.777 5101.533 5219.193 5829.175 5389.231 2660.505 5212.883 4124.992 8237.254 5795.362 10010.378 2326.595 806.459 7281.733 2763.651 8380.221 1339.557 8343.274 5140.227 648.945 4640.161 5232.330 4728.697 3393.582 6530.611 8542.442 5132.120 5345.699 1697.809 5722.961 6353.915 2351.470 4539.006 7751.265 6504.991 5297.435 3580.619 8622.994 2086.665 815.107 5217.805 2237.028 7141.906 1508.009 5342.813 4017.999 2892.997 3359.151 7646.605 8651.044 5645.225 8780.137 1687.244 12777.926 2596.954 4985.468 8489.116 4869.957 7244.375 1706.641 3253.225 8229.920 2059.450 9258.509 1983.182 6748.680
4775.530 5937.282 5932.278 5106.731 1895.534 1402.548 7598.873 3101.005 5386.370 5490.324 5874.705 7093.833 4471.208 986.643 5835.914 5218.520 6570.497 5299.540 5458.417 4857.799 3586.416 6424.164 2019.475 4713.522 6765.841 4535.620 2730.040 9116.842 834.233 7189.300 6390.168 4634.874 3143.791 3327.249 3664.027 5533.442 2794.119 2459.399 3185.685 5482.520 8055.332 1914.529 4341.350 6882.096 4628.457 3493.064 4828.593 5466.654 5672.239 2255.605 2510.968 3092.072 5428.989 6327.966 5509.500 2796.962 2021.064 2681.887 5789.881 6957.492 4428.125 3785.646 4090.482 3535.195 6501.821 3503.996 2825.096 5208.415 1929.554 4341.581 8595.427 2914.308 5437.089 392.485 3147.951 3162.436 2533.342 3460.418 6185.879 5140.597 5422.477 5263.607 3990.464 5669.984 5861.593 5812.466 5357.106 4356.795 4994.601 3917.900 4923.242 5944.643 469.350 5029.861 5503.474 5844.507 1568.182 2432.390 6998.297 0.000 2638.203 8691.678 3159.594 2722.886 3041.383 4531.535 2357.933 4752.916 3268.571 3904.971 6282.326 5853.974 3499.593 5708.988 6885.043 1655.571 5261.244 2806.619 5652.573 5120.270 5275.616 7287.940 3484.606 3303.274 3149.050 4944.610 908.100 6236.546 3167.278 2396.557 5437.487 2561.542 2368.697 5027.150 3068.019 5286.899 6216.366 2252.106 4428.631 1983.365 8704.606 6893.691 3510.124 5700.645 934.874 5484.121 3443.148 4184.591 4873.142 4065.167 2752.068 3706.270 1983.534 2866.250 5801.443 6448.018 5094.547 3411.761 6534.188 2882.000 3416.295 5477.478 4600.550 2002.746 5472.010 4740.366 5375.317 1275.290
7321.865 7211.194 7165.510 6268.101 4441.869 3948.883 8199.324 4200.910 7815.084 6970.601 5951.492 8277.687 7017.543 3032.874 8382.249 7764.855 9116.832 7728.255 6962.089 6321.843 5244.453 8957.604 4172.596 5138.780 6921.280 7081.955 5181.738 9807.708 3380.568 9735.635 7608.974 7181.209 4899.687 4359.468 4696.246 6931.281 5245.817 3948.040 1413.309 6082.970 5536.552 4460.864 6887.685 8740.800 7174.792 6039.399 7362.032 6864.494 7231.541 4449.029 5057.303 4191.977 7975.324 8874.301 7938.214 5343.297 4157.664 5228.222 7632.120 7657.024 5460.345 6331.981 5122.702 6081.530 8414.702 6050.331 3857.315 7754.750 4475.889 6887.916 9195.877 5460.643 7970.529 2938.820 4640.285 4194.656 4985.040 6006.753 8732.214 6604.641 6981.779 7387.320 6536.799 6676.690 8274.798 7086.377 7903.441 5389.014 6458.645 6464.235 7456.953 8490.978 3015.685 7576.196 8049.809 7242.346 1449.770 3974.042 7697.829 2988.868 0.000 9420.682 521.390 3822.791 5493.081 7077.870 3959.200 7299.251 5814.906 4937.191 8828.661 8400.309 3924.851 6741.207 7485.494 978.090 7384.957 749.990 7878.336 7666.605 7821.951 8153.371 6030.941 4952.759 4207.258 5976.829 3454.435 8782.881 4852.548 4848.255 7866.201 5107.877 3400.916 6059.369 4126.227 3514.523 8762.701 3867.404 5460.851 2821.668 9305.056 7494.141 2594.033 6707.351 3014.967 7912.835 5063.241 6730.926 6337.186 5097.387 5285.507 6239.709 4136.655 4354.892 7167.154 6560.200 7218.260 4469.969 9080.523 4590.386 5962.630 7906.192 7146.885 3512.851 6869.849 7273.806 7804.031 3821.625
8474.425 3614.512 3144.638 4646.786 8464.583 8389.256 1579.269 6553.708 3680.554 3912.902 14179.169 1667.703 7562.526 8846.785 7570.980 9827.492 10319.104 3903.358 3946.437 4629.611 7407.254 12344.150 7662.729 12646.107 14451.828 4531.109 7301.448 535.540 8142.504 4442.375 2480.364 8870.523 7054.378 5696.211 5647.923 3753.340 7295.755 10302.287 8459.054 3623.785 13462.006 7020.695 5047.960 2611.341 6051.112 7562.376 11203.861 3943.806 3708.563 7200.026 7417.868 6572.327 4154.142 10076.572 3642.676 7498.839 7581.619 7075.433 3168.979 2346.578 5072.382 6724.046 5303.712 8461.440 2803.690 6174.269 6308.885 7289.345 6949.128 8827.688 1808.877 8467.494 12346.285 8484.192 6803.085 6353.965 7252.651 7055.873 7920.945 5244.401 3680.774 4631.004 5998.207 4125.613 3115.110 3489.696 6984.741 5428.029 5098.405 8639.266 3960.115 10550.068 8535.534 6265.655 4254.340 3830.897 9754.947 7323.320 2086.130 8724.650 9587.898 0.000 9870.024 7020.780 7012.871 7622.853 7308.478 4454.183 7006.561 6044.239 10030.932 7589.040 11804.056 4245.841 2725.706 9200.980 4628.641 10299.468 3133.235 10136.952 6933.904 1704.381 6433.839 7115.559 6647.944 5312.828 8324.289 10336.120 7015.349 7228.928 3491.487 7516.639 8273.162 4270.717 6458.252 9670.512 8298.669 7216.682 5499.866 10416.672 838.783 2734.354 7137.052 4156.274 8935.584 3301.686 7226.041 5811.677 4776.225 5278.397 9440.283 10444.722 7528.453 10573.815 3570.472 14571.604 4461.944 6904.714 10282.794 6753.186 9038.053 3500.319 5046.903 10023.598 3942.679 11052.187 3776.859 8542.358
7824.849 7427.484 7381.801 6502.201 4944.853 4451.867 8415.614 4435.011 8049.184 7204.702 6454.477 8493.977 7520.527 3535.858 8885.233 8267.839 9619.816 7962.355 7196.189 6555.943 5478.553 9460.588 4595.382 5641.764 7424.264 7584.939 5444.013 10023.998 3883.552 9998.681 7825.265 7684.193 5133.788 4593.569 4930.347 7165.382 5508.092 4451.024 1629.600 6299.261 5548.183 4963.848 7390.669 8957.090 7677.776 6542.383 7865.017 7098.594 7465.641 4712.011 5557.029 4426.077 8358.612 9377.285 8172.314 5846.281 4466.442 5731.206 7848.411 7873.314 5694.445 6834.965 5356.802 6584.514 8630.992 6553.315 4091.415 8257.735 4978.873 7390.900 9412.168 5963.627 8473.513 3441.804 4874.385 4428.756 5247.315 6509.737 9235.198 6838.741 7215.879 7621.420 7039.784 6892.980 8491.088 7302.668 8406.425 5623.114 6692.745 6967.219 7691.053 8993.962 3518.669 8079.180 8445.835 7476.446 1952.754 4208.142 7914.119 3491.852 541.404 9636.973 0.000 4056.891 5755.356 7580.854 4193.300 7802.235 6317.890 5171.291 9331.645 8903.293 4427.835 6975.307 7701.784 1481.074 7619.057 1252.974 8094.626 8169.589 8324.936 8369.661 6533.926 5186.859 4441.358 6210.929 3957.419 9285.865 5086.648 5110.530 8100.301 5610.861 3823.703 6293.470 4360.327 3730.814 9265.685 4101.504 5694.951 3324.652 9521.347 7710.432 2810.324 6923.641 3517.951 8146.936 5297.341 7233.910 6571.286 5331.487 5788.491 6742.693 4559.442 4857.876 7383.445 7063.184 7452.360 4704.069 9583.507 4824.486 6465.614 8140.292 7599.001 4015.835 7103.949 7776.790 8038.131 4324.609
5210.040 3832.394 4014.571 2978.665 3492.136 2891.622 5608.874 608.801 4289.180 3444.697 8126.353 5424.580 4311.684 3058.754 5676.391 5924.611 7158.306 4202.350 3436.184 2729.734 1652.344 7990.377 1139.517 6965.169 8998.662 4110.291 1739.061 7217.258 2150.279 6445.116 4626.872 5179.589 1307.578 1337.250 1674.028 3405.377 1803.140 4692.220 2707.654 3492.521 7884.979 2210.802 3916.021 5589.860 3869.491 3659.495 6672.187 3338.589 3705.636 1138.329 1981.424 599.867 4598.607 6915.774 4412.310 3372.079 892.759 3009.465 4481.181 5066.574 2438.126 3478.220 2100.484 4426.645 5263.763 3196.570 1108.467 5048.892 2270.491 4924.807 6605.428 4162.393 7280.683 2464.596 1048.176 951.992 1542.363 3152.992 6026.355 3012.532 3455.874 3861.415 3683.038 3679.985 4764.403 3707.578 5197.582 2366.796 2866.535 4736.385 3931.048 6761.990 2541.460 4722.435 4685.830 3716.441 3440.418 634.459 5107.379 2730.576 3836.499 6830.233 4118.624 0.000 2050.404 4372.011 619.618 4200.353 2961.145 1914.973 6870.135 5694.450 5751.240 3718.989 4895.044 2886.451 3859.052 4037.499 4555.382 6011.719 5116.093 5524.644 2986.676 1360.649 705.153 2954.611 2739.173 7053.894 1260.439 1405.578 4340.296 3275.500 1958.633 3037.151 724.013 5064.717 6056.843 527.821 2438.633 4235.012 6714.607 4903.692 1993.851 3710.646 3006.984 4386.931 1471.132 3877.165 2745.077 2075.168 4595.662 5549.864 1153.953 5099.071 3788.354 8699.665 3692.355 1063.799 7121.996 998.276 4732.952 4380.287 3772.792 4235.567 3343.944 6583.960 4278.127 2855.769
3583.632 4003.448 3998.444 3670.900 2772.206 2696.879 5863.573 1776.449 3452.535 3556.489 8486.792 5159.998 2685.276 3154.408 4049.982 4298.202 5531.898 3365.706 3524.582 3421.968 2150.585 6651.773 1852.258 6953.730 8759.451 2601.786 623.786 7183.008 2424.495 5255.466 4456.334 3553.180 1707.960 3182.092 3518.870 3790.413 636.186 4609.910 4238.020 4789.680 9415.345 1322.945 2407.515 4948.262 3117.546 2033.086 5511.484 3595.719 3738.405 1385.257 1266.899 1795.068 3495.155 5289.366 3575.665 1806.462 2059.846 1383.057 3856.047 5023.658 4237.145 1851.811 3945.326 2932.150 4567.986 1570.161 2839.188 3422.483 1251.377 3298.399 6969.660 2775.117 6653.908 2786.442 1777.024 2770.242 717.752 1526.583 4399.947 3704.766 3488.643 3329.772 2056.630 4854.007 3927.759 3878.632 3571.174 4211.638 3558.770 3109.976 2989.408 5135.582 2837.783 3096.027 3569.639 4180.124 4495.618 1782.048 5064.463 3026.899 5259.163 6757.844 5648.990 2075.524 0.000 2745.603 2149.983 2819.082 1334.736 3759.815 5243.726 4068.042 6111.679 4893.011 5155.836 4276.530 3327.409 5427.579 3718.738 4589.251 3489.684 5354.106 1727.013 1867.443 2182.274 4203.147 2631.912 5427.485 1755.099 691.053 3503.652 1824.262 3348.712 4211.173 2369.900 6595.082 4430.434 1917.901 4283.475 4724.295 7059.652 5164.483 3524.216 4884.668 3243.207 3550.287 2007.317 2250.756 3437.311 3920.011 3747.906 4752.345 1384.182 4881.438 3867.609 8879.227 3160.712 2540.920 5495.588 1511.073 3345.676 3543.643 2666.715 4331.221 3601.075 5359.810 3441.482 2849.981
1089.605 5147.058 5142.053 5120.810 3171.292 3643.334 6618.768 4200.759 4089.853 4700.099 8378.101 5830.433 177.707 4100.862 1627.560 2481.481 3715.176 4360.170 4668.192 4974.902 4574.894 5918.223 4276.568 6693.049 8498.770 3745.395 3136.882 7938.202 3818.420 5362.546 5211.529 1485.703 4132.270 5606.402 5943.180 4934.023 3149.283 4812.254 6662.330 6011.095 11839.655 2710.092 3551.125 5529.767 3400.686 1168.276 4777.934 4739.329 4882.014 3809.567 3285.508 4219.378 3958.083 3472.645 3964.492 2027.732 4484.156 2193.542 4733.774 5778.853 6075.041 1062.403 6306.372 1997.727 5149.491 1935.563 5263.497 1000.061 2638.525 1766.442 8006.729 2142.531 6003.821 4095.151 4201.333 5194.552 3230.849 1296.982 1977.524 5594.920 4632.252 4473.382 1621.777 6303.917 4509.264 5022.241 1148.751 6430.689 5448.923 1578.020 4133.017 3387.149 4146.493 2269.470 3703.877 5323.734 5804.328 4206.357 5819.658 4335.609 6874.349 7513.039 7395.739 4499.834 2848.306 0.000 4574.293 3747.739 2260.306 6184.125 3427.005 1645.619 6544.065 6342.921 6251.266 5891.716 4471.019 7042.765 4473.933 2859.230 1067.262 6109.300 2602.898 4291.753 4606.584 6219.111 3578.366 3679.053 4179.409 3115.362 4215.500 2329.211 5730.482 5661.083 4794.210 9019.392 2008.012 4342.211 6502.526 5670.749 7906.323 6259.914 5948.526 6334.578 4189.661 4305.481 4431.627 1832.661 5121.516 6281.057 3436.995 4018.795 3741.578 4647.972 5011.218 8618.546 4304.322 4965.230 3678.867 3935.382 2615.200 4180.946 3380.300 5160.432 4744.684 4626.260 4068.116 3796.435
5357.368 4219.660 4401.837 3365.931 3137.159 2644.173 5847.942 996.067 4676.445 3831.963 7686.026 5811.846 4459.012 2618.427 5823.718 6071.938 7305.634 4589.616 3823.450 3116.999 2039.610 7827.432 868.072 6524.842 8558.335 4375.522 1886.389 7456.326 1818.722 6768.386 5014.137 5326.916 1694.844 1576.318 1913.096 3792.643 1950.468 4251.893 2612.596 3731.588 7789.921 2226.861 4181.251 5977.126 4192.762 3806.822 6231.860 3725.855 4092.902 1154.387 2128.752 987.133 4985.873 7063.102 4799.575 3388.137 561.202 3156.793 4868.446 5305.642 2677.194 3625.548 2339.551 4442.703 5651.028 3343.898 1213.764 5196.219 2286.549 5072.135 6844.495 4091.559 6840.357 2024.269 1435.441 1191.060 1689.691 3300.320 6173.683 3399.798 3843.140 4248.681 3830.366 3919.052 5151.669 4094.844 5344.910 2605.864 3253.801 4825.408 4318.314 6852.151 2101.133 4869.763 5073.096 4103.707 3000.091 650.518 5346.447 2290.249 3428.757 7069.300 3944.726 617.947 2197.732 4519.339 0.000 4587.619 3108.472 2154.040 7017.462 5841.778 5310.913 3958.057 5134.112 2446.124 4246.318 3597.173 4942.648 6027.778 5263.420 5801.989 3134.004 1747.915 1044.111 3193.679 2298.846 7144.054 1647.705 1552.906 4727.562 3291.558 1518.306 3276.219 963.080 4969.658 6204.170 543.880 2677.700 3794.685 6953.674 5142.760 1898.792 3949.713 2566.658 4774.196 1858.397 4024.492 3132.342 2314.236 4155.335 5109.537 1170.011 4658.745 4175.620 8259.339 4079.621 1306.823 7269.324 1385.542 4657.920 4767.553 4096.062 3795.240 3731.210 6143.633 4665.392 2415.442
4617.028 1611.730 1546.637 1679.042 4352.706 4277.379 3411.766 3585.964 1000.729 1258.332 10067.292 2708.191 3705.129 4734.908 3713.583 5855.501 6461.706 900.434 1226.425 1533.134 3757.058 8232.273 4259.853 8534.230 10339.951 217.296 3189.571 4731.201 4030.627 2754.550 2004.527 5013.126 3314.433 3257.104 3208.816 1492.256 3201.971 6190.410 6424.221 2475.768 11601.546 2908.818 936.083 2496.455 2193.714 3590.386 7091.984 1297.562 1346.687 3792.852 3305.991 3604.583 820.387 6219.175 1067.706 3386.962 4467.441 2963.556 1404.240 2571.851 2633.274 2866.649 2864.605 4489.450 2116.179 2216.228 3869.777 3431.948 2837.251 4855.698 4577.942 4355.617 8234.408 4372.315 3546.442 3914.858 3233.643 3083.883 4063.548 2153.153 1096.925 1031.615 2140.810 2862.150 1475.952 1486.914 3127.344 2988.922 2007.156 4667.276 537.601 6692.671 4423.657 2408.258 907.610 1881.967 6081.492 4189.642 2612.656 4612.773 7151.513 4306.037 7672.903 4171.698 2900.994 3765.456 4557.578 0.000 2920.610 3605.131 6173.535 3731.643 7692.179 2901.154 2764.118 6168.880 1029.252 7319.928 1266.931 6164.961 3076.507 2902.299 2321.962 3473.916 4046.307 2777.344 4212.412 6478.723 3361.573 3168.051 1051.845 3404.762 5756.307 2219.316 4019.145 8522.495 4441.272 4325.496 3060.758 6304.795 4667.935 2772.766 5710.418 2892.811 4823.707 1098.480 3613.790 1954.280 1679.749 2839.290 5328.406 6332.845 3799.612 6461.938 1475.891 10459.727 862.555 4404.953 6425.397 3231.590 4926.176 1091.836 798.724 5911.721 1302.917 6940.310 933.522 4430.481
2591.029 4007.301 4002.297 3981.053 2437.295 2670.350 5761.801 2818.791 3232.887 3560.343 8185.180 4973.467 1679.130 3127.879 3043.837 3474.361 4708.057 3369.559 3528.436 3835.145 3192.926 6246.500 2894.600 6618.819 8424.540 2605.639 1754.914 7081.236 2595.970 4505.580 4354.562 2729.340 2750.301 4224.434 4561.212 3794.267 1767.314 4308.299 5280.361 4871.339 10457.686 1474.162 2411.368 4672.800 2774.521 1209.246 5106.211 3599.573 3742.258 2427.598 2049.577 2837.409 3101.116 4465.525 3107.525 1312.874 3102.187 1227.701 3859.900 4921.886 4935.285 693.390 4987.667 2108.310 4292.525 820.276 3881.529 2416.338 1402.594 2474.558 6973.513 2329.434 6318.997 2937.658 2819.365 3812.584 1848.880 702.743 3393.801 4455.163 3492.496 3333.626 1256.089 5164.161 3652.298 3882.485 2565.028 5253.979 4309.167 2286.136 2993.261 4311.741 2989.000 2295.486 2846.911 4183.978 4646.835 2824.389 4962.691 3178.116 5716.856 6656.072 6238.246 3117.865 1466.337 1739.457 3192.325 2822.935 0.000 4802.156 4419.885 3061.896 5810.068 5203.165 5159.689 4734.223 3331.263 5885.272 3616.966 3783.821 2483.539 5252.334 1475.702 2909.784 3224.615 5079.355 2605.382 4603.644 2797.441 1733.394 3358.534 1363.369 4391.054 4521.327 3412.241 7637.424 3424.288 2960.242 5325.816 4697.765 7049.356 5168.337 4566.558 5194.822 3216.677 3448.515 3049.658 1450.215 3981.760 4962.352 3412.995 4347.072 2426.523 4573.742 3871.462 8544.316 3164.566 3583.261 4671.747 2553.414 2899.993 3323.980 2523.333 4304.692 3604.928 4954.537 3211.149 2823.452
6844.180 3346.858 3529.035 2256.660 4773.526 4280.540 4619.652 1987.733 3803.644 2959.161 9322.393 4698.015 5945.825 4254.794 7310.531 7558.751 8792.446 3716.814 2950.648 2754.165 3200.746 9463.799 2709.889 8161.210 10194.703 3791.743 3373.201 6228.036 3569.223 5971.881 4029.302 6813.729 2855.980 577.723 567.567 2919.841 3437.280 5888.260 3744.840 2503.298 8922.165 3781.174 4308.594 5104.324 5198.296 5293.635 7868.228 2853.053 3220.100 2708.701 3615.564 1969.114 4113.071 8549.915 3926.774 4942.451 2463.131 4643.605 3995.645 4077.352 1331.665 5112.360 994.023 5997.017 4778.227 4830.710 1190.396 6683.032 3840.863 6558.947 5616.205 5732.765 8476.724 3660.636 2596.577 1235.477 3176.503 4787.132 7660.495 3036.964 2970.338 3375.879 5317.179 2690.762 4278.867 3222.042 6759.531 1260.335 2890.967 6370.525 3445.512 8396.131 3737.501 6040.445 4200.294 3230.905 4636.458 2204.831 4118.157 3926.617 4873.684 5841.010 5155.810 1902.291 3684.544 6006.151 2189.990 3714.817 4595.285 0.000 8504.275 7328.590 6947.281 2729.767 3905.822 4082.492 3373.516 5233.540 4069.846 7582.091 6708.694 4573.699 4620.817 2909.051 1529.455 1965.389 3935.213 8688.034 2808.841 3039.718 3854.760 4845.872 3154.673 2047.929 1339.764 6101.902 7690.983 2098.193 1332.172 5431.052 5725.385 3914.470 3031.036 2721.423 4203.025 3901.395 3019.533 5511.305 2769.508 968.708 5791.702 6745.904 2724.325 6295.112 3302.818 9895.706 3206.819 1786.226 8756.137 2546.678 6294.287 3894.751 4496.109 5431.607 2858.408 7780.001 3792.591 4051.810
2518.766 7627.910 7511.464 7695.222 4468.225 5291.519 8959.224 6846.839 6430.309 7274.511 9427.565 8170.889 3269.411 5823.193 2613.680 1807.328 764.418 6700.626 7242.604 7549.314 7220.974 5645.206 6482.456 7742.513 9320.030 6206.502 5782.962 10278.658 5540.751 7703.002 7551.985 1937.007 6778.350 8116.129 8452.907 7508.435 5795.362 5987.652 9144.162 8491.948 14013.809 4928.184 6220.964 7870.223 5653.096 3458.693 4504.918 7313.741 7362.867 6129.762 5520.438 6865.458 6298.539 521.886 6304.948 3932.862 6690.044 4402.266 7074.229 8119.309 8649.454 4154.107 8879.363 3540.327 7489.947 4605.403 7753.575 3108.523 4856.617 1941.033 10347.185 3439.464 6024.124 5817.482 6847.413 7730.871 5876.928 3798.411 2542.459 8169.332 7113.105 7047.794 4195.950 8878.329 6849.720 7503.094 3226.749 9005.101 8023.336 2458.441 6553.781 1579.541 5868.824 4245.349 6044.333 7898.146 7526.659 6636.447 8160.114 6057.940 8596.680 9853.495 9118.070 7145.913 5494.385 3329.738 7064.371 6088.195 4970.129 8693.852 0.000 2888.083 7822.528 8917.333 8591.722 7614.047 7045.431 8765.096 6814.389 2327.313 3145.260 8449.756 5272.737 6937.833 7252.664 8793.523 5300.697 1520.125 6825.489 5761.442 6555.956 3900.851 7485.351 8235.496 7440.290 11245.376 1874.894 6832.288 9076.938 7376.014 10246.778 8600.370 8438.604 8908.990 5911.992 6645.937 7077.707 4289.731 7695.928 8854.047 4112.367 4401.179 5959.670 5697.436 7492.071 9668.010 6878.734 7611.310 728.108 6581.462 3457.088 6521.402 5720.756 6457.365 7319.097 4353.243 6408.571 5518.766
2632.886 5284.068 5167.623 5351.380 4400.012 4952.215 6615.382 5240.365 4086.468 4930.670 9606.820 5827.048 1720.988 5409.744 391.875 3182.565 3165.969 4356.784 4898.763 5205.472 5614.501 7146.942 5316.174 7921.768 9727.489 3862.661 4176.489 7934.817 5017.545 5359.161 5208.143 3028.984 5171.876 6646.008 6881.154 5164.594 4188.889 6040.973 7701.936 6148.106 12879.261 3895.736 4112.883 5526.381 3174.948 2355.109 6006.653 4969.900 5019.025 4849.173 4283.523 5258.984 3954.697 2923.438 3961.106 3292.565 5523.762 3502.424 4730.388 5775.467 6305.612 2295.584 6536.943 3226.447 5146.106 2497.322 6303.104 891.009 3824.169 2995.161 8003.343 3371.251 7232.541 5359.233 5240.940 6234.158 4211.175 2605.863 691.081 5825.490 4769.263 4703.953 2087.869 6534.488 4505.878 5159.252 748.601 6661.260 5679.494 2806.739 4209.939 3623.163 5410.575 1767.201 3700.492 5554.305 7068.410 5245.964 5816.272 5599.691 8138.431 7509.653 8659.821 5539.440 3887.912 1618.353 5613.899 3744.353 3013.836 7223.731 2877.798 0.000 7772.784 6573.492 6247.881 7155.798 4701.590 8306.846 4470.547 3702.550 667.112 6105.915 3164.656 5331.359 5646.190 6449.682 4887.248 3334.975 5219.015 4154.969 4212.115 3586.971 6812.628 5891.654 5833.816 10058.998 1119.564 5381.817 6733.096 6979.631 7902.937 6256.528 6988.132 6565.149 5498.543 4302.096 5471.233 2181.650 5352.087 6511.628 4665.714 5247.514 4848.098 5876.691 5148.229 9847.265 4534.893 6004.836 3129.660 4974.989 3843.920 4177.561 3376.914 6389.152 4975.255 5854.979 4064.730 5105.317
6637.837 8709.721 8704.717 8275.985 3385.522 3857.386 10569.846 6208.795 8158.809 8262.763 2375.113 9866.271 6601.929 3003.769 7915.173 6793.286 8145.263 8071.979 8230.855 8177.402 6906.019 7353.656 5379.217 1213.929 3293.233 7308.059 5864.839 11889.281 4137.409 9976.586 9162.607 6376.616 6463.394 6367.353 6704.131 8496.686 5928.918 1843.772 5344.439 8522.623 7582.533 4748.742 7113.788 9654.535 7462.670 5623.785 5758.084 8301.993 8444.678 5575.208 5345.181 6199.861 8201.428 7902.732 8281.939 4887.242 5380.806 5083.403 8562.320 9729.931 7468.229 6162.708 7130.586 5397.502 9274.259 6291.282 5865.200 7287.674 4763.767 6054.828 11635.530 4386.536 5618.265 3601.886 6467.554 6202.540 5668.141 5785.168 8265.137 8460.200 8194.916 8036.046 6777.751 8710.087 8634.032 8584.905 7436.364 7396.898 8314.204 5780.207 7695.681 7519.409 3678.750 7817.148 8275.913 8886.397 2793.476 5792.132 9770.736 3639.452 3931.130 11464.117 4452.520 5830.675 5897.775 6662.256 5717.675 7525.355 5949.885 6945.075 7857.092 7933.233 0.000 8749.092 9862.109 3172.473 8033.683 3426.589 8425.011 6695.036 7354.875 10060.379 6318.820 6622.877 6215.142 7984.714 3526.265 7811.312 6486.881 5531.356 8209.925 4423.849 5408.801 8067.254 6134.111 7445.653 8295.625 5611.848 7468.735 1697.673 11744.709 9870.756 6525.163 8740.748 3018.034 8256.560 6762.751 6971.877 8192.745 7105.271 3892.507 4763.704 5343.277 2250.624 8573.882 2948.425 7866.986 6477.853 8108.954 6201.603 4760.455 8249.916 7372.988 2007.631 8307.348 5797.801 8147.755 3856.275
7396.947 1838.301 1792.618 1496.040 6587.419 6094.432 2985.428 3639.431 2875.720 2198.541 11136.285 2904.795 6485.049 6068.686 6585.150 8467.393 9333.273 2832.753 2190.028 2047.326 4492.976 10844.164 4523.781 9975.102 12008.595 3031.123 4535.072 4599.613 5383.116 4409.498 2236.082 7722.371 4140.101 2391.615 2343.327 1977.130 4381.478 7702.152 5545.347 710.078 10548.299 5391.913 3547.974 3367.908 4818.940 6202.277 9682.120 2092.433 2000.032 4285.748 4936.723 3658.050 3352.451 9090.742 3014.885 5998.853 4277.023 5575.448 2259.228 2284.131 1767.785 5514.235 1999.116 7101.341 3041.810 4828.119 3004.288 6303.515 5362.502 7467.589 3858.053 6967.508 10290.616 5474.528 3888.808 3049.369 4338.374 5695.774 6935.115 2330.124 2046.087 2615.259 5012.377 120.228 2901.905 1713.485 5998.911 2123.433 2184.128 7279.167 2664.605 9304.772 5551.393 5279.825 3439.674 2054.687 6450.351 4018.724 2324.936 5740.509 6674.191 4184.217 6956.317 3716.183 5005.703 6545.375 4003.882 2954.197 5532.501 2739.643 9045.102 6603.210 8761.173 0.000 2112.602 5896.384 2612.896 7047.432 2505.444 8776.853 5948.074 2780.479 4933.853 4201.282 3343.347 1911.855 5749.105 9350.290 4101.071 4314.650 2863.696 6016.653 4968.566 1069.576 3153.656 6756.805 7312.839 3912.086 2195.270 7244.945 4096.962 2121.249 4223.345 150.889 6016.917 2673.895 4311.764 4825.847 2062.669 1973.801 7605.595 8559.797 4538.217 8109.004 1794.262 11709.598 2446.199 3600.118 9296.964 3838.909 7538.067 2872.527 3735.489 7245.499 2097.788 9552.201 2908.529 5865.702
7087.568 1591.178 1312.038 2635.899 6792.873 6717.546 1401.322 4542.821 2184.790 1902.015 12295.122 1643.118 6175.670 7175.075 6184.124 8295.669 8932.247 2361.866 1935.550 2618.724 5396.366 10672.440 5651.842 10974.397 12780.118 2859.399 5438.462 3015.507 6470.794 3634.348 1134.063 7483.666 5043.491 3550.451 3502.163 1730.007 5284.867 8630.577 6313.294 1478.025 11316.246 5348.986 3376.250 2475.897 4664.255 6030.553 9532.151 1920.472 1697.676 5189.138 5746.158 4561.440 2767.286 8689.715 2255.820 5827.129 5435.859 5403.724 1500.163 1022.455 2926.621 5337.190 3157.952 6929.617 2149.800 4656.395 4163.125 5902.489 5277.418 7295.865 1883.582 6795.784 10674.575 6633.364 4792.198 4208.205 5241.764 5524.050 6534.088 3233.514 1669.887 2638.355 4611.351 1979.853 2126.755 1466.362 5597.885 3282.269 3087.517 7107.443 2288.406 9133.049 6710.229 4878.798 2868.954 1807.564 7609.187 5177.560 770.996 6899.345 7442.138 2622.681 7724.264 4875.019 5341.161 6235.997 5162.718 2782.473 5360.777 3898.479 8644.075 6202.183 9920.009 2100.081 0.000 7055.220 2635.992 8153.708 1746.378 8605.129 5547.048 1253.057 4762.129 5104.672 4502.184 3167.068 6652.579 8949.263 5004.461 5218.040 2104.630 5844.929 6127.402 2124.956 4312.492 7524.752 6911.812 5070.922 3354.106 8403.781 2512.856 78.406 4991.292 2010.514 7175.753 1914.830 5215.154 4424.821 2765.338 3132.637 7768.573 8773.012 5517.566 8902.105 1547.139 12868.434 2469.295 4758.954 8895.937 4742.299 7366.343 2113.462 3563.765 8351.888 1919.345 9380.477 2293.775 6870.648
6343.775 6380.209 6562.385 5290.011 3463.779 2970.793 7653.002 3222.820 6836.994 5992.511 5349.085 7731.365 6039.453 2054.784 7404.159 6786.765 8138.742 6750.165 5983.999 5343.753 4266.363 7979.514 3194.506 4384.666 6318.873 6103.865 4203.648 9261.386 2402.478 8757.545 7062.653 6203.119 3921.597 3381.378 3718.156 5953.191 4267.727 2991.414 2283.902 5536.649 6399.761 3482.774 5909.595 8137.675 6196.702 5061.309 6383.942 5886.403 6253.451 3470.939 4079.213 3213.887 6997.234 7896.211 6960.124 4365.207 3179.574 4250.132 7028.995 7110.702 4482.255 5353.891 4144.612 5103.440 7811.577 5072.241 2879.225 6776.660 3497.799 5909.826 8649.556 4482.553 6992.439 1960.730 3662.195 3216.566 4006.950 5028.663 7754.124 5626.551 6003.689 6409.230 5558.709 5724.113 7312.217 6255.392 6925.351 4410.924 5480.555 5486.145 6478.863 7512.888 2037.595 6598.106 7071.719 6264.256 695.656 2995.952 7151.507 2010.778 982.633 8874.361 1504.023 2844.701 4514.991 6099.780 2981.110 6321.161 4836.816 3959.101 7850.571 7422.219 3170.737 5763.117 6939.173 0.000 6406.867 1151.048 7103.197 6688.515 6843.861 7607.050 5052.851 3974.669 3229.168 4998.739 2476.345 7804.791 3874.458 3870.165 6888.111 4129.787 2422.826 5081.279 3148.137 4385.116 7784.611 2889.314 4482.761 2067.554 8758.735 6947.820 3464.625 5754.774 2036.877 6934.745 4085.151 5752.836 5359.096 4119.297 4307.417 5261.619 3158.565 3398.266 6336.169 5957.793 6240.170 3491.879 8102.433 3612.296 4984.540 6928.102 6168.795 2534.761 5891.759 6295.716 6825.941 2843.535
5472.002 1500.114 1621.709 1337.742 5039.652 4964.325 3444.784 3244.664 1118.078 917.031 10754.238 2825.541 4560.103 5421.854 4660.205 6542.447 7408.328 1031.249 885.124 1191.834 4098.209 8919.219 4353.684 9221.176 11026.897 1106.178 3876.517 4848.551 4717.573 3286.316 2121.877 5797.426 3745.333 2915.803 2867.515 1150.955 3888.917 6877.356 6082.920 2364.152 11260.245 3595.764 1623.029 2613.805 3140.336 4277.332 7778.930 956.261 1235.071 3890.981 3992.937 3263.282 1427.506 7165.796 1241.208 4073.908 4492.475 3650.502 1521.590 2689.201 2291.973 3589.290 2523.304 5176.396 2233.529 2903.174 3528.477 4378.570 3524.197 5542.644 4466.326 5042.563 8921.354 5059.261 3494.041 3573.557 3920.589 3770.829 5010.169 1811.852 985.309 16.197 3087.432 2520.849 1593.302 1375.298 4073.966 2647.621 1665.855 5354.222 759.947 7379.827 5110.603 3354.879 1514.729 1540.666 6768.438 4234.175 2730.006 5299.719 7211.765 4423.387 7493.891 3830.397 3587.940 4620.430 4219.333 1029.252 3607.556 3263.831 7120.157 4678.264 8379.125 2559.853 2652.502 6420.572 0.000 7571.620 1384.281 6851.907 4023.129 3019.649 3008.908 3806.514 3705.006 2436.043 4899.358 7425.344 3706.304 3854.997 1169.195 4091.708 5492.754 1878.015 3677.844 8191.913 5387.894 4127.537 2719.458 6991.741 4556.318 2661.149 5369.117 2551.510 5510.653 1215.830 3916.997 2900.902 1338.448 2497.989 6015.352 7019.791 4219.409 7148.884 1364.275 11146.673 166.697 4063.652 7372.018 3444.141 5613.122 1209.186 1810.544 6598.667 961.617 7627.256 1107.025 5117.427
7507.420 7543.853 7726.030 6453.656 4627.424 4134.438 8816.647 4386.465 8000.639 7156.156 5295.436 8895.010 7203.098 3218.429 8567.804 7950.410 9302.387 7913.809 7147.643 6507.398 5430.008 9103.881 4358.151 4521.791 6265.224 7267.510 5367.293 10425.031 3566.123 9921.190 8226.298 7366.764 5085.242 4545.023 4881.801 7116.836 5431.372 3466.054 2135.603 6700.294 5677.040 4646.419 7073.239 9301.320 7360.347 6224.954 7508.310 7050.048 7417.096 4634.584 5242.858 4377.532 8160.879 9059.855 8123.769 5528.852 4343.219 5413.777 8192.640 8274.347 5645.899 6517.536 5308.257 6267.085 8975.222 6235.886 4042.870 7940.305 4661.444 7073.470 9813.201 5646.198 7618.172 3124.375 4825.840 4380.211 5170.595 6192.308 8917.769 6790.196 7167.334 7572.875 6722.354 6887.758 8475.862 7419.037 8088.996 5574.569 6644.200 6649.790 7642.507 8676.533 3201.239 7761.751 8235.364 7427.901 1635.325 4159.597 8315.152 3174.423 722.293 10038.006 1243.684 4008.346 5678.636 7263.425 4144.755 7484.806 6000.460 5122.746 9014.216 8585.864 3442.865 6926.762 8102.817 1163.645 7570.512 0.000 8266.842 7852.160 8007.506 8770.694 6216.496 5138.314 4392.813 6162.384 3639.990 8968.436 5038.103 5033.810 8051.756 5293.432 3586.471 6244.924 4311.782 4236.817 8948.256 4052.959 5646.406 2478.247 9922.380 8111.465 3316.327 6918.419 3200.522 8098.390 5248.796 6916.481 6522.741 5282.942 5471.062 6385.986 4322.210 3872.906 7499.814 5904.144 7403.815 4655.524 9266.077 4775.940 6148.185 8091.747 7332.439 3573.927 7055.404 7420.083 7989.586 4007.180
5341.190 1235.199 726.451 2145.197 5331.348 5256.021 2144.835 4052.119 547.319 1533.590 11045.934 1441.260 4429.291 5713.550 4437.745 6694.256 7185.869 770.123 1567.125 1999.289 4815.335 9210.915 5161.140 9512.872 11318.593 1397.874 4168.213 3464.270 5009.269 2202.042 737.596 5737.288 4372.711 3723.258 3674.970 1374.028 4180.613 7169.052 6680.294 1845.025 11683.246 3887.460 1914.725 1453.493 2917.877 4429.141 8070.626 1564.493 1329.250 4698.436 4284.633 4070.738 1020.907 6943.337 509.441 4365.604 5299.930 3942.198 259.841 1304.920 3099.429 3590.811 3330.760 5328.205 1031.994 3041.034 4335.932 4156.110 3815.893 5694.453 3532.796 5334.259 9213.050 5350.957 4301.496 4381.013 4212.285 3922.638 4787.710 2619.307 1301.462 1497.769 2864.972 2346.853 545.923 1110.383 3851.506 3455.076 2473.311 5506.031 826.880 7416.833 5402.299 3132.420 1122.576 1451.585 7060.134 5041.630 1345.725 5591.415 7809.138 3039.106 8091.264 4637.853 3879.636 4489.618 5026.789 1320.948 3873.326 4071.286 6897.697 4455.805 8670.821 2467.082 1777.333 7147.522 1495.406 8298.571 0.000 7003.717 3800.669 1635.368 3300.604 4532.194 4512.462 3243.498 5191.054 7202.885 4419.850 4146.693 358.252 4383.404 6300.209 2491.957 4485.300 7891.752 5165.434 4934.992 3526.913 7283.437 3432.390 1785.981 5358.292 2377.515 5802.349 168.451 4672.068 2678.442 2145.903 3305.444 6307.048 7311.487 4839.822 7440.580 1191.160 11438.369 1328.709 4871.108 7149.559 4251.596 5904.818 367.084 1913.668 6890.363 1563.366 7918.952 643.624 5409.123
2092.394 7359.084 7354.080 7332.836 3316.735 4140.029 9149.680 5896.746 6620.766 6912.125 8247.661 8361.346 2843.039 4671.703 3600.932 519.985 2194.952 6721.342 6880.218 7186.928 6273.727 5045.701 5330.966 6562.609 8368.330 5957.422 4835.715 10469.115 4389.261 7893.459 7742.441 1402.301 5831.102 6991.341 7328.120 7146.049 4848.115 4807.748 7992.671 8223.122 12862.318 3803.396 5763.151 8060.680 5952.217 2852.674 3905.413 6951.355 7094.041 5004.975 4395.650 5915.365 6488.995 1964.739 6495.404 2947.395 5538.554 3571.296 7211.683 8309.765 8092.218 3499.463 7754.575 2647.263 7680.404 4208.155 6628.787 3733.581 3731.829 1338.038 10325.296 2287.974 5206.302 4665.992 5897.320 6606.084 4929.681 3121.923 3529.710 7806.946 6844.279 6685.408 4173.309 8515.943 7040.177 7234.268 3882.271 8020.887 7660.950 1685.513 6345.044 980.036 4717.334 5002.990 6234.790 7535.760 6375.169 5511.659 8350.570 4906.450 7445.190 10043.951 7966.580 6032.971 4547.138 2903.366 5939.583 6174.718 4252.869 7569.064 2254.399 3875.335 6642.624 8554.948 8511.472 6462.557 6683.045 7613.605 7004.845 0.000 3800.782 8640.213 4863.581 5990.585 6302.571 8326.289 4149.207 1271.939 5878.242 4814.195 6746.413 2759.967 6333.860 7873.110 6378.104 10093.885 2862.146 5707.500 8092.724 6224.524 10415.288 8520.119 7313.816 8546.604 4760.502 6836.394 6130.459 4384.193 7333.542 7729.260 2932.463 3221.275 4834.883 4517.532 7223.245 8488.106 6516.348 6661.217 2077.790 5631.369 2277.184 6711.859 5911.212 5305.875 6956.711 3753.738 6599.028 4367.276
2154.525 4616.957 4500.511 4684.269 3921.650 4473.854 5948.271 4642.349 3419.356 4263.558 9128.459 5159.936 1242.627 4931.383 694.283 3232.773 3442.406 3689.673 4231.651 4538.361 5016.484 6668.581 4718.158 7443.407 9249.128 3195.549 3578.472 7267.705 4419.529 4692.049 4541.031 2550.623 4573.860 6047.992 6214.042 4497.482 3590.872 5562.612 7103.920 5480.995 12281.245 3297.720 3514.867 4859.270 2558.978 1876.748 5528.292 4302.788 4351.913 4251.157 3685.506 4660.968 3287.586 3199.874 3293.994 2814.204 4925.746 3024.063 4063.276 5108.355 5638.500 1697.568 5869.831 2748.085 4478.994 1899.305 5705.087 412.647 3226.153 2516.800 7336.232 2892.889 6754.179 4761.217 4642.923 5636.142 3613.158 2029.395 1044.247 5158.379 4102.151 4036.841 1489.853 5867.376 3838.767 4492.141 81.489 5994.148 5012.382 2328.378 3542.827 3673.371 4812.558 1242.357 3033.380 4887.193 6470.393 4647.947 5149.160 5001.674 7540.414 6842.542 8061.805 4941.424 3289.896 1139.992 5015.883 3077.241 2415.820 6610.358 3154.234 712.342 7294.423 5906.380 5580.769 6557.782 4034.478 7708.830 3803.436 3752.758 0.000 5438.803 2566.640 4733.343 5048.174 5782.570 4408.887 3459.422 4620.999 3556.952 3545.003 3108.610 6214.612 5224.542 5235.800 9460.982 1421.971 4783.801 6065.985 6501.269 7235.825 5589.417 6390.116 5898.037 5020.181 3634.984 4873.217 1583.634 4684.975 5844.516 4187.353 4769.153 4250.082 5398.330 4481.118 9368.904 3867.781 5406.820 3406.096 4376.972 3365.558 3510.449 2709.803 5910.790 4308.143 5376.618 3397.618 4626.956
6956.743 2007.279 1537.405 3039.553 6946.901 6871.574 557.681 4946.475 2162.871 2305.669 12661.486 870.801 6044.844 7329.103 6053.298 8309.809 8801.421 2385.675 2339.204 3022.378 5800.020 10826.467 6055.496 11128.425 12934.146 3013.426 5783.766 2129.545 6624.822 3405.965 907.347 7352.841 5447.145 4214.553 4166.265 2146.107 5688.521 8784.605 6977.396 2142.127 11980.348 5503.013 3530.277 1821.931 4533.429 6044.693 9686.179 2336.573 2101.330 5592.792 5900.186 4965.094 2636.460 8558.890 2124.994 5981.157 6099.962 5557.751 1651.297 787.951 3590.724 5206.364 3822.055 6943.757 1629.816 4656.587 4827.227 5771.663 5431.446 7310.006 2217.940 6949.812 10828.603 6966.510 5195.852 4872.308 5645.418 5538.191 6403.262 3637.168 2073.541 3042.009 4480.525 2643.955 1898.373 1882.463 5467.059 3946.371 3491.172 7121.584 2442.433 9032.386 7017.852 4747.973 2738.128 2223.664 8273.289 5841.662 648.945 7206.968 8106.240 1704.381 8388.366 5532.209 5495.189 6105.171 5826.820 2936.501 5488.878 4562.581 8513.250 6071.358 10286.374 2764.184 1288.520 7719.322 3039.646 8817.810 1615.553 8619.269 5416.222 0.000 4916.157 5508.326 5166.286 3831.171 6806.607 8818.437 5408.115 5621.694 1973.805 5998.957 6791.504 2789.059 4976.595 8188.854 6780.987 5735.024 4018.208 8898.989 2117.533 1297.168 5655.394 2674.616 7417.901 1784.004 5618.808 4293.995 3168.992 3796.740 7922.600 8927.039 5921.220 9056.133 1963.239 13053.922 2872.949 5423.057 8765.112 5145.953 7520.371 1982.636 3529.221 8505.916 2335.446 9534.504 2259.177 7024.676
3486.203 3445.824 3440.819 3419.576 3183.869 3070.698 5305.949 2750.186 2894.911 2998.865 8860.610 4602.374 2574.305 3528.227 3640.957 4556.649 5790.344 2808.082 2966.958 3273.668 2965.033 7063.436 2825.995 7365.393 9171.114 2044.162 1588.080 6625.383 2751.604 4231.890 3898.710 3811.627 2522.409 4155.829 4492.607 3232.789 1600.480 4983.729 5211.756 4309.861 10389.081 1629.796 1849.891 4390.637 2438.970 2291.533 5923.147 3038.095 3180.780 2358.993 1570.986 2768.804 2827.427 5547.813 2833.835 2218.125 3033.582 1794.720 3298.423 4466.034 4373.807 1603.491 4605.138 3190.597 4010.362 672.442 3812.924 3311.512 1558.228 3556.845 6412.035 3186.780 7065.571 3093.293 2750.760 3743.979 1498.638 1785.030 3990.921 3893.686 2931.018 2772.148 1249.894 4602.683 3370.134 3321.008 3054.718 4729.455 3747.689 3368.423 2431.783 5394.029 3144.634 2369.643 2573.221 3622.500 4802.469 2755.784 4506.839 3333.750 5872.490 6200.220 6393.881 3049.260 1732.157 2634.631 3123.720 2261.457 1629.538 4733.551 5502.173 3659.017 6485.498 4641.687 4598.211 4889.858 2769.785 6040.906 3161.114 4866.109 3003.881 4796.481 0.000 2681.892 3156.010 4424.035 3005.731 5685.932 2569.548 1618.562 2946.028 2235.925 4322.449 3959.849 3343.636 7568.819 4319.463 2891.637 4801.292 5098.114 6502.028 4606.859 4497.953 4633.344 3610.158 2992.662 2821.765 1328.981 3420.282 4579.823 4159.569 5164.008 2330.746 5255.257 3309.985 9290.890 2603.088 3514.656 5754.035 2439.565 3757.339 2986.019 2109.091 4705.040 3043.451 5771.473 2883.858 3223.800
5019.711 2788.474 2970.651 1934.745 3633.088 3286.521 4793.726 891.839 3245.259 2400.777 9057.808 4380.660 4121.355 3675.414 5486.061 5734.281 6967.977 3158.430 2392.264 1685.813 414.430 8087.852 1594.472 7660.362 9466.084 3100.684 1389.444 6309.625 2643.343 5413.497 3582.952 4989.259 158.628 2370.225 2707.003 2361.457 1235.849 5199.552 3740.629 3053.526 8917.954 2246.285 2906.413 4545.940 2859.884 3469.166 6901.946 2294.669 2661.716 1131.769 1791.095 910.457 3554.687 6725.445 3368.390 3242.541 1802.060 2819.136 3437.260 4092.430 2500.990 3287.891 2732.321 4368.230 4219.842 2948.701 2141.442 4858.563 2313.013 4734.478 5815.267 4211.196 7510.442 3081.256 226.436 1940.150 1192.746 2962.663 5836.026 1968.612 2411.954 2817.495 3492.709 3117.853 3720.483 2663.658 5007.253 2856.638 1822.615 4546.056 2887.128 6571.661 3158.121 4532.106 3641.910 2672.521 4473.393 1524.262 4133.235 3347.237 4869.473 5884.462 5151.599 1263.656 1860.075 4181.682 1652.592 3156.433 2770.815 2947.948 6679.805 5504.121 6682.695 3156.857 4001.443 3919.426 2815.132 5070.474 3511.462 6025.331 4925.764 4480.723 2637.059 0.000 1352.181 2466.993 3221.554 6863.564 155.815 1169.022 3296.376 3260.341 2991.608 2475.019 1539.807 6097.691 5866.513 1560.796 2928.474 5231.138 5905.260 4010.091 3026.825 3148.514 3623.645 3343.011 233.218 3686.835 1701.156 2707.006 4825.421 5779.623 1460.196 5471.080 2744.434 9585.860 2648.435 1710.827 6931.667 428.859 4781.755 3336.367 2763.185 4852.227 2300.024 6795.889 3234.206 3359.097
5316.790 3683.936 3866.112 2830.207 3905.883 3348.040 5341.042 460.343 4140.721 3296.238 8582.771 5276.122 4418.435 3515.171 5783.141 6031.361 7265.056 4053.892 3287.726 2581.275 1673.356 8384.932 1595.935 7421.587 9455.080 3996.146 1845.811 6949.426 2606.697 6308.959 4478.413 5286.339 1328.590 1069.418 1406.196 3256.918 1909.890 5148.638 3102.028 3224.689 8279.353 2519.079 3801.875 5441.402 3755.346 3766.245 7128.605 3190.131 3557.178 1321.538 2088.174 441.724 4450.149 7022.525 4263.851 3539.621 1349.177 3116.215 4332.722 4798.742 2170.294 3584.970 1832.651 4665.309 5115.304 3303.320 853.935 5155.642 2585.808 5031.557 6337.595 4508.276 7737.101 2921.014 1069.188 613.479 1649.113 3259.742 6133.105 2864.074 3307.416 3712.957 3789.789 3412.152 4615.944 3559.119 5304.332 2098.964 2718.077 4843.135 3782.590 6868.741 2997.878 4829.186 4537.371 3567.983 3896.836 1090.877 4839.547 3186.994 4230.873 6562.400 4512.999 705.153 2157.154 4478.761 1076.036 4051.895 3067.895 1647.140 6976.885 5801.200 6207.658 3451.157 4627.212 3342.869 3710.594 4493.917 4406.924 6322.410 5222.843 5295.089 3093.427 1381.661 0.000 2686.779 3195.591 7160.644 1281.451 1512.328 4191.838 3557.421 2415.051 2769.319 213.136 5459.091 6163.593 984.239 2170.800 4691.430 6446.775 4635.860 2388.225 3442.814 3463.402 4238.472 1492.144 3983.915 2596.618 1807.336 5052.080 6006.282 1610.371 5555.489 3639.896 9156.083 3543.897 512.030 7228.747 1019.288 5078.835 4231.829 3658.646 4691.985 3195.486 7040.378 4129.668 3312.187
7290.950 2480.241 2662.418 1390.043 5759.918 5266.931 4035.168 2949.767 2937.027 2092.544 10308.784 3954.535 6379.052 5241.185 6479.153 8190.245 9227.276 2850.197 2084.031 1685.144 3803.312 10450.190 3696.280 9147.601 11181.094 2925.126 3845.407 5649.353 4555.614 5105.264 3274.719 7445.223 3450.436 1564.114 1515.826 2053.224 3691.813 6874.651 4731.231 1759.819 9908.556 4702.248 3441.977 4237.707 4129.275 5925.129 8854.619 1986.436 2353.483 3596.084 4247.058 2955.505 3246.454 8984.745 3060.157 5674.579 3449.522 5275.099 3129.028 3333.872 940.284 5408.238 1171.615 6824.193 3911.610 4677.038 2176.787 6197.518 4672.837 7190.441 4907.793 6599.931 9463.115 4647.027 3199.143 2221.868 3648.709 5418.626 6829.118 1967.942 2103.721 2509.262 4906.380 1824.145 3412.250 2355.425 5892.914 1295.932 1821.946 7002.019 2578.895 9027.625 4723.892 5173.828 3333.677 2364.288 5622.850 3191.222 3374.677 4913.008 5860.076 5233.957 6142.201 2888.682 4316.038 6439.378 3176.381 2848.200 5226.779 1912.141 8939.105 6497.213 7933.672 1863.150 3162.342 5068.883 2506.899 6219.931 3203.229 8414.065 5842.077 3830.219 4365.397 3511.617 2515.846 0.000 4921.604 9244.293 3411.407 3624.986 2988.143 5677.846 4141.064 1181.312 2326.155 6840.224 7206.842 3084.585 1367.768 6417.444 5146.702 3170.990 4017.428 1854.806 5189.416 3034.778 3622.099 4719.850 1700.487 1146.300 6778.093 7732.295 3710.716 7281.503 2436.201 10882.097 2340.202 2772.617 9190.967 3149.244 7170.490 3028.134 3629.492 6417.998 1991.791 8766.392 2925.974 5038.201
3867.430 5400.105 5395.101 5099.111 987.434 494.448 7260.230 3139.756 4849.193 4953.147 5904.890 6556.656 3563.108 522.496 4927.814 4310.420 5662.397 4762.363 4921.240 4850.179 3578.796 5677.707 2049.454 4656.684 6462.405 3998.443 2537.616 8579.665 648.325 6666.971 5852.991 3726.774 3136.171 3416.690 3753.469 5187.071 2601.696 2155.962 3961.267 5571.961 8830.914 1439.126 3804.173 6344.919 4153.054 2584.964 4082.135 4992.377 5135.062 2247.985 2035.566 3158.375 4891.812 5419.865 4972.323 1888.862 2110.506 1773.787 5252.704 6420.315 4517.567 2943.270 4179.924 2627.095 5964.643 2981.667 2914.537 4300.315 1454.151 3433.480 8366.317 2006.208 4690.632 634.588 3140.331 3251.878 2340.919 2565.730 5277.779 5132.978 4885.300 4726.430 3468.135 5759.425 5324.416 5275.289 4449.006 4446.236 4986.981 3009.800 4386.065 5036.543 685.930 4507.532 4966.297 5576.782 2343.765 2462.369 6461.120 875.046 3413.786 8154.501 3935.176 2812.328 2588.159 3623.435 2447.374 4215.739 2640.269 3994.413 5374.226 4945.874 3529.778 5798.429 6552.493 2431.153 4724.067 3582.201 5115.395 4212.170 4367.516 6750.763 3009.204 3295.654 3238.492 5034.051 0.000 5328.446 3159.658 2204.134 4900.309 1653.442 2458.139 5116.592 3157.461 6062.481 5308.266 2341.548 4518.073 2092.383 8456.310 6561.141 3599.566 5790.086 611.295 4946.944 3435.528 3662.261 4865.522 4154.609 2005.610 2959.812 2013.514 2562.814 5264.266 6478.203 4557.370 3501.203 5626.087 2874.380 2508.195 4940.301 4063.373 1699.309 4997.732 3993.908 4838.140 367.190
2997.082 8240.354 8123.908 8307.666 4485.064 5308.359 9571.668 7065.075 7042.753 7886.955 9415.356 8783.333 3747.728 5840.033 3226.124 1314.730 1105.651 7313.070 7855.048 8161.758 7442.056 4622.261 6499.296 7730.939 8297.085 6818.946 6004.044 10891.102 5557.590 8315.446 8164.429 2306.990 6999.432 8159.671 8496.449 8120.879 6016.444 5976.078 9161.001 9104.392 14030.648 4971.726 6786.022 8482.667 6265.540 3760.387 3481.973 7926.185 7975.311 6173.304 5563.979 7083.694 6910.983 875.438 6917.392 4115.725 6706.883 4703.961 7686.674 8731.753 9260.547 4477.645 8922.904 3815.592 8102.391 5194.929 7797.117 3720.967 4900.159 2242.727 10959.629 3456.303 5001.179 5834.322 7065.650 7774.413 6098.010 4100.105 3154.903 8781.776 7725.549 7660.238 4808.394 9490.773 7462.164 8115.538 3839.193 9189.217 8635.780 2760.136 7166.225 556.596 5885.663 4857.794 6656.777 8510.590 7543.498 6679.989 8772.558 6074.779 8613.519 10465.939 9134.910 7201.300 5715.467 3808.054 7107.912 6700.639 5271.824 8737.393 1165.097 3500.527 7810.954 9529.777 9204.166 7630.887 7657.875 8781.935 7426.833 1323.992 3757.704 9062.200 5850.355 7158.915 7470.900 9405.967 5317.537 0.000 7046.571 5982.524 7168.400 3928.297 7502.190 8847.940 7546.434 11262.215 2487.338 6875.830 9261.053 7392.853 10859.223 9212.814 8482.145 9521.434 5928.831 7258.381 7298.788 4902.175 8308.372 8897.589 4100.793 4098.960 6003.212 5685.861 8104.515 9646.576 7491.178 7829.546 988.489 6799.699 3445.514 7133.846 6333.200 6474.204 7931.541 3330.298 7021.016 5535.606
4863.896 2851.800 3033.977 1998.071 3477.273 3130.706 4857.052 877.665 3308.585 2464.103 8920.618 4443.986 3965.540 3588.234 5330.246 5578.466 6812.162 3221.756 2455.590 1749.139 477.756 7932.037 1580.299 7504.547 9310.268 3164.010 1233.629 6372.951 2629.169 5476.823 3646.278 4833.444 47.139 2356.052 2692.830 2424.783 1080.034 5043.736 3726.456 3116.852 8903.781 2090.469 2969.739 4609.266 2923.210 3313.350 6746.131 2357.995 2725.042 1117.595 1635.280 896.284 3618.013 6569.630 3431.716 3086.726 1787.887 2663.321 3500.586 4155.756 2564.316 3132.075 2795.647 4212.414 4283.168 2792.886 2127.268 4702.747 2157.198 4578.663 5878.594 4055.381 7354.627 3067.083 345.738 1925.976 1036.931 2806.847 5680.211 2031.938 2475.280 2880.821 3336.894 3181.179 3783.809 2726.984 4851.438 2919.964 1885.941 4390.240 2950.454 6415.846 3143.947 4376.291 3705.236 2735.847 4459.220 1510.088 4196.561 3333.063 4855.300 5947.788 5137.426 1249.483 1704.260 4025.867 1638.419 3219.759 2615.000 2933.774 6523.990 5348.306 6545.506 3220.183 4064.769 3905.253 2878.458 5056.301 3574.788 5869.515 4769.948 4544.049 2481.244 156.670 1338.008 2530.319 3065.738 6707.749 0.000 1013.207 3359.702 3104.526 2977.435 2538.345 1525.634 6083.518 5710.698 1546.623 2991.800 5158.121 5968.586 4073.417 3012.652 3211.840 3609.471 3406.337 296.544 3531.020 1764.482 2770.332 4669.605 5623.807 1323.836 5315.264 2807.760 9430.044 2711.761 1696.654 6775.852 285.278 4625.940 3399.693 2826.511 4765.048 2363.350 6640.074 3297.532 3283.807
3850.689 3833.576 4015.752 2979.847 2534.337 2187.770 5838.828 1131.623 3719.592 3445.879 7977.683 5425.762 2952.333 2645.299 4317.039 4565.259 5798.955 3632.763 3437.366 2730.915 1459.532 6918.830 1207.432 6561.612 8367.333 2868.843 333.483 7354.727 1779.669 5522.523 4628.053 3820.237 1016.907 2537.266 2874.044 3406.559 397.562 4100.801 3593.194 4098.628 8770.519 1111.697 2674.572 5215.318 2696.015 2300.143 5778.541 3339.771 3706.818 740.431 622.073 1150.242 3762.211 5556.423 3842.722 2073.519 1415.020 1650.114 4123.104 5137.532 3546.092 2118.868 3300.500 3199.207 4835.043 1837.218 2194.362 3689.540 1183.264 3565.456 6860.369 3042.174 6411.692 2203.716 1132.198 2125.416 136.785 1793.640 4667.004 3013.714 3457.056 3596.829 2323.687 4162.954 4194.816 3708.760 3838.230 3566.812 2867.717 3377.033 3256.465 5402.639 2255.058 3363.084 3836.696 3717.623 3912.893 1137.222 5178.337 2444.174 4614.337 6929.564 5004.164 1430.698 691.053 3012.660 1505.157 3086.139 1601.793 3114.989 5510.783 4335.099 5602.570 4201.959 5046.545 3631.704 3594.466 4782.753 3985.795 4856.308 3756.741 5525.825 1581.098 1176.390 1537.448 3512.095 2122.803 5694.542 1064.047 0.000 3770.709 2091.319 2703.886 3520.121 1725.074 5950.256 4697.491 1273.075 3638.649 4215.186 6950.362 5055.193 2879.390 4193.615 2720.582 3817.343 1316.264 2517.813 2746.258 3275.185 3726.670 4680.872 739.356 4372.329 3789.536 8487.109 3427.769 1896.094 5762.645 866.247 3612.733 3810.700 2933.772 3822.112 3345.126 5626.867 3708.539 2340.872
5082.757 1593.451 1084.703 1907.206 5093.357 5018.030 2503.087 3814.128 229.036 1380.341 10807.943 1799.512 4170.859 5475.559 4179.313 6435.824 6927.436 532.132 1413.876 1761.298 4577.344 8972.924 4923.149 9274.881 11080.602 1159.883 3930.222 3822.522 4771.278 2260.287 1095.848 5478.855 4134.720 3485.267 3436.979 1627.398 3942.622 6931.061 6652.385 2203.277 11829.710 3649.470 1676.734 1587.776 2659.444 4170.708 7832.635 1432.704 1397.976 4460.445 4046.642 3832.747 762.475 6684.904 251.009 4127.613 5061.939 3704.208 618.093 1663.172 2861.438 3332.379 3092.769 5069.772 1207.500 2782.602 4097.941 3897.678 3577.902 5436.021 3891.048 5096.268 8975.059 5112.966 4063.505 4143.022 3974.294 3664.205 4529.277 2381.316 1148.214 1259.779 2606.540 2705.105 567.273 1468.635 3593.074 3217.085 2235.320 5247.598 588.889 7158.401 5164.308 2873.987 864.143 1809.837 6822.143 4803.639 1703.977 5353.424 7781.229 3397.358 8063.355 4399.862 3641.645 4231.186 4788.798 1082.957 3614.893 3833.295 6639.264 4197.372 8432.830 2825.334 2135.585 6909.531 1257.416 8060.580 358.252 6745.284 3542.237 1993.620 3062.613 4294.203 4274.471 3005.507 4953.063 6944.452 4181.859 3908.702 0.000 4145.413 6062.218 2447.480 4247.309 8250.004 4907.002 4697.002 3288.922 7045.446 3790.642 2144.233 5716.544 2735.767 5564.358 189.801 4434.077 2420.010 1907.913 3067.454 6069.057 7073.496 4601.831 7202.589 1527.180 11200.378 1090.719 4633.117 6891.126 4013.605 5666.827 108.651 1655.236 6652.372 1438.060 7680.961 338.022 5171.132
2435.459 4599.117 4594.112 4572.869 1073.926 1600.432 6459.242 3136.779 4048.204 4152.158 6821.811 5755.667 2178.080 2132.106 3542.786 2878.450 4230.427 3961.375 4120.251 4426.961 3513.759 4953.493 2650.376 5255.450 7061.171 3197.455 2075.748 7778.676 1849.664 5865.982 5052.003 2294.804 3071.135 4231.374 4568.152 4386.082 2088.148 2944.929 5267.652 5463.154 10322.721 1043.429 3003.184 5543.930 3670.765 1199.936 3813.204 4191.388 4334.073 2245.008 1635.683 3155.397 4090.823 3987.895 4171.334 463.393 2857.963 863.032 4451.716 5619.327 5332.250 1738.859 4994.608 1195.124 5163.655 2180.678 3868.820 2915.287 971.862 2001.510 7565.329 966.065 4955.628 2126.395 3137.353 3846.117 2169.714 1361.319 3892.751 5046.979 4084.311 3925.441 2412.705 5755.976 4523.427 4474.301 3063.978 5260.920 4900.982 1577.829 3585.076 3604.572 2177.737 3426.186 4165.308 4775.793 3835.572 2751.692 5660.132 2366.853 4905.593 7353.513 5426.983 3273.004 1787.171 2238.407 3179.616 3414.750 1729.515 4809.097 3942.255 3560.846 4446.698 5794.980 5751.504 3922.960 3923.078 5074.008 4314.407 2780.199 2982.488 5949.774 2322.682 3230.618 3542.603 5566.322 1609.610 3896.475 3118.274 2054.228 4099.321 0.000 3794.263 5113.142 3618.137 7554.288 3923.238 2947.533 5332.757 3701.993 7655.321 5760.152 4553.849 5786.637 2220.905 4145.955 3370.492 2623.589 4573.575 4969.293 2049.625 3054.065 2074.916 3210.372 4463.278 7180.947 3756.381 3901.249 4194.117 2871.402 1536.624 4139.312 3262.384 3063.066 4196.744 3661.530 4037.151 1827.679
6086.750 5453.260 5635.437 4363.062 3330.613 2837.626 6726.054 2295.872 5910.045 5065.563 7446.315 6804.417 5782.429 2811.880 7147.135 6529.741 7881.718 5823.216 5057.050 4416.804 3339.415 8020.885 2267.557 6285.131 8337.936 5759.907 3276.700 8334.438 2126.310 8078.283 6135.704 5946.095 2994.649 2454.430 2791.208 5026.243 3340.779 4031.493 3351.109 4609.700 8468.632 3138.815 5565.636 7210.726 5556.562 4804.285 6425.314 4959.455 5326.502 2543.990 3229.204 2286.938 6219.473 7639.186 6033.176 4108.182 2252.625 3993.108 6102.046 6183.754 3555.306 5009.933 3217.663 4846.416 6884.628 4728.283 1952.276 6519.636 3153.840 5652.801 7722.607 4349.387 7033.810 2217.722 2735.246 2289.617 3080.002 4684.705 7497.099 4699.603 5076.740 5482.281 5214.751 4797.164 6385.269 5328.444 6668.326 3483.975 4553.606 5229.120 5551.914 7255.864 2294.587 6254.148 6306.696 5337.307 2760.380 2069.003 6224.559 2483.703 3189.046 7947.412 3705.015 1917.752 3588.043 5842.755 2054.161 5821.219 4492.857 3032.152 7593.546 7165.195 5071.202 4836.169 6012.224 2206.413 5479.918 3357.461 6176.248 6431.490 6586.837 6680.101 4524.315 3047.720 2302.219 4071.790 2492.299 7547.767 2947.509 2943.217 5961.162 3872.763 0.000 4154.331 2221.188 5648.369 7527.587 1962.365 3555.812 3554.974 7831.786 6020.871 2637.305 4827.825 2760.111 6007.797 3158.202 5408.878 4432.147 3192.348 4348.789 5302.991 2231.617 4438.345 5409.220 8019.627 5313.221 2564.930 7845.408 2685.347 4851.374 6001.153 5459.862 3574.840 4964.810 6337.087 5898.992 2608.896
6690.162 1862.384 1816.701 789.255 5880.633 5387.647 3009.511 2932.646 2336.238 1491.756 10429.500 2928.878 5778.263 5361.901 5878.365 7760.607 8626.488 2249.409 1483.243 1340.540 3786.191 10137.379 3816.996 9268.317 11301.810 2324.337 3828.287 4623.696 4676.330 4433.581 2260.165 7015.585 3433.316 1684.830 1636.542 1452.435 3674.692 6995.367 4851.947 734.161 10029.272 4685.127 2841.189 3391.990 4112.154 5495.492 8975.335 1385.648 1752.695 3578.963 4229.938 2951.265 2645.666 8383.956 2459.368 5292.068 3570.238 4868.662 2283.311 2308.214 1061.000 4807.450 1292.331 6394.556 3065.893 4121.334 2297.503 5596.730 4655.717 6760.804 3882.136 6260.723 9583.831 4767.743 3182.023 2342.584 3631.589 4988.989 6228.329 1623.339 1502.933 1908.474 4305.592 953.546 2811.462 1737.568 5292.126 1416.648 1477.342 6572.382 1978.107 8597.987 4844.608 4573.039 2732.889 1763.500 5743.565 3311.938 2349.019 5033.724 5980.791 4208.300 6262.917 3009.398 4298.918 5838.590 3297.097 2247.412 4825.716 2032.857 8338.316 5896.424 8054.388 1073.774 2136.685 5189.598 1906.111 6340.647 2529.526 8070.067 5241.289 2804.562 4227.068 3494.497 2636.562 1205.070 5042.320 8643.504 3394.286 3607.865 2387.355 5309.868 4261.780 0.000 2446.871 6780.888 6606.054 3205.300 1488.484 6538.159 4121.045 2145.332 4138.143 984.207 5310.132 2433.989 3604.979 4119.062 1355.883 1267.016 6898.809 7853.011 3831.432 7402.219 1818.345 11002.813 1739.414 2893.333 8590.178 3132.123 6831.282 2427.346 3028.703 6538.714 1391.003 8845.416 2325.185 5158.917
5504.416 3855.112 4037.289 2764.914 3877.706 3277.192 5127.906 647.969 4311.897 3467.415 8511.923 5206.269 4606.061 3444.324 5970.767 6218.987 7452.683 4225.068 3458.902 2768.901 1860.982 8375.948 1525.087 7350.740 9384.233 4183.772 2033.437 6736.289 2535.849 6480.135 4537.556 5473.965 1516.216 856.281 1193.060 3428.095 2097.517 5077.790 3031.181 3011.552 8208.506 2596.373 3989.501 5612.578 3942.972 3953.871 7057.758 3361.307 3728.354 1509.164 2275.801 629.350 4621.325 7210.151 4435.027 3727.247 1278.329 3303.841 4503.898 4585.605 1957.158 3772.596 1619.515 4812.215 5286.480 3490.946 649.565 5343.268 2656.062 5219.183 6124.459 4547.964 7666.254 2850.166 1256.814 400.342 1836.740 3447.368 6320.731 3051.700 3478.592 3884.133 3977.415 3199.016 4787.121 3730.296 5491.958 1885.827 2905.703 5030.761 3953.766 7056.367 2927.031 5016.812 4708.548 3739.159 3825.989 1020.030 4626.410 3116.147 4160.025 6349.264 4442.151 717.489 2344.781 4666.387 1005.188 4223.071 3255.521 1434.004 7164.511 5988.827 6136.811 3238.020 4414.076 3272.022 3881.770 4423.070 4578.100 6397.290 5410.469 5081.953 3281.053 1569.287 189.691 2473.642 3124.743 7348.270 1469.077 1699.954 4363.014 3661.071 2344.203 2556.182 0.000 5388.243 6351.219 913.392 1957.664 4620.583 6233.638 4422.723 2317.377 3229.677 3392.555 4409.649 1679.770 4171.541 2784.244 1594.200 4981.232 5935.434 1539.524 5484.642 3811.072 9085.236 3715.073 446.462 7416.373 1206.914 5118.522 4403.005 3846.273 4621.137 3366.662 6969.531 4300.844 3241.340
9748.659 7036.087 6990.403 7029.365 7061.163 6568.177 8024.217 5268.678 8073.506 7476.000 9369.809 8102.580 8850.304 5652.168 10215.010 10384.149 11696.926 8030.538 7509.535 7389.610 6312.221 11576.898 5546.867 8557.097 10339.597 8433.384 6277.680 9632.601 5999.862 9607.284 7433.867 9718.208 5967.455 5427.236 5764.014 7174.915 6341.760 6588.798 3054.220 5907.864 5216.848 6618.152 8572.543 8565.693 8529.368 8198.114 9981.327 7365.381 7197.817 5545.679 6520.044 5259.744 8653.683 11454.394 8212.670 7779.429 5300.109 7548.084 7457.013 7481.917 6327.154 8016.839 6190.469 8700.824 8239.595 7735.189 4925.083 9587.511 6677.841 9463.426 9020.770 8079.937 10589.823 5558.114 5708.052 5262.423 6080.983 7691.611 10564.974 7672.409 7243.872 8148.584 8221.658 6501.583 8099.691 6911.271 9736.201 6456.782 7526.412 9083.529 7862.391 11110.272 5634.979 9261.055 8740.906 7252.472 4868.087 5041.809 7522.722 5608.162 3456.737 9245.575 3738.863 4890.558 6589.024 8910.630 5026.968 8356.458 7499.764 6004.958 11408.754 10233.070 7343.168 6621.811 7310.387 4396.407 8146.221 4168.306 7703.229 10285.899 9654.712 7978.264 7525.296 6020.526 5275.025 6738.093 6073.729 11402.175 5920.316 5944.198 8061.481 7682.850 5849.556 6646.686 5193.994 0.000 10595.462 4935.171 6528.618 6112.279 9129.950 7319.035 3643.991 6532.244 5634.261 7871.680 6131.008 8415.784 7404.953 6165.154 7904.801 8859.003 5561.303 6995.650 6992.047 9978.517 7979.524 5537.737 11660.616 5658.153 8581.924 8070.313 8432.669 6132.145 7364.254 9893.100 8106.314 6440.919
2825.405 5993.787 5877.341 6061.099 4774.864 5398.505 7325.101 5950.084 4796.186 5640.388 9734.204 6536.766 2167.278 5856.034 845.250 2113.967 2097.371 5066.503 5608.481 5915.191 6324.219 6607.246 6025.893 8049.152 9854.873 4572.379 4886.207 8644.535 5573.591 6068.879 5917.861 2243.646 5881.595 7355.727 7590.872 5874.312 4898.607 6294.291 8411.654 6857.825 13588.979 4465.264 4822.601 6236.100 3884.666 2801.399 5466.957 5679.618 5728.744 5558.892 4993.241 5968.702 4664.416 1854.839 4670.824 3738.855 6233.480 3948.714 5440.106 6485.186 7015.330 2817.574 7246.661 3672.737 5855.824 3207.040 7012.822 1600.727 4393.696 2247.672 8713.062 3746.103 6692.845 5850.323 5950.658 6943.877 4920.893 3052.153 774.029 6535.209 5478.982 5413.671 2797.587 7244.206 5215.597 5868.971 1458.319 7370.978 6389.212 2765.080 4919.657 2554.565 5901.664 2476.920 4410.210 6264.023 7559.499 5955.682 6525.991 6090.780 8629.520 8219.372 9150.911 6249.158 4597.630 2064.643 6323.618 4454.071 3723.554 7933.449 1809.199 1119.653 8129.167 7283.210 6957.599 7646.888 5411.308 8797.936 5180.266 2633.952 1376.830 6815.633 3874.375 6041.078 6355.908 7159.400 5333.538 2266.376 5928.734 4864.687 4921.833 4033.261 7485.653 6601.372 6543.535 10768.717 0.000 6091.535 7442.815 7425.921 8612.655 6966.247 7697.851 7274.867 5944.833 5011.814 6180.951 2891.369 6061.805 7221.346 4419.006 4707.818 5496.750 6004.075 5857.948 9974.649 5244.611 6714.554 2061.061 5684.707 3763.727 4887.279 4086.633 6764.004 5684.974 5315.283 4774.448 5551.607
5119.341 4162.930 4345.107 3309.202 3072.226 2471.712 5791.212 939.337 4619.716 3775.233 7688.969 5755.116 4220.986 2621.370 5585.692 5820.460 7067.607 4532.886 3766.720 3060.270 1898.055 7570.467 719.607 6527.786 8561.279 4137.495 1648.362 7399.596 1712.895 6530.359 4957.408 5088.890 1553.290 1519.588 1856.366 3735.913 1712.441 4254.836 2555.866 3674.859 7733.191 1934.395 3943.225 5920.396 3954.735 3568.796 6234.804 3669.125 4036.173 861.921 1875.133 930.404 4929.143 6825.076 4742.846 3095.671 455.375 2871.656 4811.717 5248.912 2620.464 3387.521 2282.822 4137.134 5594.299 3105.871 1157.034 4958.193 1994.083 4834.108 6787.766 3742.483 6843.300 2027.212 1293.887 1134.331 1451.664 3062.293 5935.656 3343.068 3786.411 4191.952 3592.340 3862.323 5094.939 4038.114 5106.883 2549.134 3197.072 4519.839 4261.584 6546.582 2104.077 4631.736 4871.690 4046.977 3003.035 412.491 5289.717 2293.193 3431.700 7012.571 3947.669 561.218 1959.705 4281.312 467.830 4354.791 2870.446 2097.311 6779.436 5603.751 5313.857 3901.327 5077.382 2449.068 4189.589 3600.116 4885.918 5722.209 5025.394 5745.259 2895.978 1606.361 987.382 3136.949 2301.789 6838.485 1506.150 1314.879 4670.832 2999.092 1521.249 3219.489 906.351 4912.929 5966.144 0.000 2620.971 3797.628 6896.945 5086.030 1842.063 3892.984 2569.601 4717.467 1716.843 3786.466 3075.613 2257.507 4158.278 5112.480 877.545 4661.688 4118.891 8262.282 4022.892 1250.093 7031.298 1243.988 4313.042 4710.824 3858.036 3798.183 3674.481 6146.577 4608.663 2418.386
7164.425 2593.771 2775.948 1503.574 5093.771 4600.785 3866.565 2307.977 3050.557 2206.074 9642.638 3944.928 6266.069 4575.039 6592.683 7878.996 9112.691 2963.727 2197.561 2001.078 3520.991 9784.044 3030.134 8481.455 10514.948 3038.656 3693.446 5474.949 3889.468 5218.794 3276.215 7133.974 3176.225 897.967 561.189 2166.754 3757.525 6208.505 4065.085 1750.212 9242.410 4101.419 3555.507 4351.237 4445.210 5613.880 8188.472 2099.966 2467.014 3028.946 3935.809 2289.359 3359.984 8870.159 3173.687 5262.696 2783.376 4963.850 3242.558 3324.265 453.428 5432.605 216.979 6317.262 4025.140 4835.652 1510.641 6311.048 4161.108 6879.192 4863.119 6053.010 8796.969 3980.881 2916.822 1555.722 3496.748 5107.377 6942.648 2283.877 2217.251 2622.793 5019.910 1937.676 3525.780 2468.955 6006.444 273.040 2137.880 6690.770 2692.425 8716.375 4057.746 5287.358 3447.207 2477.818 4956.703 2525.076 3365.070 4246.861 5193.929 5087.924 5476.055 2222.536 4004.789 6326.396 2510.234 2961.730 4915.530 1128.757 8824.520 6610.743 7267.525 1976.680 3152.735 4402.736 2620.430 5553.785 3316.759 7902.336 5955.608 3820.612 4681.331 3229.296 1849.700 1212.302 4255.458 9008.279 3129.085 3359.963 3101.673 5166.117 3474.918 1294.842 1660.009 6422.147 7320.372 2418.438 0.000 5751.297 4972.298 3161.383 3351.281 1968.337 4523.270 3148.308 3339.778 4833.380 2016.421 191.663 6111.947 7066.149 3044.570 6615.357 2549.732 10215.951 2453.733 2106.471 9076.381 2866.923 6614.532 3141.665 3743.022 5751.852 2105.321 8100.246 3039.504 4372.054
5989.130 7521.806 7516.802 6758.021 2924.050 2616.148 9121.012 4690.830 6970.893 7074.847 4071.049 8678.356 5684.808 1599.204 7049.515 6392.087 7744.064 6884.064 7042.940 6699.577 5428.194 7095.480 3861.253 2909.865 4989.169 6120.144 4571.818 10701.365 2676.011 8788.671 7974.692 5848.475 4985.569 4849.388 5186.167 7308.771 4635.897 1709.071 4017.790 7004.659 7465.942 3560.827 5925.873 8466.619 6274.755 4706.664 5499.908 7114.077 7256.763 4097.383 4157.266 4681.897 7013.512 7501.532 7094.023 4010.562 3862.842 3895.487 7374.405 8542.016 5950.265 5064.971 5612.622 4748.795 8086.344 5103.367 4347.235 6422.016 3575.852 5555.181 10117.566 3925.064 5861.189 2197.321 4989.728 4684.576 4375.120 4687.431 7399.479 6982.375 7007.001 6848.130 5589.835 7192.123 7446.117 7396.990 6570.706 5878.934 6836.379 5131.500 6507.766 7118.209 2274.186 6629.232 7087.997 7686.285 1688.556 4274.168 8582.821 2153.280 2826.211 10276.202 3347.601 4312.711 4709.860 5745.135 4199.711 6337.440 4761.970 5427.111 7455.892 7067.574 1695.936 7231.127 8407.183 2067.554 6845.767 2460.235 7237.096 6293.836 6489.217 8872.463 5130.904 5145.052 4697.178 6466.749 2121.700 7410.112 5009.056 4238.335 7022.010 3775.142 3890.836 6549.289 4616.147 6119.004 7429.967 4093.884 5950.771 0.000 10226.745 8415.830 5032.264 7222.784 1613.470 7068.644 5284.926 5783.962 6714.920 5587.307 3486.593 4377.585 3825.312 2115.923 7385.967 4644.362 6679.070 4959.889 7707.754 4723.778 4354.541 7062.001 6185.073 1275.388 7119.433 5411.681 6959.840 2488.890
8519.927 3255.165 2976.025 4299.886 8456.860 8381.533 1596.516 6206.808 3726.056 3566.002 13918.915 2510.405 7608.029 8839.062 7616.483 9872.994 10364.606 3948.860 3599.537 4282.711 7060.353 12336.427 7306.410 12638.384 14444.105 4523.386 7102.449 692.340 8134.781 5016.862 2470.532 8916.025 6707.477 5174.244 5125.956 3393.993 6948.854 10294.564 7937.087 3223.969 12940.039 7012.972 5040.237 3454.042 6096.614 7607.878 11196.138 3584.459 3361.662 6853.125 7410.145 6225.427 4199.645 10122.074 3688.179 7491.116 7059.652 7067.710 3164.150 2099.628 4550.414 6769.548 4781.745 8506.942 3320.157 6219.772 5786.918 7334.848 6941.405 8873.190 1143.239 8459.771 12338.562 8257.157 6456.185 5831.998 6905.751 7101.375 7966.447 4897.501 3333.874 4302.342 6043.709 3725.798 3509.269 3130.349 7030.244 4906.062 4751.504 8684.768 3952.392 10595.571 8334.022 6311.157 4301.313 3471.551 9232.980 6801.353 1839.180 8523.138 9065.931 953.078 9348.057 6498.812 7005.148 7668.355 6786.511 4446.460 7024.764 5522.272 10076.434 7634.542 11543.802 3846.026 2325.891 8679.013 4299.979 9777.501 3178.737 10182.454 6979.407 1822.901 6426.116 6768.659 6125.976 4913.013 8316.566 10381.622 6668.448 6882.027 3536.989 7508.916 7751.195 3870.901 5936.285 9148.545 8344.171 6694.715 4977.899 10027.574 0.000 2334.538 6615.084 3756.459 8799.546 3347.189 6879.141 5857.179 4429.325 4756.430 9432.560 10436.999 7181.553 10566.092 3211.126 14492.227 4133.282 6382.747 10328.296 6406.285 9030.330 3545.821 5092.405 10015.875 3583.332 11044.464 3822.362 8534.635
7096.216 1599.826 1320.685 2644.547 6801.521 6726.194 1409.970 4551.469 2193.438 1910.663 12303.769 1651.766 6184.317 7183.723 6192.771 8304.316 8940.895 2370.514 1944.198 2627.371 5405.014 10681.088 5660.490 10983.045 12788.766 2868.047 5447.110 3024.155 6479.442 3642.996 1142.710 7492.314 5052.138 3559.099 3510.811 1738.654 5293.515 8639.225 6321.941 1486.672 11324.894 5357.633 3384.898 2484.545 4672.903 6039.201 9540.799 1929.120 1706.323 5197.786 5754.806 4570.088 2775.933 8698.363 2264.467 5835.777 5444.507 5412.371 1508.810 1031.103 2935.269 5345.837 3166.600 6938.265 2158.447 4665.043 4171.772 5911.136 5286.066 7304.513 1805.177 6804.432 10683.223 6642.012 4800.846 4216.853 5250.412 5532.698 6542.736 3242.162 1678.535 2647.003 4619.998 1988.501 2135.403 1475.010 5606.532 3290.917 3096.165 7116.091 2297.053 9141.696 6718.877 4887.446 2877.602 1816.211 7617.835 5186.207 779.643 6907.993 7450.786 2631.328 7732.912 4883.667 5349.809 6244.644 5171.366 2791.121 5369.425 3907.126 8652.723 6210.831 9928.657 2108.729 78.406 7063.868 2644.640 8162.355 1755.026 8613.776 5555.696 1261.704 4770.777 5113.319 4510.831 3175.716 6661.227 8957.911 5013.109 5226.688 2113.278 5853.577 6136.049 2133.604 4321.140 7533.399 6920.460 5079.570 3362.753 8412.429 2521.504 0.000 4999.939 2019.162 7184.401 1923.478 5223.802 4433.468 2773.986 3141.285 7777.221 8781.660 5526.214 8910.753 1555.786 12877.082 2477.943 4767.602 8904.585 4750.946 7374.991 2122.110 3572.412 8360.536 1927.993 9389.125 2302.423 6879.296
7248.965 4617.160 4571.477 4610.439 4968.714 4475.727 5605.291 2768.983 5654.579 5057.074 8363.919 5683.654 6350.609 4449.981 7715.315 7963.535 9197.231 5611.611 5090.609 4889.916 3812.526 9658.986 3047.172 7551.207 9333.707 6014.458 3777.986 7213.674 3764.411 7188.357 5014.941 7218.513 3467.760 2927.541 3264.319 4755.989 3842.065 5582.908 1322.002 3488.937 6499.327 4118.458 6072.848 6146.766 6029.673 5698.419 8063.415 4946.454 4778.891 3045.984 4020.349 2760.049 6234.757 8954.699 5793.744 5279.734 2800.414 5048.390 5038.087 5062.990 3908.228 5517.145 3690.775 6334.300 5820.669 5235.495 2425.388 7087.816 4178.146 6963.732 6601.844 5987.488 8671.911 3855.824 3208.358 2762.728 3581.288 5191.917 8065.280 5172.714 4824.946 5729.658 5721.963 4082.657 5680.764 4492.344 7236.507 3957.087 5026.717 6717.005 5443.464 8743.748 3932.688 6761.360 6321.980 4833.546 3862.197 2542.114 5103.795 4121.804 2450.847 6826.649 2732.972 2390.864 4089.329 6410.936 2527.273 5937.532 5000.069 3505.264 8909.059 7733.375 6337.277 4202.885 4891.461 3390.517 5727.295 3162.416 5284.303 7919.375 7155.017 5559.338 5025.601 3520.831 2775.330 4319.167 4130.401 9035.651 3420.621 3444.503 5642.555 5183.155 3349.861 4227.760 2694.300 3608.053 8095.767 2435.477 4028.924 5106.389 6711.023 4900.108 0.000 4113.318 4398.212 5452.754 3631.314 5916.089 4905.259 3665.459 5986.890 6941.092 3061.608 5989.760 4573.121 8972.627 5560.598 3038.042 9160.921 3158.458 6489.475 5651.386 5932.974 5126.255 4945.327 7975.188 5687.388 4246.997
7388.604 1748.734 1703.051 1487.697 6579.076 6086.089 2895.861 3631.088 2786.153 2188.648 11127.942 2815.227 6476.705 6060.343 6576.807 8459.049 9324.930 2743.185 2181.685 2038.983 4484.633 10835.821 4515.438 9966.759 12000.252 3022.780 4526.729 4510.046 5374.772 4319.931 2146.515 7714.028 4131.758 2383.272 2334.984 1887.563 4373.134 7693.809 5455.780 620.511 10458.732 5383.570 3539.631 3278.340 4810.596 6193.934 9673.777 2078.028 1910.464 4277.405 4928.380 3649.707 3344.108 9082.398 2925.318 5990.510 4268.680 5567.104 2169.661 2194.564 1759.442 5505.892 1990.773 7092.998 2952.243 4819.776 2995.945 6295.172 5354.159 7459.246 3768.485 6959.165 10282.273 5466.185 3880.465 3041.026 4330.031 5687.431 6926.771 2321.781 1956.520 2606.916 5004.034 30.661 2812.338 1623.918 5990.568 2115.090 2175.784 7270.824 2575.038 9296.429 5543.050 5271.482 3431.331 1965.120 6442.008 4010.380 2235.369 5732.166 6584.624 4094.650 6866.750 3707.840 4997.360 6537.032 3995.539 2945.854 5524.158 2731.299 9036.759 6594.867 8752.830 150.889 2023.034 5888.041 2604.553 7039.089 2415.876 8768.509 5939.731 2690.911 4925.510 4192.939 3335.004 1903.512 5740.762 9341.946 4092.728 4306.307 2774.128 6008.310 4960.222 984.999 3145.313 6667.238 7304.496 3903.743 2186.926 7236.602 4007.394 2031.682 4133.778 0.000 6008.574 2584.328 4303.421 4817.504 2054.326 1965.458 7597.251 8551.453 4529.874 8100.661 1704.695 11701.255 2437.856 3591.775 9288.620 3830.566 7529.724 2782.960 3727.146 7237.156 2076.901 9543.858 2818.962 5857.359
4441.695 5974.371 5969.366 5570.138 1561.700 1068.713 7834.496 3564.412 5423.458 5527.412 5434.163 7130.921 4137.373 51.769 5502.080 4884.686 6236.662 5336.628 5495.505 5321.206 4049.823 5976.499 2482.882 4185.957 5991.678 4572.708 3111.882 9153.930 1222.590 7241.236 6427.256 4301.039 3607.198 3790.656 4127.434 5761.336 3175.961 1685.235 3621.395 5945.927 8491.042 2013.391 4378.438 6919.184 4727.319 3159.229 4380.928 5566.642 5709.327 2719.012 2609.831 3555.479 5466.077 5994.131 5546.588 2463.127 2484.471 2348.052 5826.970 6994.581 4891.532 3517.535 4553.889 3201.360 6538.909 3555.932 3288.503 4874.581 2028.416 4007.746 8940.582 2580.473 4989.424 583.851 3611.358 3625.843 2915.184 3139.996 5852.044 5604.004 5459.565 5300.695 4042.400 6133.391 5898.681 5849.554 5023.271 4820.202 5458.008 3584.065 4960.330 5610.808 660.716 5081.797 5540.562 6151.047 1969.868 2895.797 7035.386 621.417 3073.913 8728.767 3595.304 3186.293 3162.425 4197.700 2821.340 4790.004 3214.535 4368.378 5948.491 5520.139 3059.051 6172.395 7126.758 2091.281 5298.332 3242.329 5689.661 4786.435 4941.782 7325.028 3583.469 3766.681 3612.457 5408.017 574.265 5902.711 3630.685 2778.399 5474.575 2227.707 2832.104 5490.557 3531.426 5722.609 5882.531 2715.513 4892.038 1621.656 9030.575 7135.406 3973.531 6164.052 0.000 5521.209 3906.555 4236.527 5336.549 4528.574 2304.402 3258.605 2446.941 2092.087 5838.532 6007.476 5131.635 3875.168 6200.353 3345.407 3082.460 5514.566 4637.638 1228.582 5571.997 4292.701 5412.405 941.455
5172.739 1403.651 894.902 1976.745 5162.897 5087.570 2313.286 3883.667 378.867 1449.881 10877.482 1609.712 4260.840 5545.099 4269.294 6525.805 7017.417 601.671 1483.416 1830.838 4646.884 9042.463 4992.688 9344.420 11150.142 1229.422 3999.761 3632.721 4840.818 2070.486 906.047 5568.836 4204.259 3554.807 3506.519 1542.479 4012.161 7000.601 6721.924 2013.477 11851.698 3719.009 1746.273 1397.975 2749.425 4260.689 7902.175 1502.244 1467.515 4529.984 4116.181 3902.286 852.456 6774.885 340.990 4197.153 5131.478 3773.747 428.292 1473.371 2930.977 3422.360 3162.308 5159.753 1017.699 2872.583 4167.480 3987.659 3647.442 5526.002 3701.248 5165.808 9044.599 5182.506 4133.044 4212.561 4043.833 3754.186 4619.258 2450.856 1217.753 1329.318 2696.521 2515.305 377.472 1278.835 3683.055 3286.625 2304.859 5337.579 658.429 7248.382 5233.847 2963.968 954.124 1620.036 6891.682 4873.179 1514.176 5422.963 7850.769 3207.557 8132.895 4469.401 3711.185 4321.167 4858.337 1152.496 3704.874 3902.835 6729.245 4287.353 8502.370 2635.533 1945.785 6979.071 1326.955 8130.119 168.451 6835.265 3632.218 1803.819 3132.152 4363.743 4344.010 3075.047 5022.603 7034.433 4251.399 3978.241 189.801 4214.952 6131.758 2517.019 4316.848 8060.203 4996.983 4766.541 3358.462 7114.985 3600.841 1954.433 5526.743 2545.966 5633.897 0.000 4503.616 2509.991 1977.452 3136.993 6138.596 7143.035 4671.371 7272.128 1359.611 11269.917 1160.258 4702.656 6981.107 4083.145 5736.367 198.632 1745.217 6721.912 1507.599 7750.500 475.173 5240.672
5160.439 2743.431 2925.607 1889.702 3773.816 3427.249 4748.683 1088.358 3200.216 2355.733 9217.162 4335.617 4262.084 3871.933 5626.790 5875.010 7108.706 3113.387 2347.221 1640.770 369.387 8228.581 1790.992 7801.091 9606.812 3055.641 1530.173 6264.582 2839.862 5368.454 3537.908 5129.988 299.357 2566.745 2903.523 2316.413 1376.578 5340.280 3937.149 3008.482 9114.474 2387.013 2861.370 4500.897 2814.841 3609.894 7042.674 2249.626 2616.673 1328.288 1931.824 1106.977 3509.644 6866.174 3323.346 3383.270 1998.580 2959.864 3392.217 4047.386 2455.947 3428.619 2687.278 4508.958 4174.799 3089.429 2337.961 4999.291 2453.741 4875.206 5770.224 4351.925 7651.171 3277.776 459.561 2136.669 1333.475 3103.391 5976.754 1923.569 2366.911 2772.452 3633.438 3072.809 3675.439 2618.614 5147.981 2811.594 1777.572 4686.784 2842.085 6712.390 3354.640 4528.749 3596.866 2627.478 4669.913 1720.781 4088.191 3543.756 5065.993 5839.418 5348.119 1460.176 2000.804 4322.410 1849.112 3111.390 2911.544 3144.467 6820.534 5644.850 6842.049 3111.814 3956.400 4115.946 2770.089 5266.994 3466.419 6166.059 5066.492 4435.680 2777.788 233.218 1548.701 2421.949 3362.282 7004.293 296.544 1309.751 3251.333 3401.070 3188.127 2429.976 1736.327 6294.211 6007.242 1757.316 2883.431 5427.658 5860.217 3965.048 3223.345 3103.470 3820.164 3297.967 0.000 3827.564 1656.113 2661.962 4966.149 5920.351 1620.380 5611.808 2699.391 9726.588 2603.392 1907.347 7072.396 569.588 4922.484 3291.324 2718.141 5048.747 2254.981 6936.618 3189.163 3555.617
2662.748 3490.871 3374.426 3558.183 3532.956 3766.010 4822.185 3783.269 2293.271 3137.473 9247.831 4033.850 1750.849 4223.539 2511.688 4015.814 5224.760 2563.587 3105.566 3412.275 3998.116 6787.953 3859.078 7562.779 9368.500 2069.464 2621.163 6141.620 3569.699 3565.964 3414.946 3058.846 3555.492 5136.245 5087.957 3371.397 2633.563 5403.959 6244.840 4354.909 11422.165 2447.890 2505.350 3733.184 1604.103 1750.699 5647.664 3176.703 3225.828 3392.077 2604.069 3801.888 2161.500 4982.228 2167.909 2343.405 4066.666 2323.361 2937.191 3982.270 4512.415 912.369 4743.746 2649.763 3352.909 826.998 4846.007 2230.053 2376.323 3016.011 6210.146 3012.261 6873.551 3911.387 3783.843 4777.062 2531.721 1244.196 2861.653 4032.293 2976.066 2910.756 186.530 4741.291 2712.681 3366.055 1925.449 4868.063 3886.297 2827.589 2416.742 4853.194 3962.729 1240.375 1907.295 3761.108 5620.563 3788.867 4023.075 4151.845 6690.585 5716.456 7211.975 4082.344 2440.066 1811.176 4156.803 1951.156 1630.621 5484.272 4936.589 2529.748 6905.728 4780.295 4454.684 5707.952 2908.393 6859.000 2677.350 4325.274 1874.613 4312.718 1322.258 3714.975 4189.094 4656.485 3701.043 5145.097 3602.631 2651.646 2418.918 2459.030 5355.532 4098.457 4376.720 8601.902 3239.377 3924.721 4939.899 5793.426 6109.740 4463.331 5531.036 4771.952 4312.338 2508.899 3854.849 0.000 3558.890 4718.431 4306.725 4888.525 3363.829 5517.702 3355.032 9488.276 2741.696 4547.740 5188.450 3472.648 3484.930 2384.364 1583.717 5400.352 3182.058 5495.990 2271.533 3919.112
6114.680 1581.171 1702.766 849.220 5331.679 4985.112 3525.842 2192.394 1760.756 998.089 10673.799 3112.776 5202.781 5382.356 5302.882 7185.125 8051.006 1673.926 966.181 146.614 3045.939 9561.896 3301.415 9358.953 11164.674 1748.855 3088.035 5041.741 4350.285 3928.993 2315.067 6440.103 2693.064 2366.777 2318.489 1163.516 2934.440 6898.143 5255.100 1968.001 10432.425 3944.875 2265.706 3256.482 3371.902 4920.009 8421.608 968.822 1316.128 2838.711 3489.686 2211.013 2070.183 7808.474 1883.886 4716.586 3440.205 4293.180 2164.267 2824.545 1742.948 4231.968 1974.279 5819.073 2876.206 3545.851 2979.451 5021.247 3915.465 6185.321 4547.383 5685.241 9209.033 4788.199 2441.771 3024.532 2891.337 4413.506 5652.847 635.361 1066.366 1332.992 3730.109 2032.328 2235.979 1456.355 4716.643 2098.595 489.365 5996.899 1402.624 8022.505 4865.063 3997.557 2157.406 1553.227 5987.864 3181.905 2865.350 5054.179 6383.945 4616.577 6666.071 2778.128 3558.666 5263.108 3167.064 1671.929 4250.233 2714.805 7762.834 5320.942 8298.686 2071.332 2733.559 5433.897 1330.629 6584.946 2026.959 7494.585 4665.807 3212.839 3608.024 2754.245 2652.737 1708.951 4920.144 8068.022 2654.034 2867.613 1811.872 4734.385 4506.079 1389.494 2840.363 7612.163 6030.571 3075.268 2170.432 6782.458 4637.376 2742.207 4541.297 2062.989 5330.587 1858.507 2864.727 3543.579 0.000 1948.964 6524.011 7478.213 3167.139 7169.670 1445.332 11247.112 1163.932 3011.383 8014.696 2391.872 6255.799 1851.864 2453.221 6559.170 974.178 8269.933 1749.703 5066.040
7004.376 2503.302 2685.478 1413.104 4933.722 4440.736 3776.095 2147.928 2960.087 2115.604 9482.589 3854.458 6106.020 4414.990 6502.214 7718.947 8952.642 2873.258 2107.092 1910.609 3360.941 9623.995 2870.085 8321.405 10354.899 2948.186 3533.397 5384.479 3729.419 5128.325 3185.746 6973.925 3016.176 737.918 401.140 2076.284 3597.476 6048.456 3905.036 1659.742 9082.361 3941.370 3465.037 4260.768 4354.740 5453.831 8028.423 2009.496 2376.544 2868.897 3775.760 2129.310 3269.515 8710.110 3083.217 5102.646 2623.327 4803.801 3152.088 3233.795 362.958 5272.556 25.315 6157.213 3934.670 4745.182 1350.592 6220.578 4001.059 6719.143 4772.649 5892.961 8636.920 3820.832 2756.773 1395.673 3336.699 4947.328 6852.178 2193.407 2126.782 2532.323 4929.440 1847.206 3435.310 2378.485 5915.975 291.628 2047.411 6530.721 2601.955 8556.326 3897.696 5196.888 3356.737 2387.349 4796.654 2365.027 3274.600 4086.812 5033.880 4997.454 5316.006 2062.487 3844.740 6166.347 2350.185 2871.261 4755.481 968.708 8664.471 6520.273 7107.476 1886.210 3062.265 4242.687 2529.960 5393.736 3226.290 7742.287 5865.138 3730.143 4590.861 3069.247 1689.651 1121.832 4095.409 8848.230 2969.036 3199.914 3011.204 5006.068 3314.869 1204.372 1499.960 6262.098 7229.902 2258.389 363.464 5591.248 4881.828 3070.913 3191.232 1877.867 4363.221 3057.838 3179.729 4742.910 1925.952 0.000 5951.898 6906.100 2884.521 6455.308 2459.262 10055.902 2363.263 1946.422 8916.332 2706.874 6454.483 3051.195 3652.552 5591.803 2014.852 7940.196 2949.034 4212.005
3265.099 6528.133 6523.129 6501.885 1186.516 2293.592 8388.258 4737.320 5977.220 6081.175 5588.510 7684.683 3778.544 2313.891 4937.914 3080.364 4432.341 5890.391 6049.267 6355.977 5176.359 3816.703 3832.456 3903.458 5709.179 5126.471 4004.764 9707.693 2573.615 7794.998 6981.019 2673.083 4733.735 5341.981 5678.759 6315.098 4017.164 2076.976 5835.625 7392.171 10554.983 2972.446 4932.200 7472.947 5599.781 2995.090 2435.234 6120.405 6263.090 3845.549 3564.699 4755.938 6019.840 4189.809 6100.351 2362.710 4035.796 2878.761 6380.732 7548.343 6442.857 3534.014 6105.214 2579.284 7092.671 4109.694 4839.827 4310.415 2900.878 2341.905 9494.345 1354.373 3043.731 2539.813 4737.894 5177.168 3938.482 3156.474 5287.878 6730.541 6013.328 5854.458 4207.860 7684.715 6452.444 6403.317 4459.105 6371.526 6584.544 2523.663 5514.093 3806.486 2591.154 5221.340 6094.325 6704.809 4200.298 4245.371 7589.148 2749.403 5288.143 9282.529 5809.534 4667.089 3716.187 3741.874 4372.665 5343.767 3694.206 5919.703 4144.169 4955.973 3911.852 7723.720 7680.521 4305.511 5852.095 5456.559 6243.423 2982.113 4377.616 7878.791 4251.698 4893.218 5093.253 6959.341 2074.411 4098.389 4757.221 3801.697 6028.337 2073.216 4383.429 7041.882 5012.222 7936.839 4674.707 4213.783 6443.363 3535.644 9584.337 7689.168 5524.856 7715.376 2370.998 6074.972 5033.091 4418.744 6463.085 6079.899 0.000 1312.062 3663.190 1858.381 6392.294 5828.955 5685.397 5355.965 4396.031 4471.943 1340.177 6068.328 5191.400 2616.995 6125.760 2347.007 5966.167 2292.480
3504.711 7501.014 7496.010 7474.766 2366.912 3176.681 9361.140 5786.274 6950.102 7054.056 6290.981 8657.565 4095.624 3196.980 5254.994 3319.975 4671.952 6863.272 7022.149 7328.859 6225.313 2877.505 4857.833 4605.929 5672.969 6099.352 4977.645 10680.574 3456.704 8401.920 7953.900 2912.695 5782.688 6225.070 6561.848 7287.980 4990.045 2851.068 6718.714 8365.052 11329.075 3945.327 5905.082 8445.828 6460.678 3469.001 1281.933 7093.286 7235.971 4894.502 4537.581 5804.892 6992.721 4429.420 7003.865 3335.592 4918.885 3851.642 7353.613 8521.224 7325.946 4007.924 6988.303 3155.724 8065.553 4716.616 5722.916 4627.495 3873.760 2581.517 10467.226 2288.634 2118.968 3422.902 5786.848 6060.257 4987.436 3630.384 5581.883 7779.495 6986.209 6827.339 4681.770 8567.804 7425.325 7376.198 4776.185 7254.615 7633.498 2763.275 6486.974 3522.729 3474.243 5695.251 6743.251 7677.691 5083.387 5270.748 8562.029 3632.492 6171.232 10255.410 6692.623 5620.707 4689.068 4058.954 5255.754 6316.648 4667.087 6802.792 4383.781 5273.053 4685.944 8606.808 8653.402 5188.600 6824.976 6323.368 7216.305 3221.725 4694.696 8851.672 5224.580 5942.171 6046.871 7842.430 2957.500 4185.198 5806.175 4850.651 7001.219 3046.097 5266.518 7924.971 5965.840 8819.928 4914.319 5149.927 7326.452 4309.736 10557.219 8662.050 6407.945 8598.465 3254.087 7047.853 6082.045 4892.654 7475.473 6962.988 1227.178 0.000 4712.144 2560.852 7365.175 6531.426 6658.279 6309.582 4635.642 5520.897 2023.687 7041.210 6164.282 3391.087 7098.641 1193.706 6939.049 3175.569
4366.995 4116.230 4298.406 3262.501 2436.613 2054.445 6121.482 1303.147 4384.966 3728.533 7765.675 5708.416 3617.706 2383.281 4982.413 4956.017 6266.840 4298.136 3720.020 3013.569 1742.186 6920.288 575.460 6463.888 8269.609 3534.216 1045.083 7637.381 1351.210 5984.339 4910.707 4288.123 1299.561 2156.459 2493.237 3689.212 1109.162 4003.077 3192.737 4311.729 8370.062 1056.849 3339.946 5873.696 3407.615 2805.288 5705.471 3622.425 3989.472 411.375 997.588 1321.765 4427.585 6024.309 4508.096 2218.126 783.048 1994.110 4765.016 5420.185 3257.335 2784.242 2919.692 3272.692 5500.416 2502.592 1793.905 4354.914 1116.538 4033.341 7143.023 3043.632 6313.967 1789.123 1303.721 1771.201 848.385 2459.014 5332.377 3296.368 3739.710 4145.251 2989.060 4445.608 4860.189 3991.413 4503.604 3186.005 3150.371 3655.396 3921.838 5682.140 1865.988 4028.457 4325.670 4000.277 3523.823 676.777 5460.990 2055.104 4107.400 7212.218 4603.707 1198.088 1356.426 3678.033 1104.700 3751.512 2267.167 2734.181 5978.669 5000.472 5390.563 4484.613 5329.199 3124.767 4142.888 4275.816 4651.168 4857.766 4422.115 5808.479 2292.698 1459.044 1624.252 3773.820 1950.368 5974.043 1323.048 711.600 4436.082 2121.547 2196.949 3802.775 1543.221 5549.799 5362.865 872.618 3257.841 3939.005 7233.016 5337.847 2478.933 4476.269 2331.512 4482.717 1598.918 3183.187 3028.912 2894.377 3628.946 4583.148 0.000 4274.605 4072.190 8338.988 3976.191 1886.964 6230.531 1037.770 3614.191 4476.074 3312.015 3560.094 3627.780 5617.244 4373.913 2066.965
4727.398 7597.353 7592.349 7421.684 2204.082 2852.737 9457.478 5462.330 7046.440 7150.394 4019.780 8753.903 4860.558 2222.905 6019.928 4542.662 5894.639 6959.611 7118.487 7172.753 5901.369 5230.974 4533.890 2334.728 4140.449 6195.691 4860.190 10776.912 3132.760 8864.218 8050.239 4135.382 5458.745 5880.227 6217.005 7384.318 4924.269 604.289 5048.628 8035.498 9020.687 3744.092 6001.420 8542.166 6458.021 4077.104 3635.403 7189.624 7332.309 4570.559 4340.532 5480.949 7089.059 5652.107 7169.570 3444.724 4594.941 3947.981 7449.952 8617.563 6981.103 4616.028 6643.460 3661.298 8161.891 5178.914 5378.074 5392.429 3759.117 3804.204 10563.565 2436.387 3745.265 2821.021 5462.904 5715.414 4663.492 4238.488 6369.892 7455.551 7082.547 6923.677 5289.874 8222.961 7521.663 7472.537 5541.119 6909.773 7309.554 3840.577 6583.313 5268.785 2897.886 6303.354 7163.544 7774.029 3381.866 4946.804 8658.368 2858.587 4501.146 10351.749 5022.537 5296.763 4785.407 4823.888 4931.810 6412.987 4776.220 6457.949 5606.467 6037.988 2377.556 8261.966 8749.740 3518.514 6921.314 4014.980 7312.643 4444.411 5459.630 8948.010 5314.170 5618.228 5722.927 7497.588 2633.556 5560.688 5482.231 4526.707 7097.557 3142.436 4921.675 7580.128 5641.896 7149.842 6137.005 4825.983 6981.609 2276.009 10653.557 8758.388 6063.102 8253.623 2237.170 7144.191 5758.101 5500.758 7188.096 6618.145 1655.559 2513.080 4388.200 0.000 7461.514 4260.225 6754.617 5985.638 5858.329 5196.953 2657.703 7137.548 6260.620 1226.767 7194.980 3547.176 7035.387 2851.625
6192.073 135.839 717.895 1248.764 5759.723 5684.396 2540.971 3155.686 1628.950 744.278 11474.308 2127.905 5280.174 6141.925 5380.276 7262.518 8128.399 1542.121 735.765 1304.816 4009.231 9639.289 4264.707 9941.247 11746.968 1826.248 4051.327 4056.870 5313.577 3334.776 1330.196 6517.496 3656.356 2826.826 2778.538 342.209 3897.732 7597.427 5993.943 1293.105 11131.326 4315.835 2343.099 2293.185 3860.407 4997.402 8499.001 492.666 297.569 3802.003 4452.978 3174.305 2147.577 7885.867 1752.080 4793.979 4403.497 4370.573 1184.505 1839.674 2202.996 4309.361 2434.327 5896.466 1967.087 3623.244 3439.499 5098.641 4244.268 6262.715 3562.512 5762.634 9641.425 5751.491 3405.063 3484.580 3854.629 4490.899 5730.240 1846.379 755.455 1410.385 3807.502 1794.933 1827.183 11.023 4794.037 2558.644 1700.383 6074.293 1373.974 8099.898 5828.355 4074.950 2234.799 419.766 6885.562 4145.198 1880.479 6017.471 7122.788 3631.706 7404.913 3741.420 4308.011 5340.501 4130.356 1749.323 4327.626 3174.853 7840.227 5398.335 9099.196 1915.161 1748.688 6331.595 1408.022 7482.643 1430.721 7571.978 4743.200 2227.968 3728.979 3717.537 3616.029 2347.066 5619.429 8145.415 3617.326 3830.905 1680.067 4811.778 5403.776 1789.038 3588.867 7339.831 6107.964 4038.560 2630.480 7680.155 3652.505 1757.336 4806.371 1825.594 6230.723 1599.172 3828.019 3620.972 1451.431 2409.012 6735.422 7739.861 4130.431 7868.955 0.000 11866.744 1241.325 3974.675 8092.089 3355.164 6333.193 1720.058 2530.614 7318.738 498.021 8347.326 1617.897 5837.498
8781.236 11388.330 11383.326 11104.943 6181.239 6535.996 13248.455 9145.588 10837.418 10941.372 710.193 12544.880 8914.396 5799.486 10073.766 8596.500 9948.477 10750.588 10909.465 10856.011 9584.628 8037.709 8217.148 2712.918 1760.716 9986.668 8543.448 14567.890 6816.019 12655.196 11841.216 8189.220 9142.003 9333.748 9670.526 11175.296 8607.528 4437.588 7975.108 11489.019 8513.656 7427.351 9792.397 12333.144 10141.279 8130.943 6442.138 10980.602 11123.287 8253.817 8023.790 9164.207 10880.037 9705.946 10960.548 7498.563 8278.200 7762.012 11240.929 12408.540 10434.624 8669.866 10096.982 7715.136 11952.868 8969.891 8831.595 9446.268 7442.376 7858.042 14354.542 6490.226 6302.319 6397.603 9146.163 9168.935 8346.751 8292.326 10423.731 11138.810 10873.525 10714.655 9343.712 11676.483 11312.641 11263.514 9594.958 10363.294 10992.813 7894.416 10374.290 9057.008 6474.468 10357.193 10954.522 11565.007 5759.871 8630.063 12449.345 6435.169 6561.799 14142.726 7083.189 8797.071 8576.384 8877.726 8615.068 10203.964 8628.494 9911.471 9660.306 10091.826 2966.395 11715.487 12540.718 5984.959 10712.292 5933.438 11103.620 8498.250 9513.469 12738.988 8997.429 9301.486 9181.537 10951.109 6316.815 9614.526 9165.490 8209.966 10888.534 7196.274 8375.196 11033.649 9100.507 10076.322 10190.844 8509.242 10435.131 4664.068 14444.534 12549.366 9155.832 11707.144 5813.752 10935.169 9441.360 9554.596 10871.354 10071.666 5709.397 6566.918 8071.459 4173.699 11252.491 0.000 10545.595 9444.249 9912.168 8880.212 6711.541 10928.525 10051.597 4803.348 10985.957 6488.449 10826.365 6534.884
5305.305 1333.417 1455.012 1171.045 4872.955 4797.628 3278.087 3077.967 951.381 750.334 10587.541 2658.844 4393.406 5255.157 4493.508 6375.750 7241.631 864.552 718.427 1025.137 3931.512 8752.522 4186.987 9054.479 10860.200 939.481 3709.820 4681.853 4550.876 3119.619 1955.180 5630.728 3578.636 2749.106 2700.818 984.258 3722.220 6710.659 5916.223 2197.455 11093.548 3429.067 1456.332 2447.107 2973.639 4110.635 7612.233 789.564 1068.374 3724.284 3826.240 3096.585 1260.809 6999.099 1074.511 3907.211 4325.778 3483.805 1354.893 2522.504 2125.276 3422.593 2356.607 5009.699 2066.832 2736.477 3361.779 4211.873 3357.500 5375.947 4299.629 4875.866 8754.657 4892.564 3327.343 3406.860 3753.892 3604.132 4843.472 1645.155 818.612 169.060 2920.735 2354.152 1426.605 1208.601 3907.269 2480.924 1499.158 5187.525 593.250 7213.130 4943.906 3188.182 1348.032 1373.969 6601.741 4067.478 2563.309 5133.022 7045.068 4256.690 7327.194 3663.700 3421.243 4453.733 4052.636 862.555 3440.859 3097.134 6953.459 4511.567 8212.428 2393.156 2485.805 6253.875 166.697 7404.923 1217.584 6685.210 3856.432 2852.951 2842.211 3639.817 3538.309 2269.346 4732.661 7258.647 3539.607 3688.300 1002.498 3925.011 5326.057 1711.318 3511.147 8025.216 5221.197 3960.840 2552.761 6825.044 4389.621 2494.452 5202.420 2384.813 5343.956 1049.132 3750.300 2734.205 1171.751 2331.292 5848.655 6853.094 4052.712 6982.187 1197.578 10979.976 0.000 3896.955 7205.321 3277.444 5446.425 1042.489 1643.846 6431.970 794.919 7460.559 940.328 4950.730
5675.436 4042.582 4224.758 3188.853 4221.449 3620.935 5574.368 818.989 4499.367 3654.884 8855.666 5634.768 4777.081 3788.066 6141.787 6390.007 7623.702 4412.538 3646.372 2939.921 2032.002 8719.690 1868.830 7694.482 9727.975 4354.792 2204.457 7182.751 2879.591 6667.605 4837.059 5644.985 1687.236 1302.743 1639.522 3615.564 2268.536 5421.532 3374.923 3458.014 8552.248 2877.725 4160.521 5800.048 4113.992 4124.891 7401.500 3548.777 3915.824 1680.184 2446.820 800.370 4808.795 7381.171 4622.497 3898.267 1622.072 3474.861 4691.368 5032.067 2403.620 3943.616 2065.977 5023.955 5473.950 3661.966 1096.027 5514.288 2944.454 5390.203 6570.921 4866.922 8009.996 3193.908 1427.834 846.804 2007.759 3618.388 6491.751 3222.720 3666.062 4071.603 4148.435 3645.478 4974.590 3917.765 5662.978 2332.289 3076.723 5201.781 4141.236 7227.387 3270.773 5187.832 4896.017 3926.629 4169.731 1363.772 5072.872 3459.889 4503.768 6795.726 4785.894 1061.232 2515.800 4837.407 1348.930 4410.541 3426.541 1880.466 7335.531 6159.846 6480.553 3684.482 4860.538 3615.764 4069.240 4766.812 4765.570 6681.056 5581.489 5528.415 3452.073 1740.307 512.030 2920.104 3468.485 7519.290 1640.097 1870.974 4550.484 3916.067 2687.946 3002.644 446.462 5731.986 6522.239 1257.134 2404.126 4964.325 6680.100 4869.185 2661.120 3676.139 3736.297 4597.118 1850.790 4342.561 2955.264 2040.662 5324.975 6279.177 1883.266 5828.384 3998.542 9428.978 3902.543 0.000 7587.393 1377.934 5437.481 4590.475 4017.292 4964.879 3554.132 7313.273 4488.314 3585.082
2792.090 7901.234 7784.789 7968.546 4741.549 5564.844 9232.548 7120.163 6703.634 7547.836 9700.889 8444.213 3542.736 6096.518 2887.004 2080.652 117.162 6973.950 7515.928 7822.638 7494.299 5418.356 6755.781 8015.837 9093.179 6479.826 6056.287 10551.983 5814.075 7976.326 7825.309 2210.331 7051.674 8389.453 8726.232 7781.759 6068.687 6260.977 9417.486 8765.272 14287.133 5201.508 6494.288 8143.547 5926.420 3732.017 4278.067 7587.066 7636.191 6403.087 5793.762 7138.782 6571.863 243.973 6578.272 4206.186 6963.368 4675.590 7347.554 8392.633 8922.778 4427.432 9152.687 3813.651 7763.272 4878.727 8026.899 3381.847 5129.941 2214.357 10620.509 3712.788 5797.274 6090.807 7120.738 8004.196 6150.253 4071.735 2815.783 8442.656 7386.429 7321.119 4469.274 9151.654 7123.044 7776.418 3500.073 9278.426 8296.660 2731.766 6827.105 1352.691 6142.148 4518.674 6317.658 8171.470 7799.983 6909.771 8433.438 6331.264 8870.004 10126.819 9391.395 7419.238 5767.710 3603.062 7337.695 6361.519 5243.454 8967.176 749.571 3161.407 8095.852 9190.658 8865.047 7887.372 7318.756 9038.420 7087.713 2120.087 3418.584 8723.081 5546.062 7211.157 7525.988 9066.848 5574.022 1293.274 7098.813 6034.767 6829.281 4174.176 7758.675 8508.820 7713.614 11518.700 2148.218 7105.612 9350.262 7649.338 10520.103 8873.694 8711.928 9182.315 6185.316 6919.262 7351.031 4563.055 7969.253 9127.372 4385.692 4674.503 6232.995 5970.760 7765.395 9941.334 7152.059 7884.634 0.000 6854.787 3730.412 6794.727 5994.080 6730.689 7592.421 4126.393 6681.896 5792.091
4787.300 3124.844 3307.021 2271.115 3400.677 3054.110 5130.096 615.503 3581.629 2737.147 8781.472 4717.030 3888.945 3399.078 5253.651 5501.871 6735.566 3494.800 2728.634 2022.183 750.800 7855.442 1318.136 7427.952 9233.673 3112.015 1157.033 6645.995 2367.007 5446.839 3919.321 4756.849 332.418 2093.889 2430.667 2697.827 1003.439 4967.141 3464.293 3389.896 8641.618 2013.874 2917.744 4882.310 2871.215 3236.755 6669.535 2631.039 2998.086 855.433 1558.684 634.122 3891.057 6493.035 3704.759 3010.131 1525.724 2586.725 3773.630 4428.800 2837.360 3055.480 2857.123 4135.819 4556.212 2716.290 1865.106 4626.152 2080.602 4502.067 6151.637 3978.786 7278.032 2804.920 314.853 1663.814 960.336 2730.252 5603.615 2304.982 2748.324 3153.865 3260.299 3454.222 4056.853 3000.028 4774.842 3123.435 2158.985 4313.645 3223.498 6339.251 2881.785 4299.696 3788.170 3008.891 4197.057 1247.926 4469.605 3070.901 4593.138 6220.832 4875.263 987.321 1627.664 3949.271 1376.257 3317.495 2538.405 2671.612 6447.395 5271.711 6406.360 3493.227 4337.813 3643.090 3151.502 4794.138 3847.832 5792.920 4693.353 4817.093 2404.649 429.714 1075.845 2803.363 2966.165 6631.154 285.278 936.612 3632.746 3027.931 2715.272 2811.389 1263.472 5821.356 5634.103 1284.460 3195.272 4954.802 6241.630 4346.461 2750.490 3484.884 3347.309 3679.381 569.588 3454.425 2037.526 2831.808 4593.010 5547.212 1183.861 5238.669 3080.804 9353.449 2984.805 1434.491 6699.257 0.000 4549.345 3672.737 2774.516 4575.891 2636.394 6563.479 3570.576 3082.761
2389.622 6111.277 6106.273 6085.029 1516.503 2743.218 7971.402 4648.939 5560.364 5664.318 6486.033 7267.827 2702.466 3006.423 3861.836 2386.321 3738.298 5473.535 5632.411 5939.121 5025.920 3910.587 3934.155 4800.981 6606.702 4709.615 3587.908 9290.837 2992.450 7008.762 6564.163 1979.040 4583.295 5727.158 6063.937 5898.242 3600.308 2920.186 6458.594 6975.315 11328.241 2555.589 4515.344 7056.091 5067.521 2075.843 2770.298 5703.548 5846.234 3757.168 3147.843 4667.558 5602.984 3495.766 5610.707 1699.588 4141.743 2323.489 5963.876 7131.487 6828.035 2614.766 6490.392 1762.566 6675.815 3323.458 5364.604 3234.337 2484.022 1647.862 9077.489 570.599 3918.464 3131.915 4649.513 5341.901 3681.874 2237.226 4211.800 6559.139 5596.472 5437.601 3288.612 7268.136 6035.588 5986.461 3383.027 6756.704 6413.143 1617.235 5097.237 3112.443 3183.256 4302.093 5350.093 6287.953 4841.091 4263.852 7172.292 3372.372 5911.112 8865.673 6432.503 4768.788 3299.331 2665.796 4664.558 4926.911 3031.084 6304.881 3450.126 3879.895 4755.062 7307.141 7263.665 4928.480 5435.238 6079.528 5826.567 2288.070 3301.538 7461.935 3834.842 4742.778 5054.764 7078.482 2634.605 3404.347 4630.435 3566.388 5611.481 1512.160 4937.049 6625.303 5113.921 8559.808 3980.664 4315.481 6828.541 4359.172 9167.481 7272.312 6049.633 7298.797 3095.222 5658.116 4882.652 3499.496 6085.735 6465.077 1266.917 2011.159 3587.076 2755.904 5975.438 6726.478 5268.541 5413.410 3701.988 4383.562 0.000 5651.472 4774.544 3440.523 5708.904 2618.624 5549.311 2852.674
5048.203 1602.283 1093.534 1947.197 5133.348 5058.022 2511.919 3854.119 269.028 1420.333 10847.934 1808.344 4136.305 5515.550 4144.759 6401.270 6892.882 572.123 1453.868 1801.289 4617.336 9012.915 4963.140 9314.872 11120.593 1199.874 3970.213 3831.353 4811.269 2243.727 1104.679 5444.301 4174.711 3525.259 3476.971 1667.389 3982.613 6971.052 6692.376 2212.109 11869.701 3689.461 1716.725 1596.607 2624.890 4136.154 7872.626 1472.695 1437.967 4500.436 4086.633 3872.738 727.921 6650.350 216.455 4167.604 5101.930 3744.199 626.924 1672.003 2901.429 3297.825 3132.760 5035.218 1216.332 2748.048 4137.932 3863.124 3617.893 5401.466 3899.880 5136.259 9015.050 5152.958 4103.496 4183.013 4014.285 3629.651 4494.723 2421.307 1188.205 1299.770 2571.986 2713.937 576.104 1477.467 3558.520 3257.077 2275.311 5213.044 628.881 7123.847 5204.299 2839.433 829.589 1818.669 6862.134 4843.631 1712.809 5393.415 7821.220 3406.190 8103.346 4439.853 3681.636 4196.632 4828.789 1104.902 3580.339 3873.286 6604.710 4162.818 8472.821 2834.165 2144.417 6949.523 1297.407 8100.571 367.084 6710.730 3507.683 2002.451 3102.604 4334.194 4314.462 3045.499 4993.054 6909.898 4221.851 3948.693 108.651 4185.404 6102.209 2487.471 4287.300 8258.836 4872.448 4736.993 3328.913 7085.437 3799.473 2153.065 5725.375 2744.598 5604.349 198.632 4474.068 2385.456 1947.904 3107.445 6109.048 7113.487 4641.822 7242.580 1558.243 11240.369 1130.710 4673.108 6856.572 4053.597 5706.818 0.000 1620.682 6692.363 1478.051 7720.952 350.638 5211.123
4262.049 2393.022 2327.929 2460.334 4179.682 4104.355 4070.840 3221.806 1541.925 2039.624 9894.267 3282.505 3350.151 4561.884 3358.605 5615.116 6106.728 1681.725 2007.716 2314.426 3310.100 8059.248 3812.895 8361.205 10166.926 917.032 3016.546 5390.274 3857.602 2914.995 2663.601 4658.147 2867.475 4038.395 3990.107 2273.547 3028.946 6017.386 6198.657 3257.060 11375.982 2735.794 1108.147 2981.839 1838.736 3350.000 6918.960 2078.854 2127.979 3345.894 3132.966 3240.425 1353.010 5864.196 1416.564 3213.938 4020.483 2790.532 2185.532 3230.925 3414.566 2511.670 3645.897 4249.064 2601.563 1961.894 4519.340 3076.969 2664.227 4615.312 5359.234 4182.593 8061.384 4199.291 3099.484 4270.117 3060.618 2843.497 3708.569 2934.444 1878.217 1812.907 1785.831 3643.441 1961.336 2268.206 2772.366 3770.213 2788.448 4426.890 1318.893 6337.692 4250.632 2053.279 1210.449 2663.258 5908.467 3742.684 3271.730 4439.748 6978.488 4965.111 7499.879 3771.952 2727.969 3410.477 4110.620 798.724 2747.585 4386.423 5818.556 3376.664 7519.155 3682.446 3545.410 5995.856 1810.544 7146.904 1926.005 5924.576 2721.529 3561.372 2148.937 3026.958 3682.149 3558.635 4039.387 6123.744 2914.615 2995.026 1667.572 3231.737 5309.349 3000.608 3869.775 8555.719 4086.293 3878.537 3842.050 6131.770 5358.395 3554.057 5484.853 3674.102 4650.682 1757.553 3166.832 1599.301 2461.041 3620.582 5155.381 6159.820 3352.654 6288.913 2257.183 10286.702 1643.846 4040.795 6070.418 2784.632 4753.151 1633.018 0.000 5738.697 2084.209 6767.285 1520.188 4257.456
5217.953 7126.089 7121.085 6769.442 1965.638 2220.431 8986.214 4702.252 6575.176 6679.131 4412.931 8282.639 5182.045 1203.488 6495.289 5433.675 6785.651 6488.347 6647.223 6538.959 5267.576 6137.067 3700.635 3164.724 4970.446 5724.427 4263.600 10305.649 2374.308 8392.954 7578.975 4956.732 4824.951 4860.810 5197.588 6913.054 4327.679 664.003 4029.211 7016.080 8558.979 3165.110 5530.156 8070.903 5879.038 4203.901 4541.496 6718.361 6861.046 3936.765 3761.549 4693.318 6617.796 6543.120 6698.307 3467.358 3702.225 3499.770 6978.688 8146.299 5961.686 4669.254 5624.043 3977.618 7690.627 4707.650 4358.657 5867.790 3180.135 4663.439 10092.301 2966.652 4816.120 1801.604 4829.111 4695.997 4066.902 4291.714 6845.254 6821.758 6611.284 6452.414 5194.119 7203.544 7050.400 7001.273 6016.480 5890.356 6675.761 4360.323 6112.049 6159.797 1878.469 6233.516 6692.281 7302.765 2377.684 4113.550 8187.104 1839.170 3481.729 9880.485 4003.120 4324.132 4314.143 5242.372 4039.093 5941.723 4366.253 5438.532 6497.480 6513.349 2037.818 7242.549 8278.477 2499.097 6450.051 3553.272 6841.379 5335.424 5934.991 8476.747 4735.188 4984.434 4708.599 6478.171 1725.984 6451.700 4848.438 3930.117 6626.293 3003.965 3902.258 6560.711 4627.568 6130.425 6875.741 3933.266 5962.192 1272.745 10182.293 8287.124 5043.685 7234.205 1217.753 6672.928 5124.308 5388.245 6554.302 5598.728 2528.180 3419.173 3664.695 1070.855 6990.250 4986.244 6283.354 4971.311 6749.342 4563.160 3396.128 6666.284 5789.356 0.000 6723.716 4453.269 6564.123 2093.173
5726.464 678.885 877.179 854.082 5294.114 5218.787 2700.255 2761.004 1163.341 278.669 11008.699 2287.188 4814.565 5676.316 4914.667 6796.909 7662.790 1076.512 270.156 839.207 3614.549 9173.680 3870.025 9475.638 11281.359 1360.639 3656.645 4216.154 4918.895 3331.579 1489.480 6051.887 3261.674 2432.144 2383.856 189.339 3503.050 7131.818 5599.261 1452.389 10776.586 3850.226 1877.490 2452.469 3394.798 4531.793 8033.392 5.355 539.608 3407.321 4058.296 2779.623 1681.968 7420.258 1286.471 4328.370 4008.815 3904.964 1343.789 1998.958 1808.314 3843.752 2039.645 5430.857 2126.371 3157.635 3044.817 4633.032 3778.659 5797.106 3721.796 5297.025 9175.816 5313.723 3010.381 3089.898 3459.947 4025.290 5264.631 1451.697 289.846 944.776 3341.893 1954.217 1638.564 554.069 4328.428 2163.962 1305.700 5608.683 908.365 7634.289 5365.065 3609.341 1769.190 579.050 6490.879 3750.516 2039.763 5554.181 6728.105 3790.990 7010.231 3346.738 3842.402 4874.892 3735.674 1283.714 3862.017 2780.171 7374.618 4932.726 8633.587 2074.445 1907.972 5936.912 942.413 7087.961 1429.544 7106.369 4277.591 2387.252 3263.370 3322.855 3221.347 1952.384 5153.820 7679.806 3222.644 3436.223 1214.458 4346.169 5009.094 1394.356 3194.185 7499.115 5642.355 3643.878 2235.798 7246.202 3811.788 1916.620 4885.457 1984.878 5765.114 1261.092 3433.337 3155.363 985.822 2014.330 6269.813 7274.252 3735.749 7403.346 634.846 11401.135 775.716 3579.993 7626.480 2960.482 5867.584 1254.449 2065.005 6853.129 0.000 7881.717 1152.288 5371.889
4087.888 8084.192 8079.188 8057.944 3365.295 4262.746 9944.317 6621.854 7533.279 7637.233 6264.434 9240.742 4678.801 4283.045 5838.171 3672.978 4300.336 7446.450 7605.326 7912.036 6998.834 1827.367 5839.451 4992.688 5146.163 6682.530 5560.823 11263.751 4542.769 8985.097 8537.078 3495.872 6556.210 7311.135 7647.913 7871.157 5573.223 3937.134 7804.779 8948.230 12415.140 4528.504 6488.259 9029.005 7043.856 4052.178 331.051 7676.463 7819.148 5730.083 5120.758 6640.472 7575.898 4070.123 7587.043 3918.769 6004.950 4434.820 7936.791 9104.402 8412.011 4591.101 8074.368 3738.901 8648.730 5299.793 6808.982 5210.672 4456.937 3164.694 11050.404 2871.812 2113.039 4508.967 6622.428 7146.322 5654.789 4213.562 6165.061 8532.054 7569.386 7410.516 5264.947 9241.051 8008.502 7959.376 5359.362 8340.681 8386.058 3346.452 7070.152 2714.854 4560.309 6278.428 7326.428 8260.868 6169.453 6236.767 9145.207 4718.558 7257.298 10838.588 7778.688 6674.084 5272.246 4642.131 6341.819 6899.826 5250.265 7888.857 4359.782 5856.231 5763.445 9280.055 9236.579 6274.665 7408.153 7409.433 7799.482 3682.241 5277.873 9434.849 5807.757 6715.693 7027.678 8928.496 4043.565 3377.323 6603.349 5539.303 7584.396 3629.275 6352.583 8598.218 7019.217 9905.993 5497.496 6220.777 8412.517 5395.801 11140.396 9245.227 7494.010 9271.712 4340.152 7631.030 6855.567 5475.831 8058.650 8049.053 2313.243 1514.694 5559.991 3646.917 7948.353 6495.654 7241.456 7362.959 4183.174 6356.477 2606.864 7624.387 6747.459 4477.152 7681.819 0.000 7522.226 4261.634
4965.932 1448.328 1128.280 1692.515 4878.666 4803.340 2777.078 3599.437 126.422 1165.651 10593.252 2022.209 4054.033 5260.868 4062.487 6318.998 6810.611 317.441 1199.186 1546.607 4362.654 8758.233 4708.458 9060.190 10865.911 945.192 3715.531 4096.513 4556.587 2262.863 1369.839 5362.030 3920.029 3270.577 3222.289 1412.707 3727.931 6716.370 6437.694 2246.854 11615.019 3434.779 1462.043 1721.543 2542.619 4053.883 7617.944 1218.014 1183.285 4245.754 3831.951 3618.056 645.649 6568.079 134.183 3912.922 4847.248 3489.517 811.050 1937.163 2646.747 3215.553 2878.078 4952.947 1341.267 2665.776 3883.250 3780.852 3363.211 5319.195 4142.367 4881.577 8760.369 4898.276 3848.814 3928.331 3759.603 3547.380 4412.452 2166.625 933.523 1045.088 2489.714 2748.683 701.040 1323.512 3476.248 3002.395 2020.629 5130.773 374.199 7041.575 4949.617 2757.162 747.318 1732.255 6607.452 4588.949 1977.968 5138.733 7566.539 3671.349 7848.664 4185.171 3426.954 4114.360 4574.107 868.266 3446.570 3618.604 6522.439 4080.547 8218.140 2868.911 2328.543 6694.841 1042.725 7845.889 632.243 6628.458 3425.411 2267.611 2847.922 4079.512 4059.780 2790.817 4738.372 6827.627 3967.169 3694.011 320.129 3930.722 5847.527 2232.789 4032.618 8293.581 4790.176 4482.311 3074.231 6830.755 4064.633 2337.190 5723.890 2779.344 5349.667 463.792 4219.386 2303.184 1693.222 2852.763 5854.366 6858.805 4387.140 6987.898 1312.489 10985.687 876.028 4418.426 6774.301 3798.915 5452.136 339.257 1538.410 6437.682 1223.369 7466.270 0.000 4956.441
4154.898 5325.032 5320.028 4836.870 1294.030 801.044 7185.157 2877.516 4774.119 4878.074 6360.607 6481.582 3850.576 978.213 5215.283 4597.889 5949.866 4687.290 4846.166 4587.938 3316.555 5984.303 1787.214 5112.401 6918.122 3923.370 2275.376 8504.592 386.084 6577.050 5777.918 4014.243 2873.931 3154.450 3491.228 5111.997 2339.455 2611.679 3854.709 5309.721 8724.356 1302.278 3729.099 6269.846 4016.206 2872.432 4388.731 4917.303 5059.989 1985.745 1898.718 2896.134 4816.739 5707.334 4897.250 2176.330 1848.265 2061.255 5177.631 6345.242 4255.326 3173.396 3917.683 2914.563 5889.570 2891.746 2652.297 4587.784 1317.303 3720.949 8291.244 2312.804 4997.228 528.030 2878.090 2989.637 2078.678 2848.168 5565.247 4870.737 4810.227 4651.357 3378.214 5497.184 5249.343 5200.216 4736.474 4183.996 4724.740 3297.268 4310.992 5324.011 579.371 4417.611 4891.223 5501.708 2237.206 2200.128 6386.047 768.487 3307.227 8079.428 3828.618 2550.087 2498.238 3910.903 2185.134 4140.666 2656.320 3732.172 5661.694 5233.342 3985.495 5536.189 6477.420 2324.595 4648.994 3475.643 5040.322 4499.638 4654.985 6675.690 2872.356 3033.414 2976.251 4771.811 455.717 5615.914 2897.417 1941.893 4825.236 1940.910 2195.898 4854.351 2895.220 5955.923 5595.734 2079.307 4255.832 2548.100 8381.236 6486.067 3337.325 5527.846 1044.895 4871.871 3173.287 3572.340 4603.281 3892.368 2312.206 3266.408 1751.273 2957.865 5189.193 6933.920 4482.296 3238.962 5913.556 2612.139 2814.791 4865.227 3988.299 2155.026 4922.659 4300.505 4763.066 0.000
NODE_COORD_SECTION
1 3060.122985 -1740.787293
2 -2205.249879 -2289.111697
3 -2174.061603 -2560.368619
4 -1898.233490 -1631.998529
5 1682.069194 450.752682
6 1170.211280 390.321109
7 -3381.298435 -3638.184323
8 -976.784971 -455.144736
9 -1266.025515 -2753.716595
10 -1692.267214 -2269.461304
11 2162.695266 5270.291899
12 -2475.213630 -3663.715769
13 2147.435279 -1975.922773
14 827.117764 1132.109665
15 2240.932298 -2509.758716
16 3994.457400 -1319.410860
17 4661.810862 -2274.748436
18 -1246.878749 -2485.889820
19 -1671.830763 -2236.919747
20 -1405.059328 -1781.480967
21 -1113.772239 -1160.415818
22 4556.497462 1340.531300
23 -410.234206 -28.190602
24 2188.702439 3966.437458
25 3391.819928 4996.966354
26 -832.432957 -2252.461410
27 -7.575075 -1013.588018
28 -3992.872658 -4394.441957
29 370.291184 444.488375
30 -1708.004060 -4184.225181
31 -2395.274819 -3057.055588
32 3127.109796 -1301.162795
33 -1010.748938 -1004.668849
34 -1881.853155 -518.132837
35 -2057.601877 -755.201877
36 -2071.493263 -2055.268479
37 -142.069969 -1098.808449
38 1832.688380 2120.088837
39 -1533.746149 1297.052903
40 -2913.223762 -1987.134715
41 -4199.475339 5504.886911
42 673.774758 -579.808614
43 -797.823130 -1779.730729
44 -1831.635724 -3883.419524
45 85.232789 -2261.762376
46 1820.850683 -1395.072074
47 4516.511933 998.708484
48 -1895.633078 -2138.783980
49 -1948.232942 -2335.263920
50 -350.877622 -460.244145
51 383.184655 -836.336431
52 -995.324975 -456.831725
53 -922.849393 -2840.517039
54 4450.883840 -2190.073818
55 -1203.480610 -2859.067846
56 1475.326515 -874.954543
57 -660.948632 9.651601
58 1031.471183 -943.795284
59 -1876.231835 -2797.948914
60 -2866.220022 -3282.724289
61 -2352.006213 -1104.772135
62 1326.816266 -1871.714694
63 -2352.739201 -872.412287
64 1783.670030 -833.511390
65 -1851.462690 -3570.814405
66 605.842192 -1975.907625
67 -1770.471342 32.685069
68 1903.243708 -2417.031844
69 714.471973 -609.460182
70 3071.240572 -1073.359594
71 -4645.172391 -3736.845840
72 2274.761414 -225.837831
73 4864.336827 1570.134040
74 437.773417 857.339389
75 -992.127754 -718.414837
76 -1548.189132 -256.462044
77 -147.124984 -1001.776879
78 1474.864924 -1577.503937
79 2427.043163 -2757.519825
80 -1105.593221 -1558.228348
81 -1800.429824 -2337.836935
82 -1376.555578 -1938.477200
83 868.644475 -2408.844636
84 -2965.664608 -1672.862133
85 -1526.782206 -3109.407362
86 -2161.634633 -2292.330979
87 1638.535554 -2455.322034
88 -2247.312303 -1002.112025
89 -1218.111580 -1694.111472
90 2713.654981 -937.735684
91 -1265.529679 -2423.448111
92 4780.486621 -1223.094769
93 439.552414 921.367575
94 689.061097 -3053.060237
95 -661.509974 -2901.022859
96 -2234.804401 -2334.001829
97 -196.521867 2208.221190
98 -790.885714 -92.789841
99 -2963.362514 -3192.871135
100 339.320401 1016.324151
101 -1134.484664 2350.965805
102 -3628.166256 -4665.975247
103 -1514.254312 2111.888466
104 -970.207376 -178.996236
105 345.504223 -1221.551242
106 2197.088035 -2136.162184
107 -884.885298 119.245778
108 -824.116004 -2408.350888
109 947.565325 -1676.727268
110 -2285.468908 -468.912813
111 4171.589929 -2197.158066
112 2210.978343 -2582.782953
113 1588.815820 3564.876223
114 -3007.878856 -1662.987768
115 -3225.387005 -2949.505466
116 -558.115656 2033.196377
117 -1385.770283 -1945.335868
118 -892.375142 2907.894639
119 -1706.066266 -2863.965138
120 3922.366599 -931.635585
121 1663.754253 -2527.937994
122 -3099.742150 -3406.509115
123 208.131582 -1778.248476
124 -1082.554963 -899.373243
125 -1278.477322 -258.286182
126 -1844.222152 -1191.427556
127 863.770220 611.217279
128 4637.382442 -1601.531557
129 -991.377997 -961.694206
130 -105.115615 -881.939625
131 -1412.726440 -2801.808363
132 1533.764806 -523.753069
133 -829.844551 859.662777
134 -2390.898776 -1724.885002
135 -1458.297224 -274.989251
136 -3671.518311 2259.101287
137 2868.861301 -2279.585549
138 -900.511355 -6.261253
139 -2321.834116 -948.795884
140 827.690840 2276.565291
141 -4119.203545 -4083.810354
142 -3295.002037 -2913.437398
143 -2308.083465 470.788452
144 -2996.301040 -1671.633978
145 779.138836 1127.677171
146 -1543.009554 -2827.727990
147 -1237.951386 -981.605813
148 751.091318 -2552.428921
149 -1459.058849 -1768.490536
150 -2333.597765 -888.977593
151 2603.042837 791.022949
152 3530.876341 1087.479405
153 -244.538935 -418.172334
154 2214.555500 2120.947926
155 -2151.049672 -2289.254821
156 2337.776893 5616.413278
157 -1365.916008 -2042.483178
158 -1639.779869 -507.744234
159 4652.160927 -2158.043035
160 -796.902275 -812.585959
161 2781.949541 -49.651632
162 -1366.350761 -2864.068225
163 -293.813591 -2298.784295
164 1318.836385 1933.143472
165 -1900.401877 -2136.347151
166 4364.169975 833.237096
167 -1191.127036 -2725.455217
168 609.478598 573.643681
DEMAND_SECTION
1 0
2 92
3 68
4 67
5 83
6 91
7 90
8 79
9 62
10 95
11 97
12 69
13 100
14 75
15 64
16 54
17 90
18 56
19 94
20 86
21 91
22 61
23 86
24 72
25 60
26 98
27 98
28 88
29 88
30 69
31 65
32 86
33 85
34 97
35 73
36 87
37 69
38 62
39 57
40 76
41 55
42 67
43 82
44 75
45 65
46 94
47 96
48 93
49 100
50 66
51 72
52 66
53 80
54 57
55 100
56 99
57 61
58 90
59 60
60 74
61 94
62 90
63 64
64 73
65 52
66 51
67 81
68 99
69 92
70 92
71 69
72 56
73 69
74 80
75 67
76 79
77 59
78 83
79 65
80 97
81 86
82 97
83 97
84 90
85 72
86 76
87 54
88 74
89 91
90 54
91 76
92 58
93 75
94 58
95 61
96 56
97 99
98 82
99 95
100 71
101 61
102 99
103 83
104 50
105 82
106 53
107 56
108 80
109 96
110 72
111 53
112 75
113 66
114 62
115 89
116 77
117 60
118 70
119 50
120 75
121 55
122 75
123 84
124 64
125 82
126 61
127 64
128 72
129 51
130 60
131 68
132 64
133 80
134 55
135 79
136 76
137 63
138 59
139 81
140 53
141 51
142 54
143 88
144 82
145 50
146 63
147 71
148 83
149 85
150 90
151 98
152 98
153 50
154 77
155 83
156 64
157 80
158 54
159 94
160 56
161 70
162 78
163 76
164 100
165 99
166 97
167 92
168 66
DEPOT_SECTION
1
-1
EOF
