NAME : mamut-mexico_city-n187-k9-hyb
COMMENT : Mamut2026 fastest metric; city mexico_city; No of trucks: 9 (lower bound, fleet not fixed); 3-decimal seconds/meters; ENU ref in mamut-mexico_city-n187-k9-hyb.vrp.json
TYPE : CVRP
DIMENSION : 188
EDGE_WEIGHT_TYPE : EXPLICIT
EDGE_WEIGHT_FORMAT : FULL_MATRIX
CAPACITY : 1203
EDGE_WEIGHT_SECTION
0.000 1465.433 871.563 422.380 373.670 239.401 471.148 1120.872 186.813 323.985 334.579 624.712 469.164 1236.879 772.724 868.022 482.227 1180.363 899.585 709.727 1210.016 424.461 471.173 452.934 494.996 635.538 499.601 1028.338 1153.158 1161.685 348.501 1140.153 429.512 1399.596 783.688 798.875 544.105 407.553 1463.143 2470.426 1082.909 449.280 542.981 852.703 827.008 1410.412 683.276 375.485 887.039 947.077 481.781 703.043 766.660 532.775 268.069 1249.649 711.323 1369.041 864.675 996.668 564.086 876.865 1008.172 682.527 631.887 1008.848 1587.525 1468.611 1238.969 1247.342 935.116 719.695 1299.197 1346.710 3380.877 1073.206 1119.209 1555.818 980.085 1032.340 1136.328 1569.317 1030.526 1040.289 643.588 1794.244 909.951 785.759 1439.850 1164.325 390.722 1631.824 721.015 540.142 749.304 1203.499 776.062 1201.730 1565.657 1444.242 1143.420 736.470 375.003 1535.710 841.908 899.414 677.223 561.250 1851.591 917.481 1282.780 1005.485 1378.912 1061.679 761.794 957.510 742.430 1570.748 490.626 615.536 840.841 2791.775 3864.181 1427.020 635.822 1128.198 2144.211 1623.388 1184.099 978.637 240.097 1646.854 1378.109 1080.197 1253.474 973.950 914.875 911.105 1220.618 1451.095 916.734 1804.008 887.668 835.931 1021.899 1530.089 3103.632 430.320 488.675 1201.641 279.057 1449.178 1736.479 532.779 1120.169 1217.902 1476.236 358.672 1081.323 1332.526 1021.162 1049.019 742.835 1309.312 1533.231 1321.133 1537.961 2014.046 879.065 1046.756 1201.923 414.159 985.952 497.630 1078.001 1278.133 731.443 895.864 1610.008 510.999 548.571 425.890 1616.933 1107.949 2913.507 484.994 1423.838 1488.896
1548.429 0.000 1622.956 1363.241 1358.972 1595.599 1233.517 1856.464 1531.704 1442.547 1640.243 1022.651 1309.809 2511.062 1297.735 1603.614 1514.207 2515.301 1928.569 1723.786 577.425 1314.705 1297.454 1274.618 1800.660 1655.769 1425.804 1134.339 1888.750 1450.920 1362.240 1405.929 1466.958 1070.230 2118.626 820.429 1500.305 1331.186 2498.487 2368.704 2439.107 1640.366 1632.299 1588.296 1650.151 646.082 924.604 1713.371 1748.729 1697.379 1286.164 2059.241 2072.324 1502.087 1491.003 547.470 1646.862 2643.224 2140.749 1743.657 1869.750 887.702 748.416 1343.544 1929.258 1500.755 495.967 2503.955 2595.167 825.421 2270.054 1469.812 1256.527 2082.302 4569.876 691.483 1802.902 1454.096 1330.636 2308.414 1753.125 1065.885 1541.270 1181.031 1999.786 3129.182 968.459 1315.382 2514.892 1872.878 1713.307 220.192 1559.194 1395.076 1836.693 779.473 2132.260 1112.075 147.512 895.974 1188.291 980.015 1339.696 1045.803 2139.279 722.655 1200.204 1917.448 2398.398 2270.065 2319.962 1578.014 2735.110 585.729 1764.983 1731.073 1986.386 1056.135 1814.199 1900.311 2077.806 3040.901 4901.363 2616.019 1472.812 1026.476 2393.337 1130.386 918.609 1728.938 1367.305 1895.981 1018.573 1695.426 1864.330 2271.768 1690.132 1913.023 2559.598 2640.094 1963.255 439.925 1962.711 1746.928 566.558 89.771 4140.814 1786.517 1141.803 1796.813 1542.413 2069.131 644.438 1094.812 2437.063 2372.106 688.174 1581.205 2437.520 852.346 2356.100 2143.674 1086.060 336.581 2568.575 2056.725 92.608 2263.172 1105.966 1782.348 1806.933 1642.836 2342.150 1102.163 1702.153 535.037 1509.973 732.772 849.428 1261.221 1335.505 1762.778 193.959 2464.146 3950.689 1341.800 851.529 670.395
973.265 1617.629 0.000 1149.846 1022.607 1011.488 772.831 1883.571 996.856 1087.272 1039.670 1163.887 1196.629 1450.239 859.754 1628.770 1270.559 1813.473 1687.917 1498.059 1490.487 1099.486 1198.639 1168.300 1057.846 1423.870 1265.196 1568.039 1915.857 1889.151 675.392 1867.618 1218.793 643.329 1416.798 1079.346 1309.700 1135.019 2251.475 3071.764 1751.339 1244.296 1323.224 1613.451 1606.896 1667.262 963.747 1128.341 1675.370 1709.167 1144.288 1336.153 1032.401 1311.482 1031.356 1296.678 1498.105 1582.401 1079.926 207.676 1119.365 1173.704 1288.643 640.260 1379.572 323.927 1438.314 2256.943 1907.399 992.916 1568.226 750.770 542.930 2109.409 4157.615 1190.344 330.217 2157.157 1634.889 1247.591 371.691 985.441 1757.992 1612.536 1269.295 2427.354 1405.852 872.789 1405.548 375.333 1143.578 1695.146 529.991 1311.247 1529.547 1105.741 1462.734 1803.068 1717.854 1139.487 1683.122 1021.705 1018.947 1047.084 1512.024 1179.885 1371.190 1251.643 1087.098 1375.699 2071.112 219.238 2047.342 1342.150 1550.125 594.435 1546.102 847.504 928.325 943.677 1579.270 3519.241 4652.513 2203.758 1406.390 1729.537 2871.677 867.121 1012.393 1740.726 887.790 2374.320 700.348 315.560 464.482 1607.060 1681.904 1699.437 1853.728 2254.768 1705.066 1956.205 901.888 526.462 1302.370 1632.764 3891.964 1076.986 1064.984 437.005 1089.100 709.323 1431.724 1071.954 1376.241 2021.575 1318.077 1162.345 1749.753 1105.192 1654.272 1852.691 1397.639 1433.001 2321.563 2083.832 1644.365 2741.511 1516.301 1809.455 437.287 1190.223 1654.382 949.032 1805.467 1270.066 441.458 1176.335 1305.253 1114.895 1279.734 1178.746 1668.913 1798.341 3701.839 1228.621 1119.083 1339.684
407.700 1255.061 1036.498 0.000 246.238 353.397 449.102 841.419 266.331 184.118 445.048 401.333 127.187 1342.060 794.000 588.568 269.642 1280.722 740.036 520.852 954.875 125.194 132.530 114.291 604.863 452.835 214.638 689.694 873.704 823.042 513.435 801.509 213.765 1436.000 884.048 734.040 259.141 65.577 1303.593 2131.782 1186.714 384.751 392.330 573.250 556.338 1143.823 651.489 454.937 661.328 667.624 143.138 806.848 877.130 260.923 225.630 1150.021 451.626 1474.222 969.856 1161.603 671.788 648.401 699.160 731.193 694.680 1047.959 1487.897 1309.061 1342.774 1147.714 1035.476 758.807 1338.309 1067.257 3363.805 937.834 1284.144 1217.175 641.442 1137.521 1259.319 1469.689 691.882 701.646 747.393 1894.604 571.308 807.035 1566.179 1329.260 454.873 1421.452 849.604 258.713 630.622 1103.871 879.867 863.086 1355.285 1344.614 804.777 697.881 272.256 1436.082 904.701 774.828 338.580 665.055 1890.703 1021.286 1123.230 1084.209 1482.718 926.308 572.918 1031.284 780.315 1484.569 595.807 720.717 871.735 2453.132 3704.632 1409.948 355.831 789.555 1805.567 1542.324 1137.729 699.183 350.139 1308.211 1291.930 1201.620 1407.851 1060.740 644.425 751.555 1324.423 1434.023 757.184 1593.637 1013.997 962.259 811.527 1319.717 2944.082 534.125 296.652 1340.334 276.256 1575.507 1636.851 350.998 1223.974 1182.599 1376.608 322.771 1185.128 1232.898 1121.522 954.168 404.192 1098.940 1373.682 1041.679 1327.590 1675.402 540.422 767.302 1313.127 384.402 1089.757 458.979 739.357 1178.505 814.192 746.897 1510.380 218.933 253.724 504.344 1406.561 1211.754 2753.957 159.178 1324.210 1389.268
260.295 1320.219 889.093 237.204 0.000 307.464 335.675 979.336 254.876 162.668 352.108 460.789 283.988 1265.632 680.573 726.486 407.560 1248.426 862.224 658.770 1064.802 186.844 285.998 257.467 512.525 590.753 352.555 832.870 1011.622 976.510 366.030 954.977 351.683 1325.280 851.751 653.662 397.059 222.378 1425.782 2274.958 1150.972 423.716 497.531 711.168 694.255 1265.198 538.062 443.548 799.245 805.541 231.647 771.106 784.190 398.841 205.663 1104.435 589.544 1397.794 893.427 1014.198 581.615 720.178 842.336 617.766 699.951 934.532 1442.312 1431.250 1307.032 1102.128 1003.179 645.379 1224.881 1205.174 3426.046 927.992 1136.739 1360.351 784.617 1061.092 1145.891 1424.103 845.351 844.821 711.651 1862.307 714.484 693.608 1472.846 1181.855 458.785 1486.610 738.545 398.606 703.854 1058.285 844.125 1006.262 1420.443 1299.028 947.953 584.453 163.413 1390.496 909.971 754.201 487.521 629.313 1777.275 981.930 1245.419 970.781 1446.976 916.466 710.836 917.857 804.122 1425.535 558.689 645.482 902.533 2606.600 3826.820 1472.189 493.749 932.731 1959.036 1496.739 1032.082 837.101 178.787 1461.679 1232.895 1088.192 1271.004 1042.013 782.342 873.744 1288.681 1496.264 879.373 1658.795 920.664 868.926 876.685 1384.876 3066.271 498.383 312.142 1219.171 315.221 1482.174 1591.266 366.488 1188.232 1263.071 1331.022 361.736 1149.386 1187.312 1089.225 1071.278 547.368 1164.098 1495.871 1179.597 1392.748 1828.870 683.598 905.220 1199.700 423.367 1054.015 345.551 892.825 1132.920 700.765 750.650 1464.794 234.430 407.035 493.953 1471.719 1176.012 2876.146 315.979 1278.624 1343.682
197.915 1506.621 861.262 388.364 400.526 0.000 512.336 1026.144 176.313 289.969 127.587 665.900 423.207 1018.691 813.912 773.294 387.499 962.175 791.893 602.036 1251.204 390.445 437.157 418.918 281.495 527.846 404.873 994.322 1058.430 1121.143 370.141 1099.611 334.784 1419.275 565.500 840.064 449.377 373.537 1355.451 2436.409 864.721 335.243 419.419 757.975 719.316 1448.451 724.464 186.155 779.347 852.349 447.765 484.855 559.668 438.047 265.275 1290.837 589.052 1150.854 646.487 986.044 349.796 918.053 1003.787 723.715 441.023 1050.036 1628.713 1360.919 1020.781 1288.530 716.928 760.883 1318.875 1251.982 3286.499 1114.394 1108.586 1521.802 946.069 814.152 1138.598 1610.505 989.984 1006.273 425.400 1576.056 875.935 826.948 1313.877 1153.701 234.524 1673.012 597.302 445.414 621.644 1244.687 557.874 1167.714 1606.845 1485.430 1109.404 777.659 416.191 1576.898 651.043 940.602 643.207 343.062 1746.916 699.294 1175.088 995.183 1160.725 1102.868 654.102 998.698 648.051 1611.936 272.439 397.348 727.972 2751.233 3756.490 1332.642 541.094 1094.182 2103.669 1643.066 1225.287 883.909 281.285 1606.312 1419.297 1082.467 1242.851 755.762 807.183 803.413 1002.430 1356.717 809.042 1845.197 761.695 709.958 1063.087 1571.277 2995.940 212.132 529.863 1203.911 205.099 1323.206 1777.667 573.967 901.981 1123.524 1517.424 280.378 863.135 1373.714 802.974 954.640 708.819 1350.500 1425.540 1226.405 1579.150 1973.504 845.049 952.028 1204.193 281.169 767.764 538.819 1037.459 1319.322 772.631 937.052 1651.196 476.983 453.843 236.561 1658.121 889.761 2805.815 397.768 1465.026 1530.084
435.446 1117.139 690.987 381.157 301.037 482.616 0.000 1114.883 430.027 386.578 527.259 397.837 427.941 1376.735 402.319 860.081 551.512 1423.577 1021.906 802.722 861.723 330.797 429.950 399.611 687.676 734.705 496.508 858.845 1147.168 1120.463 176.324 1098.930 495.635 1047.027 1026.902 450.582 541.012 366.331 1585.463 2305.714 1326.124 606.291 674.200 844.762 838.208 1062.118 334.982 614.632 943.198 940.478 375.600 946.257 949.642 542.793 388.237 900.631 733.496 1508.898 1004.531 816.092 756.766 520.791 659.878 339.512 871.034 656.278 1238.507 1590.931 1482.183 898.324 1178.330 367.126 946.628 1340.721 3608.620 724.913 929.368 1391.106 866.200 1172.196 867.638 1220.299 989.303 875.577 886.802 2037.458 696.657 415.354 1427.351 983.749 629.869 1283.531 501.339 542.558 886.429 854.481 1019.276 1037.018 1217.364 1095.224 973.927 380.396 281.761 1186.692 1081.054 551.121 602.502 804.465 1499.022 1157.081 1405.101 692.528 1622.127 713.386 854.788 639.603 979.273 1222.455 669.280 755.393 1077.684 2750.552 3986.502 1654.763 637.701 963.487 2102.988 1270.819 828.025 972.038 244.672 1605.632 1029.816 809.939 1016.170 1217.164 913.215 1033.425 1463.832 1678.838 1039.055 1455.715 875.170 689.073 673.606 1181.796 3225.952 673.534 296.295 948.653 497.796 1220.971 1387.461 305.904 1300.846 1445.645 1127.218 544.311 1324.537 983.508 1264.376 1236.038 628.950 961.018 1655.552 1315.143 1189.668 1972.823 750.251 1040.766 921.447 605.941 1229.166 176.201 1036.778 929.115 422.511 547.571 1260.990 346.206 511.045 665.037 1268.640 1351.163 3035.827 459.932 1074.820 1139.878
1151.233 1801.550 1780.032 855.448 1016.036 1049.511 1173.089 0.000 982.263 953.916 1125.104 1112.032 765.919 1782.929 1517.987 373.892 768.223 1180.211 411.364 521.940 1501.446 909.692 790.776 845.445 1251.304 588.662 734.699 1242.177 467.674 1015.336 1256.969 993.803 815.492 1994.136 783.537 1363.399 728.477 825.060 784.836 2422.158 1624.637 858.384 741.609 424.937 466.599 1690.395 1389.592 984.039 539.817 692.536 896.375 894.905 1516.110 730.258 984.969 1703.343 692.340 1915.091 1616.297 1905.137 1301.255 1273.933 1251.643 1455.181 976.140 1771.947 2046.033 968.394 1780.697 1705.850 934.965 1482.794 2062.296 328.860 3102.789 1503.846 2027.678 1622.268 1124.038 1783.962 1983.306 2027.825 786.756 1254.129 1217.138 1731.239 1123.791 1531.022 2264.412 2072.794 999.775 1967.942 1560.426 702.702 747.319 1662.007 1212.511 1415.569 1901.775 1902.750 1357.260 1425.763 1027.136 1994.218 942.274 1332.259 824.917 1310.448 2614.690 1459.209 831.260 1808.196 1920.640 1485.752 574.006 1755.271 695.834 2042.705 1242.248 1367.158 721.093 2206.570 3411.304 1148.932 626.024 1342.038 1908.146 2100.460 1706.791 710.932 1112.723 1410.789 1850.066 1925.607 2131.838 849.779 468.848 395.818 1231.685 1173.007 484.536 2140.126 1724.820 1673.082 1358.017 1866.207 2613.054 1156.740 989.290 2064.321 893.213 2286.330 2194.987 1043.637 1661.897 854.901 1934.744 929.739 1623.051 1791.034 1021.011 626.469 899.826 1645.429 1033.014 257.489 1874.079 1777.980 1067.459 440.499 2037.115 983.054 1527.680 1186.861 652.312 1731.828 1538.179 1299.380 2068.516 911.571 693.010 948.070 1953.051 1650.373 2422.929 774.063 1882.346 1947.404
265.566 1477.990 909.736 293.368 318.827 202.854 474.831 934.060 0.000 208.271 294.505 624.262 323.621 1163.659 776.407 681.209 295.415 1052.387 712.773 522.915 1177.804 308.746 355.459 337.220 426.463 448.725 312.789 912.623 966.345 1029.059 386.673 1007.526 242.699 1403.279 655.712 830.424 357.292 278.542 1276.330 2354.711 1008.314 262.468 356.168 665.891 640.195 1366.752 716.379 266.963 700.226 760.264 366.067 623.543 707.552 345.962 183.577 1276.769 524.510 1295.822 791.455 1034.841 493.388 871.330 922.089 686.210 498.200 1012.531 1614.645 1281.798 1164.374 1274.462 807.141 723.378 1302.880 1159.897 3194.065 1102.479 1157.382 1440.104 864.370 959.120 1174.500 1596.437 897.899 924.574 568.993 1666.268 794.237 789.442 1416.924 1202.498 263.867 1644.381 700.349 353.329 562.491 1230.619 701.467 1086.015 1578.214 1471.362 1027.706 756.535 369.331 1562.830 704.029 930.962 561.509 486.655 1849.962 842.886 1095.968 1043.657 1304.317 1093.228 574.981 961.193 555.617 1602.297 417.407 542.317 654.028 2659.148 3677.369 1240.208 449.009 1012.484 2011.584 1627.071 1204.163 791.824 243.405 1514.228 1409.657 1118.370 1291.647 832.405 728.062 724.292 1103.861 1264.283 729.922 1816.566 864.742 813.005 1034.456 1542.646 2916.819 355.724 491.983 1239.814 92.244 1426.252 1763.599 546.329 1045.573 1031.090 1503.356 171.860 1006.727 1359.646 893.187 862.206 627.121 1321.869 1346.419 1134.320 1550.518 1881.419 763.351 859.943 1240.096 227.346 911.357 517.633 945.374 1305.254 735.126 927.412 1637.128 395.284 361.759 317.368 1629.490 1033.353 2726.694 298.181 1450.958 1516.016
338.905 1336.856 967.704 177.324 149.448 300.361 352.312 919.455 213.296 0.000 392.012 477.426 224.107 1289.024 697.210 666.605 318.636 1231.132 735.994 546.136 1048.462 173.032 226.117 207.878 551.827 471.946 292.674 783.281 951.741 916.629 444.641 895.096 269.272 1341.918 834.457 670.299 337.178 162.497 1299.552 2225.369 1133.679 362.124 425.406 651.287 634.374 1237.411 554.699 403.061 723.447 745.660 217.834 753.812 824.094 338.960 92.789 1121.072 529.663 1421.187 916.820 1092.808 618.753 736.815 792.747 634.403 659.463 951.169 1458.949 1305.020 1289.738 1118.765 985.885 662.016 1241.518 1145.293 3359.763 944.630 1215.350 1310.762 735.029 1084.485 1162.529 1440.740 785.470 795.233 694.357 1845.013 664.895 710.245 1513.143 1260.465 418.298 1503.248 796.230 338.725 626.580 1074.923 826.831 956.674 1437.080 1315.666 898.364 601.090 199.951 1407.133 869.484 770.838 432.167 612.020 1793.913 968.251 1119.189 987.418 1429.682 933.103 598.202 934.494 763.113 1442.172 542.771 667.681 861.524 2546.719 3700.590 1405.906 433.868 883.142 1899.155 1513.376 1048.719 777.220 253.349 1401.798 1249.532 1104.829 1311.061 1024.719 722.461 747.513 1271.387 1429.981 753.143 1675.432 960.961 909.224 893.322 1401.513 2940.040 481.089 328.779 1243.544 253.629 1515.862 1607.903 383.125 1170.938 1178.558 1347.659 300.144 1132.092 1203.950 1071.931 950.126 497.779 1180.735 1369.640 1119.716 1409.385 1768.989 634.009 845.339 1216.337 361.775 1036.721 362.188 832.945 1149.557 717.402 767.287 1481.431 225.905 347.155 453.466 1488.357 1158.718 2749.915 256.098 1295.261 1360.320
242.476 1515.003 865.932 472.220 443.241 97.814 533.633 1077.044 260.169 373.826 0.000 674.282 474.108 974.777 837.303 824.194 438.399 1012.241 842.794 652.936 1259.586 474.301 521.014 502.775 272.652 578.746 455.773 1078.178 1109.330 1172.043 374.811 1150.511 385.684 1423.944 615.567 848.446 500.277 457.394 1406.351 2520.266 914.788 386.143 470.319 808.876 770.216 1459.982 732.846 237.055 830.247 903.249 531.622 534.922 523.792 488.947 349.132 1299.219 639.952 1106.940 602.573 990.714 341.742 926.435 1057.742 747.106 474.067 1073.427 1637.096 1411.819 1070.848 1296.912 766.995 784.274 1323.545 1302.882 3337.399 1122.776 1113.255 1605.659 1016.381 770.238 1143.268 1618.887 1040.884 1090.129 475.466 1626.123 959.792 850.338 1318.547 1158.371 285.425 1681.394 601.972 496.314 672.545 1253.069 607.940 1251.570 1615.227 1493.812 1193.261 786.041 439.582 1585.280 684.087 948.984 717.259 393.129 1751.586 742.057 1225.989 999.853 1210.791 1111.250 705.002 1022.089 698.951 1620.319 228.525 353.435 778.038 2802.133 3807.390 1383.542 591.994 1178.039 2154.569 1647.736 1233.669 934.809 304.676 1657.213 1427.679 1087.137 1247.521 805.828 858.083 854.313 1052.496 1407.617 859.943 1853.579 766.365 714.628 1071.469 1579.660 3046.840 262.198 553.254 1208.581 255.999 1327.875 1786.050 582.349 898.887 1174.424 1525.806 331.278 913.201 1382.096 853.041 1005.540 792.085 1358.882 1476.440 1277.305 1587.532 2024.404 928.906 1002.928 1208.863 332.069 817.831 547.201 1088.359 1327.704 796.022 945.434 1659.578 560.839 504.744 287.461 1666.503 939.827 2856.715 448.668 1473.408 1538.466
580.254 962.566 1038.855 468.676 390.797 627.424 412.182 1066.304 574.835 476.338 672.067 0.000 415.244 1577.650 736.374 811.502 619.642 1568.385 1089.626 866.256 707.149 390.913 402.888 351.032 832.485 798.239 531.239 515.261 1098.590 1067.167 515.792 1045.635 572.393 1101.241 1171.710 399.282 605.740 436.621 1653.184 1991.412 1470.932 743.675 737.734 796.184 824.656 907.545 481.707 763.507 923.233 891.900 362.373 1091.065 1104.149 607.521 525.622 815.262 797.030 1709.812 1205.446 1163.960 901.574 313.642 445.185 694.273 1019.910 1011.039 1153.139 1658.652 1626.991 812.956 1323.138 721.886 1195.125 1292.142 3713.396 603.076 1284.129 1076.804 600.022 1373.111 1222.398 1134.930 936.008 559.758 1031.610 2182.266 353.074 754.022 1640.096 1331.617 778.744 1128.957 856.099 545.615 980.213 769.113 1164.084 722.716 1062.790 1009.856 630.344 517.877 371.520 1101.324 1229.930 440.069 439.197 949.273 1853.782 1301.889 1472.821 1047.288 1766.935 591.549 918.322 994.364 1124.081 1149.811 870.195 956.307 1221.326 2697.257 4054.223 1759.539 624.532 649.184 2049.693 1207.566 802.971 923.459 423.301 1552.336 957.171 1164.699 1370.930 1361.972 864.637 1087.527 1608.640 1783.614 1106.775 1301.142 1087.914 1043.834 519.032 1027.222 3293.673 818.342 173.628 1303.413 635.180 1575.731 1302.093 126.637 1501.760 1532.190 1041.850 681.695 1469.345 898.140 1409.184 1303.758 355.447 806.445 1723.273 1266.564 1035.094 1919.527 435.949 992.187 1276.207 743.326 1373.975 278.976 983.483 843.747 777.271 414.341 1175.622 297.627 462.467 813.913 1114.066 1495.971 3103.548 447.235 989.451 1054.510
451.106 1243.763 1079.904 92.832 290.777 390.982 469.153 748.045 282.136 231.083 482.633 390.035 0.000 1347.008 814.051 495.195 221.248 1232.328 691.232 467.862 943.577 143.972 106.994 102.993 609.811 399.845 132.845 678.396 780.331 811.744 556.841 790.211 173.999 1424.702 835.653 722.742 207.345 60.777 1254.790 2120.484 1191.662 347.407 339.340 479.876 451.628 1132.525 685.656 420.412 556.618 574.250 161.099 776.467 890.901 209.127 262.137 1138.723 398.636 1479.170 974.804 1205.009 676.736 637.103 687.862 751.244 646.286 1068.010 1476.599 1260.258 1347.722 1136.416 987.081 778.858 1358.360 973.883 3315.002 926.537 1327.550 1205.877 630.144 1142.469 1279.370 1458.391 680.585 690.348 752.341 1846.209 560.010 827.086 1605.775 1372.666 420.347 1410.154 889.200 156.283 581.819 1092.573 884.815 851.788 1343.987 1333.316 793.479 721.826 290.864 1424.784 856.306 763.530 327.282 670.003 1910.754 1026.234 1074.427 1104.259 1487.666 915.010 519.928 1051.335 731.512 1473.271 600.755 725.665 822.932 2441.834 3655.828 1361.145 248.952 778.257 1794.270 1531.026 1126.431 605.810 387.254 1296.913 1280.632 1221.670 1427.902 1012.345 551.051 702.752 1276.626 1385.220 708.381 1582.339 1053.593 1001.856 800.229 1308.419 2895.279 539.073 285.354 1360.385 251.720 1615.103 1625.553 339.700 1228.922 1133.796 1365.310 288.246 1190.076 1221.600 1073.127 905.364 392.894 1087.642 1324.878 948.306 1316.292 1664.104 529.124 673.929 1333.178 349.876 1094.705 482.925 728.059 1167.208 834.243 735.599 1499.082 207.635 175.744 469.819 1395.263 1216.702 2705.154 48.841 1312.912 1377.970
1168.198 2347.183 1274.163 1340.829 1365.353 985.756 1374.019 1828.426 1148.112 1254.797 925.722 1600.004 1336.700 0.000 1470.668 1686.786 1272.229 1139.107 1462.722 1447.796 2091.767 1355.273 1396.881 1383.746 889.164 1396.411 1318.366 1959.150 1971.922 2034.636 1197.735 2013.103 1248.276 1805.772 1039.757 1680.626 1355.398 1326.003 2039.952 3401.237 796.989 1182.793 1287.984 1671.390 1565.077 2292.162 1565.026 1041.572 1625.108 1765.842 1412.593 959.112 635.032 1322.776 1230.103 2131.399 1457.617 224.633 413.745 1358.603 810.662 1774.984 1889.922 1379.432 1006.210 1506.871 2469.276 1990.458 953.049 2129.093 1191.185 1416.600 1705.372 1956.472 3421.586 1954.957 1460.994 2486.630 1878.973 289.113 1382.683 2147.884 1903.476 1971.101 848.029 1677.185 1840.763 1483.703 647.377 1443.290 1148.017 2513.575 1157.864 1358.906 1458.648 2085.250 627.366 2132.542 2447.408 2301.930 2074.232 1622.985 1365.304 2209.526 1134.982 1781.165 1579.851 849.599 1476.552 432.942 1859.590 1402.182 871.733 1943.430 1499.862 1654.415 1313.231 2009.946 816.787 627.162 1202.228 3664.725 4440.991 1679.945 1454.586 2059.010 3017.161 2029.563 2068.701 1797.401 1230.398 2519.805 1862.791 1337.147 1342.476 1230.019 1652.944 1474.241 1157.926 1940.929 1548.776 2685.759 998.502 1270.520 1903.650 2411.840 3680.441 956.711 1478.976 1242.806 1118.591 1004.510 2594.167 1508.071 198.275 1707.736 2357.987 1193.870 795.402 2214.277 1162.092 1494.803 1654.677 2191.062 2110.041 1980.312 2419.712 2886.996 1809.877 1865.520 1458.873 1194.661 645.562 1472.923 1950.951 2159.884 1428.348 1777.614 2467.696 1441.811 1367.336 1087.912 2498.684 956.007 3490.316 1311.260 2281.525 2370.647
765.881 1209.047 785.268 762.151 682.032 813.051 385.137 1495.877 760.462 767.573 857.695 768.810 808.935 1547.487 0.000 1241.075 932.507 1754.012 1402.900 1183.717 953.631 711.791 810.945 780.606 1018.112 1115.700 877.502 1099.458 1528.163 1501.457 483.650 1479.924 876.630 1157.036 1357.338 542.490 922.006 747.325 1966.458 2627.022 1656.559 964.878 1038.693 1225.757 1219.202 1154.026 426.890 945.067 1324.192 1321.473 756.594 1276.693 1129.649 923.788 746.825 993.264 1114.491 1679.649 1177.175 910.373 1080.732 661.059 751.786 319.000 1201.470 766.287 1331.140 1971.926 1812.619 990.957 1508.766 477.134 1056.636 1721.715 3948.156 816.821 1032.914 1712.415 1247.195 1344.839 977.647 1312.931 1370.298 1143.954 1217.238 2367.894 937.270 39.421 1551.318 1078.030 960.304 1375.439 595.619 923.553 1245.016 947.114 1349.712 1358.326 1309.272 1187.857 1214.540 484.849 662.755 1279.325 1411.490 643.029 983.496 1134.900 1609.030 1472.947 1786.095 802.536 1952.562 805.294 1235.783 706.529 1309.709 1314.363 889.691 983.542 1408.120 3131.547 4367.496 1994.299 1018.696 1284.795 2483.983 1380.827 922.327 1353.032 603.259 1986.626 1121.723 919.947 1126.178 1547.600 1294.210 1414.420 1794.268 2018.374 1420.049 1547.623 999.136 783.354 765.514 1273.704 3606.947 1003.969 677.289 1058.662 852.707 1330.980 1480.094 686.898 1473.489 1785.181 1219.851 902.898 1654.972 1076.141 1594.812 1612.440 1009.945 1052.926 2036.546 1696.138 1281.576 2353.817 1051.368 1421.761 1031.455 964.529 1559.602 513.482 1417.772 1021.748 532.520 639.479 1353.623 727.201 892.040 995.472 1360.548 1681.598 3416.822 840.926 1167.452 1232.511
869.317 1519.634 1498.116 573.532 734.120 767.595 891.173 320.983 700.347 671.999 843.188 830.116 484.003 1664.822 1236.071 0.000 486.306 1186.689 418.400 306.567 1219.530 627.776 508.859 563.529 969.388 376.365 452.783 960.261 322.711 813.166 975.053 791.634 533.575 1712.219 790.014 1081.483 446.560 543.144 1016.821 2219.988 1506.530 611.406 485.656 117.399 189.417 1408.478 1107.676 732.526 287.995 489.619 614.458 891.423 1250.477 448.342 703.053 1421.427 415.158 1796.984 1334.380 1623.220 1036.313 992.017 969.726 1173.264 751.080 1490.030 1764.117 1022.289 1662.590 1423.934 941.442 1200.877 1780.379 544.327 3109.267 1221.929 1745.762 1420.098 842.122 1502.045 1701.390 1745.908 584.586 972.212 1032.427 1737.716 841.875 1249.106 1995.085 1790.877 748.864 1686.026 1278.510 420.786 535.022 1380.091 1094.404 1133.653 1619.858 1620.834 1075.343 1143.846 745.220 1712.302 870.263 1050.342 543.000 1029.580 2332.774 1341.103 838.296 1526.279 1802.534 1203.836 304.249 1473.355 639.899 1760.789 960.332 1085.242 727.571 2353.540 3417.386 1155.410 344.108 1060.121 1705.976 1818.544 1424.875 508.762 830.806 1208.619 1568.149 1643.690 1849.921 856.257 259.763 402.854 1238.163 1179.485 490.618 1858.210 1442.903 1391.166 1076.100 1584.291 2656.836 898.649 707.374 1782.405 611.296 2004.413 1913.071 761.720 1543.790 861.378 1652.828 647.822 1504.944 1509.118 1027.488 632.947 617.910 1363.513 1086.910 518.750 1592.163 1575.810 785.543 238.330 1755.198 709.453 1409.573 904.944 450.142 1449.912 1256.263 1017.463 1786.600 629.655 411.094 696.557 1671.135 1532.266 2466.712 492.147 1600.429 1665.488
508.019 1424.605 1136.818 266.454 351.978 405.317 554.843 711.751 338.595 289.858 480.910 570.877 226.749 1330.575 899.740 458.900 0.000 1076.977 536.290 331.961 1124.419 324.814 283.951 283.835 607.110 263.944 111.162 859.238 744.036 906.709 613.755 885.176 108.024 1544.448 680.302 872.829 83.169 240.182 1099.848 2287.311 1172.284 215.993 203.439 443.582 384.456 1313.367 757.230 360.332 489.446 537.956 341.941 631.278 888.200 50.548 320.912 1319.565 279.745 1462.737 972.102 1261.922 674.035 817.945 868.704 836.934 490.935 1153.700 1657.441 1105.316 1328.343 1317.258 831.731 864.547 1444.049 937.589 3160.059 1107.378 1384.464 1384.416 751.046 1139.767 1365.059 1639.233 775.549 871.190 690.168 1690.858 740.852 912.775 1632.807 1429.579 360.267 1590.996 916.232 181.535 426.876 1273.415 760.158 1032.630 1524.829 1514.158 974.321 803.621 402.482 1605.626 700.955 944.372 448.890 667.302 1996.443 1006.856 919.485 1189.949 1468.287 1095.852 384.027 1137.025 576.569 1644.702 598.054 722.964 667.990 2536.798 3500.886 1206.202 198.508 959.099 1889.234 1711.868 1251.250 569.515 455.879 1391.878 1452.063 1307.360 1513.591 856.995 496.417 547.810 1121.275 1230.278 553.439 1763.181 1080.625 1028.888 981.071 1489.261 2740.337 536.372 466.196 1446.074 248.958 1642.136 1806.395 520.542 1209.543 978.854 1546.152 228.166 1170.697 1402.442 917.776 750.422 519.932 1268.484 1169.936 912.011 1497.134 1759.069 694.466 637.634 1418.868 289.796 1075.327 564.719 726.890 1348.049 919.932 916.441 1679.924 388.477 239.409 354.105 1576.105 1198.019 2550.212 205.035 1493.754 1558.812
1142.260 2421.307 1697.862 1239.719 1306.023 977.675 1456.682 1210.687 1059.638 1195.466 928.162 1573.582 1229.455 1105.529 1758.258 1198.193 1002.706 0.000 844.983 926.897 2121.202 1295.942 1286.656 1286.541 875.488 888.733 1113.868 1861.934 1355.380 1823.815 1302.973 1802.282 1077.112 2229.470 385.535 1776.608 1067.367 1224.893 1422.214 3230.637 718.015 913.439 934.970 1183.371 1044.178 2310.151 1661.008 847.005 1104.209 1439.697 1344.647 507.877 973.832 1053.253 1170.772 2227.381 1002.639 1237.692 1151.981 1782.302 858.516 1820.650 1871.399 1668.061 606.925 1930.570 2565.258 1290.435 874.075 2225.074 314.359 1705.229 2129.071 1338.734 2436.472 2050.939 1904.843 2377.165 1743.795 1107.492 1978.983 2547.049 1595.234 1873.885 759.706 646.967 1743.547 1771.293 1587.012 1949.959 941.772 2587.698 1450.595 1184.240 938.943 2181.232 656.318 2035.326 2521.531 2421.975 1977.016 1714.203 1356.526 2513.442 544.272 1877.147 1444.673 808.393 2416.188 826.784 1241.851 1825.881 1014.018 2039.412 978.963 1943.044 695.493 2433.645 988.430 993.488 584.490 3077.706 3703.272 649.727 1123.987 1961.794 2716.624 2453.262 2161.832 1471.256 1225.631 2219.268 2286.489 1922.853 2039.108 421.616 1095.498 856.503 103.770 1177.162 931.038 2759.883 1442.705 1563.251 1977.773 2485.963 3062.703 794.618 1468.902 2044.297 1022.091 1944.145 2714.212 1510.511 984.497 1072.288 2453.968 997.572 716.428 2310.259 187.865 877.065 1522.637 2265.186 1492.303 1362.574 2493.836 2586.459 1687.215 1248.978 2044.579 928.820 632.512 1475.363 1460.791 2255.866 1716.977 1873.596 2587.741 1382.480 1242.114 863.445 2572.807 676.376 2872.578 1207.741 2401.570 2466.629
901.922 1827.038 1530.721 777.466 825.865 784.526 1028.729 447.627 732.952 715.309 819.035 1092.116 747.988 1466.928 1373.627 435.315 532.269 864.210 0.000 325.507 1526.934 815.784 778.603 805.074 940.321 350.373 632.401 1267.665 592.503 1060.937 1007.658 1039.405 608.102 2018.335 467.535 1346.716 543.391 761.421 649.384 2467.759 1308.636 550.128 407.915 468.538 371.633 1715.883 1231.116 671.705 343.384 738.137 863.180 578.904 1200.109 548.100 729.471 1728.831 464.279 1599.090 1310.227 1655.826 985.254 1299.421 1277.131 1306.792 661.825 1627.586 2071.521 654.852 1464.696 1731.338 618.964 1338.434 1917.936 565.904 2761.632 1529.334 1778.367 1667.869 1149.526 1468.890 1795.485 2053.313 832.357 1279.617 901.137 1390.082 1149.279 1386.662 1948.411 1823.483 686.582 1993.430 1295.441 681.167 422.147 1687.495 896.510 1441.057 1927.263 1928.238 1382.748 1277.507 876.369 2019.706 626.273 1357.747 850.405 994.447 2445.055 1143.208 469.021 1663.835 1604.639 1511.240 377.573 1581.775 312.890 2068.193 936.179 1061.089 364.808 2304.876 3050.423 807.775 586.026 1367.526 1953.747 2125.948 1725.136 756.533 863.412 1456.391 1875.554 1739.354 1912.632 533.778 332.438 40.836 915.684 824.278 128.800 2165.614 1459.834 1408.097 1383.505 1891.695 2289.873 844.406 977.117 1860.798 643.902 2021.345 2220.475 1031.464 1345.896 503.624 1960.232 633.737 1307.050 1816.522 705.010 275.192 925.225 1670.918 719.473 599.513 1899.567 1823.582 1092.947 486.101 1861.081 669.861 1211.679 1038.606 697.913 1757.316 1355.708 1324.868 2094.004 899.398 671.247 635.736 1978.539 1334.372 2099.748 726.274 1907.834 1972.892
755.290 1659.232 1403.498 553.751 628.341 635.198 831.205 548.140 605.275 566.221 669.706 868.401 524.273 1428.219 1176.103 333.576 308.554 970.710 307.230 0.000 1359.128 617.243 581.475 581.359 795.907 127.000 408.686 1099.859 634.912 1103.347 880.435 1081.814 384.387 1820.811 574.036 1149.192 319.676 537.706 906.795 2510.169 1269.928 396.722 279.947 316.751 177.558 1548.076 1033.593 522.377 237.589 649.563 639.465 654.820 1076.996 324.386 597.274 1561.025 240.564 1560.382 1160.899 1528.603 840.889 1115.469 1109.324 1113.297 514.478 1430.063 1903.715 912.263 1425.988 1563.531 725.464 1140.910 1720.412 725.604 2973.079 1361.527 1651.144 1615.090 981.720 1328.564 1641.422 1885.506 874.766 1111.810 820.774 1584.592 981.473 1189.138 1862.688 1696.260 538.112 1825.623 1146.113 479.059 285.657 1519.689 857.802 1273.251 1759.456 1760.432 1214.941 1079.984 678.845 1851.899 620.898 1189.940 682.598 855.567 2272.806 1104.500 726.433 1466.312 1565.931 1343.434 112.344 1413.387 390.534 1900.387 786.850 911.760 481.954 2562.287 3307.834 1019.222 362.311 1199.719 1996.156 1958.142 1527.613 681.122 732.242 1498.800 1707.747 1583.723 1785.409 675.916 265.425 291.684 1022.184 1043.297 310.020 1997.808 1310.506 1258.769 1215.698 1723.889 2547.284 695.078 763.720 1722.437 515.638 1872.016 2052.669 818.066 1307.187 752.476 1792.425 480.331 1268.341 1648.716 811.510 524.044 762.340 1503.111 976.884 700.026 1731.761 1865.991 925.140 528.510 1695.231 521.392 1172.971 841.082 740.323 1589.510 1196.295 1157.061 1926.197 686.001 489.984 486.407 1810.732 1295.664 2357.159 502.560 1740.027 1805.086
1206.186 483.468 1406.600 1017.342 1016.729 1253.356 891.274 1510.566 1185.806 1100.304 1298.000 680.409 963.910 2168.819 955.492 1257.715 1168.309 2169.402 1582.670 1377.887 0.000 972.462 951.555 928.719 1458.417 1309.871 1079.905 764.120 1542.851 1065.090 1019.997 1020.099 1121.060 926.372 1772.727 478.186 1154.406 985.288 2152.588 1982.874 2096.864 1294.468 1286.401 1242.397 1304.252 259.120 582.361 1367.473 1402.830 1351.480 943.921 1716.998 1730.081 1156.188 1145.104 488.871 1300.963 2300.981 1798.506 1531.704 1527.507 545.459 406.173 1001.301 1583.360 1356.897 759.415 2158.057 2252.924 705.100 1924.156 1127.569 1112.669 1736.404 4223.977 537.318 1654.245 1068.266 984.737 1966.171 1609.267 922.027 1155.440 810.812 1657.543 2783.283 597.282 973.139 2172.649 1699.361 1367.408 649.860 1216.951 1049.177 1490.794 635.615 1790.017 726.245 583.693 781.209 802.461 637.772 997.453 901.945 1793.380 380.412 854.306 1575.205 2254.540 1927.822 1974.064 1434.157 2392.867 352.050 1419.084 1388.830 1640.487 912.277 1471.956 1558.068 1731.908 2655.071 4555.465 2270.120 1126.914 640.646 2007.507 986.528 822.496 1383.040 1025.062 1510.151 874.715 1551.568 1720.472 1925.869 1344.233 1567.124 2213.700 2294.195 1617.357 822.044 1620.468 1404.686 224.315 548.125 3794.915 1444.275 799.560 1652.955 1196.514 1925.273 926.985 752.569 2094.820 2026.207 648.125 1235.307 2095.277 747.904 2010.201 1797.775 740.162 369.643 2222.677 1710.826 555.997 1877.342 747.348 1436.449 1663.075 1296.937 1999.907 759.920 1316.323 469.253 1167.730 390.529 946.975 918.978 989.606 1416.880 634.969 2121.903 3604.790 995.902 760.805 660.785
396.626 1293.118 1025.424 122.594 207.169 349.809 436.282 864.726 262.744 180.530 441.460 432.752 169.378 1338.472 781.180 611.875 292.949 1280.580 763.342 544.159 992.932 0.000 170.587 152.349 601.275 476.142 237.945 727.752 897.011 861.100 502.361 839.567 237.072 1425.888 883.905 754.269 282.448 107.768 1326.900 2169.840 1183.126 408.058 415.637 596.557 579.645 1181.881 638.669 452.509 684.635 690.931 142.541 803.260 873.542 284.230 222.042 1181.440 474.933 1470.634 966.268 1150.529 668.201 679.820 737.217 718.374 708.911 1035.139 1519.317 1332.368 1339.186 1179.134 1035.333 745.987 1325.489 1090.564 3387.112 969.254 1273.070 1255.232 679.499 1133.933 1246.499 1501.108 729.940 739.703 743.805 1894.461 609.366 794.215 1562.591 1318.186 467.746 1459.510 846.016 283.995 653.929 1135.291 876.279 901.144 1393.343 1376.034 842.834 685.061 230.597 1467.501 918.932 806.247 376.637 661.467 1877.883 1017.699 1146.537 1071.389 1479.130 957.727 596.225 1018.464 803.622 1515.989 592.219 717.129 895.042 2491.189 3727.939 1433.255 379.138 827.612 1843.625 1573.744 1132.689 722.490 303.645 1346.269 1323.349 1188.800 1395.031 1074.167 667.732 774.862 1320.835 1457.330 780.491 1631.694 1010.409 958.671 849.585 1357.775 2967.389 530.537 317.721 1327.514 299.563 1571.919 1668.271 372.067 1220.386 1205.906 1408.027 346.078 1181.540 1264.318 1121.379 977.474 442.249 1136.997 1396.989 1064.986 1365.647 1713.460 578.479 790.609 1300.308 407.709 1086.169 446.159 777.415 1209.925 801.372 780.519 1541.800 200.796 291.782 502.914 1444.619 1208.166 2777.264 201.369 1355.629 1420.688
463.557 1222.141 1092.356 140.098 302.096 409.254 459.846 765.176 322.189 239.975 500.906 384.900 75.580 1397.918 804.744 510.374 290.424 1301.504 760.408 537.038 921.954 163.171 0.000 110.510 660.721 469.021 202.020 656.774 797.461 745.912 569.293 724.380 243.175 1414.726 904.829 717.607 276.521 108.044 1323.966 2098.862 1242.572 416.583 408.516 495.056 520.804 1110.903 676.349 489.588 622.105 590.771 168.616 845.643 932.987 278.303 281.487 1123.933 467.812 1530.080 1025.713 1217.461 727.646 631.968 666.239 741.937 715.462 1058.703 1466.623 1329.434 1398.632 1126.440 1056.257 769.551 1349.053 991.014 3384.177 921.401 1331.793 1184.254 586.218 1193.378 1270.063 1448.415 614.753 668.725 803.251 1915.385 538.388 817.779 1622.036 1385.117 489.523 1388.532 903.764 198.256 650.994 1082.597 935.725 830.166 1322.365 1323.340 771.856 712.520 310.063 1414.808 925.482 752.849 261.495 720.913 1901.447 1077.144 1143.603 1094.952 1538.575 906.342 589.104 1042.028 800.687 1463.295 651.665 776.575 892.108 2376.002 3725.004 1430.320 306.937 756.634 1728.438 1521.050 1121.296 622.331 405.997 1231.081 1270.656 1212.364 1418.595 1081.521 563.508 771.928 1345.801 1454.396 777.557 1560.716 1069.855 1018.117 778.607 1286.797 2964.455 589.983 276.047 1351.078 318.629 1623.396 1615.577 330.393 1279.832 1202.972 1355.334 357.422 1240.985 1211.624 1142.303 974.540 349.860 1066.020 1394.054 965.436 1294.669 1598.273 507.502 691.059 1323.871 419.052 1145.615 473.618 662.228 1152.418 824.936 713.976 1489.106 198.328 161.338 538.995 1373.641 1267.611 2774.330 118.017 1302.936 1367.994
457.769 1173.811 1032.768 182.606 268.312 444.902 399.201 842.078 357.837 270.887 536.553 320.083 150.622 1433.565 744.099 587.276 355.020 1366.100 825.005 601.634 873.625 121.507 138.267 0.000 696.369 533.617 266.617 608.445 874.364 828.779 520.885 807.246 307.771 1354.750 969.425 652.791 341.118 171.999 1388.562 2050.532 1278.220 481.179 473.112 571.958 585.401 1062.574 615.704 547.602 690.391 667.674 69.994 898.353 968.635 342.900 317.135 1068.771 532.408 1565.728 1061.361 1157.872 763.294 567.151 617.910 681.293 780.058 998.058 1406.648 1394.030 1434.279 1066.464 1120.854 708.906 1288.408 1067.916 3448.774 856.585 1271.148 1135.925 560.192 1229.026 1209.418 1388.439 697.619 620.396 838.898 1979.981 490.058 757.134 1657.626 1325.529 554.120 1340.202 843.119 282.048 715.591 1022.621 971.372 781.837 1274.035 1263.364 723.527 651.875 253.248 1354.832 990.078 693.578 305.338 756.561 1840.802 1112.792 1208.200 1034.308 1574.223 845.058 653.700 981.383 865.284 1403.320 687.313 812.222 956.704 2458.868 3789.601 1494.917 382.725 708.305 1811.304 1461.075 1056.479 699.233 364.789 1313.948 1210.680 1151.719 1357.950 1146.118 640.411 836.524 1410.398 1518.992 842.153 1512.387 1105.444 1030.853 730.277 1238.468 3029.051 625.630 215.402 1290.433 383.225 1562.751 1555.602 269.748 1315.479 1267.568 1295.358 422.018 1276.633 1151.648 1206.900 1039.137 322.942 1017.690 1458.651 1042.338 1246.340 1681.139 459.172 767.962 1263.227 483.649 1181.263 412.973 745.094 1097.256 764.291 665.647 1429.130 137.683 238.241 598.007 1325.311 1303.259 2838.926 182.613 1242.960 1308.018
359.404 1668.110 1022.751 523.990 548.514 175.447 673.825 1122.797 337.802 437.958 177.445 827.389 519.860 1020.157 975.402 869.947 484.152 992.954 888.547 698.689 1407.491 538.433 580.042 566.907 0.000 624.499 501.526 1142.310 1155.083 1217.796 531.630 1196.264 431.437 1562.873 596.279 1001.553 546.030 509.163 1452.104 2584.398 897.275 411.197 516.072 854.629 815.969 1596.440 885.953 224.733 876.000 949.002 595.754 515.634 538.715 534.700 413.264 1452.326 685.705 1152.319 647.953 1115.705 288.614 1079.543 1151.776 885.205 445.402 1211.526 1790.203 1457.572 1053.334 1450.019 747.707 922.373 1462.474 1348.635 3337.096 1275.884 1238.246 1669.791 1062.134 815.617 1300.087 1771.994 1086.637 1154.262 457.953 1606.835 1023.924 988.437 1328.290 1283.362 331.178 1834.502 758.792 542.067 718.297 1406.177 590.427 1315.702 1768.334 1646.920 1257.393 939.148 577.680 1738.387 655.423 1102.092 763.012 375.616 1761.329 731.847 1271.742 1156.672 1193.278 1264.357 750.755 1160.188 744.704 1767.048 295.263 400.007 758.751 2847.886 3853.143 1383.239 637.747 1242.171 2200.322 1786.665 1386.777 980.562 442.775 1702.966 1580.786 1243.956 1372.511 786.541 903.836 900.066 1033.209 1453.370 905.695 2006.686 776.108 871.447 1224.576 1732.767 3092.593 244.685 691.353 1365.401 301.752 1337.619 1939.157 735.456 934.534 1220.177 1678.913 377.031 895.688 1535.204 833.753 1051.293 837.838 1511.989 1522.193 1323.058 1740.639 2070.157 993.038 1048.681 1365.683 377.822 800.318 700.308 1134.112 1480.811 934.121 1098.541 1812.685 624.971 550.497 275.139 1819.611 922.314 2902.468 494.421 1626.515 1691.574
661.100 1554.869 1308.818 449.388 523.979 541.008 726.843 612.896 510.595 461.858 575.516 764.038 419.911 1360.482 1071.740 373.444 204.191 906.003 330.363 100.145 1254.765 512.880 477.112 476.996 701.716 0.000 304.323 995.496 674.780 1065.998 785.755 1044.465 280.024 1716.448 509.328 1044.829 215.313 433.343 893.921 2413.622 1202.190 307.066 175.584 356.619 217.426 1443.713 929.230 428.186 277.457 573.259 535.103 587.083 982.806 220.023 492.912 1456.662 136.201 1492.644 1066.708 1433.922 746.699 1011.106 1004.961 1008.934 446.740 1325.700 1799.352 899.389 1358.250 1459.169 660.756 1036.547 1616.049 790.360 2954.133 1257.164 1556.464 1510.727 877.357 1234.373 1537.059 1781.143 870.909 1007.447 728.087 1519.884 877.110 1084.776 1768.497 1601.579 444.524 1721.261 1051.923 374.696 220.950 1415.326 790.064 1168.888 1655.093 1656.069 1110.578 975.621 574.482 1747.537 556.191 1085.577 578.235 761.377 2168.443 1036.762 713.558 1361.949 1498.193 1239.071 152.212 1309.025 370.643 1796.024 692.660 817.570 462.063 2549.413 3294.959 1000.276 257.949 1095.356 1992.299 1853.779 1423.250 604.819 627.880 1494.943 1603.384 1479.360 1685.591 656.025 305.293 341.883 957.477 1024.351 347.512 1893.445 1216.316 1164.578 1111.336 1619.526 2534.410 600.887 659.357 1618.074 420.958 1777.826 1948.306 713.704 1239.450 772.927 1688.063 390.675 1200.604 1544.353 746.802 544.495 657.977 1398.748 964.010 764.782 1627.398 1862.134 820.778 568.378 1590.868 453.654 1105.233 736.719 736.466 1485.147 1091.932 1052.698 1821.835 581.638 385.621 392.217 1706.370 1227.926 2344.285 398.197 1635.664 1700.723
499.951 1347.552 1128.750 192.618 355.527 398.229 558.391 694.759 330.981 293.406 473.822 493.824 153.423 1337.219 903.288 441.908 147.182 1158.262 616.906 393.536 1047.366 247.762 213.605 206.783 600.022 325.519 0.000 782.186 727.044 854.621 605.687 833.088 111.572 1528.491 761.587 826.532 133.020 163.130 1180.464 2224.274 1181.873 273.341 265.014 426.590 384.192 1236.315 760.778 365.147 489.182 520.964 264.889 712.562 881.112 134.801 324.460 1242.512 324.310 1469.381 965.015 1253.855 666.947 740.892 791.651 840.482 572.220 1157.248 1580.389 1185.932 1337.933 1240.206 913.015 868.095 1447.597 920.596 3240.676 1030.326 1376.396 1309.666 698.958 1132.680 1368.607 1562.180 723.461 794.137 742.552 1772.143 663.800 916.324 1625.719 1421.512 365.083 1513.944 909.144 129.447 507.493 1196.363 841.442 955.578 1447.777 1437.106 897.268 807.169 394.654 1528.574 782.240 867.319 399.837 660.214 1999.991 1016.445 1000.101 1193.497 1477.877 1018.799 445.602 1140.573 657.186 1577.061 590.966 715.876 748.606 2484.711 3581.503 1286.819 181.516 882.046 1837.146 1634.816 1230.221 552.523 459.427 1339.790 1384.421 1310.908 1510.661 938.279 496.152 628.426 1202.559 1310.894 634.055 1686.128 1073.538 1021.800 904.019 1412.209 2820.953 529.284 389.144 1449.622 241.931 1635.048 1729.343 443.490 1219.133 1059.470 1469.100 232.981 1180.287 1325.390 999.061 831.038 474.662 1191.431 1250.553 895.019 1420.081 1706.981 632.913 620.642 1422.416 294.612 1084.916 568.267 709.898 1270.997 923.480 839.388 1602.872 311.425 187.321 414.555 1499.053 1206.913 2630.828 127.983 1416.701 1481.760
1009.432 1077.989 1468.017 719.427 819.975 974.955 909.015 1212.650 887.890 805.676 1066.607 556.762 665.995 1963.619 1119.443 959.800 870.393 1871.486 1284.755 1079.972 743.169 698.576 653.639 630.803 1226.422 1011.955 781.990 0.000 1244.936 842.708 1012.625 797.717 823.144 1270.574 1474.812 642.137 856.491 687.372 1854.673 1712.095 1808.273 996.552 988.485 944.481 1006.337 932.118 746.312 1069.557 1104.914 1053.565 663.081 1425.613 1498.688 858.272 847.188 979.782 1003.048 2095.781 1591.414 1593.122 1293.347 552.672 505.650 1163.555 1285.444 1480.321 1322.472 1860.141 1964.333 982.288 1626.240 1191.169 1364.457 1438.488 3926.061 780.284 1715.663 797.487 686.822 1759.079 1691.681 1304.263 933.058 74.619 1368.952 2485.368 208.660 1137.091 2136.929 1760.779 1069.493 1244.380 1278.369 751.262 1192.878 938.445 1501.426 441.887 1178.213 1179.188 115.082 801.723 800.698 1270.656 1495.465 608.697 556.390 1286.614 2323.065 1642.845 1676.148 1516.570 2104.276 762.191 1121.169 1463.646 1342.571 1319.143 1217.366 1342.276 1433.992 2432.689 4257.549 1972.204 828.998 369.867 1785.125 1376.899 983.230 1085.124 916.451 1287.769 1126.504 1633.982 1840.213 1627.954 1046.318 1269.209 1915.784 1996.280 1319.441 1416.565 1584.747 1466.103 634.455 1142.645 3496.999 1155.684 670.461 1772.696 898.598 2045.014 1471.425 623.470 1845.533 1728.291 1211.182 937.391 1806.686 1067.472 1712.286 1499.859 442.246 921.868 1924.761 1412.910 1150.518 1654.960 322.965 1138.534 1745.489 999.022 1711.316 774.921 1093.942 1008.266 1246.554 553.387 1344.954 685.134 691.690 1118.964 1229.489 1833.312 3306.875 697.986 1158.784 1223.842
1145.850 1796.168 1774.649 850.065 1010.653 1044.128 1167.706 469.999 976.880 948.533 1119.721 1106.649 760.536 1938.422 1512.604 327.017 762.840 1335.704 567.416 604.465 1496.063 904.309 785.393 840.062 1245.921 674.263 729.316 1236.794 0.000 900.919 1251.586 879.386 810.109 1988.753 939.030 1358.016 723.094 819.677 1133.284 2307.741 1780.130 890.320 773.825 416.009 487.315 1685.012 1384.209 1020.695 585.893 578.118 890.992 1050.398 1527.011 724.875 979.586 1697.960 713.056 2070.584 1610.914 1899.754 1312.846 1268.550 1246.260 1449.798 1039.248 1766.564 2040.650 1171.305 1936.190 1700.467 1090.458 1477.411 2056.913 693.342 3258.282 1498.463 2022.295 1507.851 1118.655 1778.579 1977.923 2022.442 672.338 1248.746 1320.596 1886.732 1118.408 1525.639 2271.618 2067.411 1037.033 1962.559 1555.043 697.319 832.920 1656.624 1368.004 1322.513 1896.392 1897.367 1351.877 1420.380 1021.753 1988.835 1097.767 1326.876 819.534 1306.113 2609.307 1614.702 987.312 1802.813 2076.134 1480.369 602.147 1749.888 851.327 2037.322 1236.865 1361.775 876.586 2441.293 3566.401 1304.425 620.641 1236.914 1793.728 2095.077 1701.408 596.515 1107.340 1296.372 1844.683 1920.224 2126.455 1005.272 557.661 551.869 1387.178 1328.500 639.634 2134.743 1719.437 1667.699 1352.634 1860.824 2805.852 1175.183 983.907 2058.938 887.830 2280.947 2189.604 1038.254 1817.390 1010.394 1929.361 924.356 1778.544 1785.651 1176.504 781.962 894.443 1640.047 1235.925 667.765 1868.696 1663.563 1062.076 326.082 2031.732 985.986 1683.173 1181.478 537.895 1726.445 1532.796 1293.997 2063.133 906.188 687.627 984.725 1947.668 1805.866 2615.727 768.680 1876.963 1942.021
1154.577 1301.887 1772.071 822.844 993.116 1100.274 1138.505 880.113 1013.209 930.995 1189.132 1006.691 758.325 2052.529 1483.402 737.131 934.174 1745.819 977.530 1014.580 928.866 854.191 727.823 801.530 1315.332 1049.618 845.416 732.956 842.892 0.000 1260.188 77.098 879.520 1744.791 1349.144 1122.228 898.767 790.789 1575.951 1482.763 1897.183 1054.955 1030.761 826.124 897.430 1117.815 1226.403 1125.933 996.007 542.617 859.636 1460.513 1596.422 900.548 972.507 1307.290 1040.710 2184.691 1680.325 1897.175 1382.257 1032.762 991.392 1420.596 1323.107 1737.362 1577.833 1581.419 2053.243 1461.695 1500.572 1448.209 1843.864 1103.457 3668.397 1259.690 2010.452 735.564 590.437 1847.990 1948.721 1740.446 264.017 680.908 1457.862 2296.846 775.922 1496.438 2313.056 2064.832 1125.868 1468.279 1582.422 788.924 1230.541 1417.852 1590.336 550.226 1402.111 1599.628 720.389 1281.814 992.551 1720.363 1507.881 1088.103 699.861 1375.524 2580.105 1731.755 1397.426 1773.611 2193.186 1224.973 1012.262 1720.687 1261.442 1730.696 1306.276 1431.186 1286.701 1851.747 3976.516 1714.540 866.661 464.627 1204.183 1804.947 1462.636 561.014 1097.017 706.826 1605.910 1891.022 2097.253 1415.387 967.775 961.984 1797.292 1738.615 1049.748 1640.463 1760.874 1709.137 1097.237 1366.544 3215.966 1244.594 954.705 2029.736 957.241 2302.054 1745.404 1009.052 1934.443 1420.508 1466.544 993.767 1895.597 1546.879 1586.618 1192.076 770.449 1188.062 1646.040 1077.880 1374.416 1074.017 711.861 737.591 2002.530 1055.397 1800.226 1152.276 424.900 1287.672 1503.594 1039.129 1765.394 876.986 729.353 1175.340 1453.388 1922.222 3025.841 800.762 1579.224 1479.204
326.882 1271.657 554.875 495.973 353.914 374.052 176.284 1226.111 321.464 418.579 418.696 495.194 542.757 1234.700 476.454 971.309 601.866 1315.013 1019.224 829.366 1016.241 445.613 544.766 510.840 579.113 755.177 611.324 956.202 1258.397 1235.278 0.000 1213.746 550.100 1103.326 918.339 605.100 655.827 481.147 1582.782 2403.071 1217.560 577.560 654.531 955.991 946.647 1216.636 489.500 495.419 1006.678 1051.707 490.416 837.694 807.606 652.414 362.663 1055.149 830.962 1366.862 862.495 679.980 648.203 675.309 814.396 386.257 751.821 712.578 1393.025 1588.250 1373.620 1052.842 1069.767 423.425 1002.927 1451.949 3509.157 879.431 802.521 1488.464 977.428 1030.160 819.640 1374.816 1104.119 972.935 778.239 1928.895 794.014 489.489 1282.840 847.637 510.656 1438.049 404.328 657.374 860.854 1008.999 910.713 1134.375 1371.881 1249.742 1071.284 534.914 350.254 1341.210 961.842 705.639 713.730 695.901 1535.046 1048.518 1402.419 688.797 1513.563 867.904 881.433 661.240 870.710 1307.501 526.493 613.357 969.121 2865.368 3983.820 1555.300 752.517 1060.844 2217.804 1327.118 982.543 1083.266 219.097 1720.448 1160.345 763.509 936.786 1108.601 1024.444 1030.744 1355.269 1579.375 1036.373 1610.233 730.658 592.062 828.124 1336.314 3223.271 564.971 432.552 884.953 413.708 1157.271 1541.979 403.261 1158.810 1346.182 1281.736 486.952 1215.974 1138.026 1155.813 1177.299 740.178 1115.536 1652.870 1426.371 1344.186 2087.639 847.609 1151.995 885.235 542.439 1120.603 330.719 1151.594 1083.633 435.173 702.088 1415.508 457.434 622.274 545.824 1423.158 1242.599 3033.146 574.748 1229.338 1294.396
1129.106 1342.881 1746.599 797.372 967.644 1074.803 1113.033 854.642 987.737 905.524 1163.660 1047.597 732.854 2027.057 1457.931 711.660 908.702 1720.347 952.059 989.108 969.860 828.719 702.351 776.058 1289.861 1024.146 819.945 773.950 817.421 80.505 1234.717 0.000 854.048 1785.785 1323.672 1163.222 873.295 765.317 1550.480 1475.669 1871.712 1029.483 1005.290 800.652 871.958 1158.809 1267.397 1100.461 970.536 517.146 834.164 1435.041 1570.950 875.077 947.035 1348.284 1015.239 2159.220 1654.853 1871.704 1356.786 1073.756 1032.386 1395.124 1297.635 1711.890 1618.828 1555.948 2027.771 1502.689 1475.101 1422.737 1884.858 1077.985 3642.925 1300.684 1984.980 776.558 631.431 1822.518 1923.250 1781.440 238.545 721.902 1432.390 2271.375 816.916 1470.966 2287.585 2039.361 1100.397 1509.273 1556.950 763.453 1205.069 1458.846 1564.864 591.220 1443.106 1640.622 761.384 1322.808 967.080 1761.358 1482.410 1129.097 674.389 1350.053 2554.633 1706.284 1371.955 1748.139 2167.715 1265.967 986.790 1695.215 1235.970 1771.690 1280.804 1405.714 1261.229 1774.649 3951.044 1689.068 841.189 505.621 1127.085 1845.941 1503.630 535.542 1071.545 629.729 1646.904 1865.550 2071.781 1389.915 942.304 936.512 1771.821 1713.143 1024.276 1681.457 1735.403 1683.665 1138.231 1407.538 3190.495 1219.122 929.234 2004.264 931.769 2276.583 1786.398 983.580 1908.971 1395.037 1507.538 968.295 1870.125 1587.873 1561.147 1166.605 811.443 1229.056 1620.568 1052.408 1415.410 996.920 752.855 712.120 1977.058 1029.926 1774.755 1126.804 399.428 1328.666 1478.123 1080.123 1806.388 851.515 703.881 1149.868 1494.382 1896.751 3000.370 775.290 1620.218 1520.198
401.856 1359.364 1030.655 169.364 243.954 309.675 446.818 771.419 232.886 181.834 385.268 505.636 165.235 1248.664 791.716 518.568 162.948 1148.840 598.348 408.490 1059.178 232.856 225.416 218.594 511.468 334.300 137.483 793.998 803.705 866.418 507.592 844.885 0.000 1436.424 752.165 764.805 181.986 154.538 1161.906 2236.086 1093.319 251.091 287.760 503.250 479.182 1248.127 649.206 322.068 584.173 597.624 276.701 678.124 792.557 167.456 212.887 1215.579 374.471 1380.827 876.460 1155.759 578.393 752.704 803.463 728.910 562.797 1045.676 1553.455 1167.374 1249.379 1213.272 903.593 756.523 1336.025 997.257 3222.117 1039.136 1278.301 1321.478 710.755 1044.125 1257.035 1535.246 735.258 805.949 653.997 1762.721 675.612 804.751 1537.165 1323.416 322.004 1525.756 820.590 190.688 488.934 1169.429 786.471 967.390 1459.588 1410.172 909.080 695.597 294.458 1501.640 772.818 865.344 411.634 571.660 1888.419 927.891 981.543 1081.925 1389.322 1027.609 460.556 1029.000 638.627 1536.678 502.412 627.322 730.048 2496.508 3562.944 1268.260 286.369 893.858 1848.943 1607.882 1143.225 629.183 347.855 1351.587 1344.039 1199.336 1405.567 924.009 574.425 609.867 1193.137 1292.335 615.497 1697.940 984.983 933.246 915.831 1424.021 2802.394 440.729 400.956 1338.050 153.376 1546.493 1702.409 455.302 1130.578 1040.912 1442.166 189.902 1091.732 1298.456 989.639 812.480 486.459 1203.243 1231.994 971.679 1431.893 1718.778 644.725 697.302 1310.844 251.533 996.362 456.695 782.733 1244.063 811.908 851.200 1575.938 320.411 199.118 371.475 1510.865 1118.358 2612.270 139.795 1389.768 1454.826
1376.681 1014.588 578.664 1414.887 1334.767 1414.904 1037.872 1994.106 1383.106 1420.308 1424.943 1106.103 1431.803 1835.512 1123.256 1741.256 1585.242 2198.746 2027.989 1836.452 995.564 1364.527 1419.447 1367.589 1443.118 1763.942 1530.238 1273.107 2026.392 1869.059 1078.808 1824.068 1529.365 0.000 1802.071 805.037 1574.741 1400.061 2591.547 2786.843 2136.612 1589.481 1663.296 1725.937 1787.793 1064.221 928.726 1531.757 1886.370 1835.021 1369.616 1721.426 1417.674 1576.523 1371.428 693.637 1767.226 1945.723 1465.199 699.366 1504.638 902.971 886.361 938.752 1764.845 456.463 904.284 2597.015 2292.672 458.886 1953.499 1056.067 212.235 2219.944 4542.888 656.314 758.610 1872.235 1468.278 1632.864 708.833 441.554 1837.479 1317.603 1654.568 2812.627 1109.109 1136.291 1721.064 828.586 1546.994 1092.105 933.407 1532.718 1869.619 571.711 1848.007 1530.214 1114.812 536.446 1388.189 928.916 1315.491 444.042 1897.296 777.604 1337.846 1636.915 1354.106 1760.972 2411.184 533.723 2432.615 845.622 1888.518 852.825 1932.353 303.617 1313.598 1328.949 1964.543 3459.040 4992.585 2589.031 1610.454 1444.615 2811.476 323.234 478.363 1866.580 1227.862 2314.119 166.318 651.134 820.038 1992.333 1827.774 2039.509 2239.001 2641.018 2045.138 1353.164 1287.161 929.878 907.075 1029.723 4232.036 1462.259 1225.255 752.521 1475.351 1024.840 828.683 1178.263 1761.514 2407.825 769.597 1527.501 2135.025 530.617 2039.545 2237.043 1223.702 835.461 2661.635 2194.366 1041.324 2681.310 1225.017 1919.990 762.642 1589.132 2039.655 1106.285 1884.954 667.025 746.755 806.652 702.212 1344.672 1473.146 1582.162 1065.872 2183.614 4041.911 1463.794 516.042 804.432
756.726 2035.772 1312.327 854.184 920.488 592.140 1071.147 825.153 674.103 809.932 542.628 1188.048 843.920 1016.561 1372.723 812.658 617.171 422.733 459.449 541.363 1735.668 910.407 901.122 901.006 489.954 503.198 728.333 1476.399 969.846 1438.280 917.438 1416.747 691.577 1843.936 0.000 1391.073 681.832 839.358 1036.680 2845.102 858.269 527.905 549.436 797.837 658.643 1924.617 1275.474 461.470 718.674 1054.162 959.112 128.537 749.742 667.719 785.238 1841.847 617.104 1148.723 885.870 1396.767 534.887 1435.116 1485.864 1282.526 221.391 1545.035 2179.723 987.185 1014.329 1839.540 177.487 1319.694 1743.537 953.200 2766.875 1665.404 1519.308 1991.630 1358.260 1018.524 1593.449 2161.515 1209.700 1488.350 450.770 1036.615 1358.013 1385.759 1498.044 1564.424 556.238 2202.164 1065.061 798.706 553.409 1795.697 446.143 1649.791 2135.996 2036.440 1591.482 1328.668 970.992 2127.908 158.737 1491.612 1059.139 544.080 2042.391 692.841 856.317 1440.347 1154.273 1653.878 593.429 1557.509 309.959 2048.110 602.896 678.952 198.955 2692.171 3437.718 813.018 738.453 1576.259 2331.090 2067.728 1776.297 1085.722 840.096 1833.733 1900.955 1537.318 1653.573 216.320 709.964 470.969 474.207 937.657 545.503 2374.348 1057.171 1177.716 1592.239 2100.429 2677.168 409.084 1083.367 1658.762 636.556 1618.681 2328.677 1124.977 895.529 704.463 2068.434 612.038 856.683 1924.724 263.533 491.530 1137.103 1879.651 1106.768 977.039 2108.301 2200.924 1301.681 863.444 1659.044 543.285 761.312 1089.829 1075.256 1870.331 1331.442 1488.062 2202.206 996.945 856.580 477.910 2187.273 884.005 2487.044 822.206 2016.036 2081.094
836.479 738.644 1020.948 727.142 647.022 883.649 505.623 1350.054 831.061 732.563 928.293 425.744 751.445 1783.167 569.840 1097.204 897.498 1824.611 1367.891 1148.707 483.228 676.782 739.089 687.231 1088.710 1080.691 842.493 629.055 1382.340 1287.233 634.346 1242.242 841.621 730.280 1427.936 0.000 886.997 712.316 1931.449 2156.619 1727.157 999.901 1020.186 1081.885 1143.741 683.623 196.710 1019.733 1242.318 1190.969 689.257 1347.291 1360.375 888.778 781.848 508.013 1079.482 1915.330 1412.855 1146.053 1157.800 211.425 281.383 615.650 1276.135 1031.071 845.889 1936.917 1883.217 485.024 1579.364 741.918 824.164 1575.892 3991.660 295.826 1268.594 1242.012 824.226 1580.520 1242.430 806.031 1193.427 673.551 1287.836 2438.492 466.867 587.488 1786.998 1313.710 1034.970 905.036 831.299 879.418 1258.477 461.863 1420.310 887.923 838.869 702.606 744.137 252.120 627.746 772.424 1486.156 172.626 693.794 1205.498 1873.814 1558.115 1751.086 1067.320 2023.160 284.300 1200.773 1003.179 1380.307 778.850 1086.305 1172.417 1478.718 2877.214 4332.487 2037.803 959.004 814.392 2229.650 853.101 428.368 1222.528 639.411 1732.293 586.210 1184.731 1390.962 1618.198 1183.722 1379.410 1864.866 2061.878 1385.040 1077.220 1234.816 1019.034 295.111 803.301 3571.937 1074.568 544.896 1323.445 891.406 1595.763 994.843 497.905 1709.169 1810.455 734.600 937.921 1725.571 590.890 1665.410 1582.023 579.650 575.879 2001.537 1550.314 811.173 2099.485 580.965 1275.938 1296.239 999.552 1630.200 374.268 1240.902 536.497 782.079 169.076 868.372 664.314 796.938 1070.138 890.145 1752.197 3381.812 783.436 682.202 747.260
555.692 1435.353 1184.491 282.985 398.384 452.990 601.248 722.499 386.268 336.263 528.583 581.625 237.498 1324.458 946.146 469.649 82.395 1070.860 526.893 303.523 1135.167 335.563 294.699 294.583 654.783 235.506 121.910 869.987 754.785 917.457 661.428 895.924 154.429 1590.853 674.186 914.333 0.000 250.930 1090.451 2298.060 1166.167 209.876 175.001 438.152 368.658 1324.116 803.635 383.958 473.648 548.704 352.690 625.161 935.873 44.431 367.317 1330.313 263.946 1456.621 1019.775 1309.595 702.471 828.693 879.452 883.339 484.818 1200.105 1668.190 1095.919 1322.227 1328.006 825.614 910.952 1490.454 940.534 3150.663 1118.127 1432.137 1395.165 761.794 1187.440 1411.465 1649.981 786.297 881.938 684.051 1684.742 751.600 959.181 1680.480 1477.252 384.327 1601.745 963.905 192.283 417.480 1284.164 754.041 1043.379 1535.577 1524.907 985.069 850.026 448.887 1616.374 694.839 955.120 459.639 714.975 2042.848 1000.739 910.088 1236.354 1462.170 1106.600 355.589 1183.430 567.173 1664.862 645.727 770.637 658.593 2547.546 3491.489 1196.806 185.797 969.847 1899.982 1722.617 1297.655 580.263 502.285 1402.626 1472.222 1353.765 1559.996 850.878 480.618 538.413 1115.158 1220.881 544.042 1773.929 1128.298 1076.561 991.819 1500.010 2730.940 556.659 476.944 1492.479 296.631 1689.809 1817.144 531.291 1203.426 969.457 1556.900 275.839 1164.580 1413.191 911.660 741.025 530.680 1279.232 1160.539 914.956 1507.882 1769.817 705.215 648.383 1465.273 337.469 1069.210 611.124 737.638 1358.798 966.338 927.189 1690.672 399.225 250.157 347.989 1586.854 1191.903 2540.815 215.784 1504.502 1569.560
408.737 1260.285 1037.536 32.055 247.824 354.435 450.688 805.097 256.139 185.703 446.086 406.557 78.838 1343.098 795.586 552.246 233.320 1244.400 703.714 484.530 960.099 157.249 126.337 119.515 605.901 416.513 178.316 694.918 837.383 828.266 514.473 806.733 177.443 1440.294 847.726 739.264 222.819 0.000 1267.271 2137.006 1187.752 348.429 356.008 536.928 513.617 1149.047 653.075 418.615 618.607 631.302 175.192 774.671 878.167 224.601 227.215 1155.245 415.304 1475.260 970.893 1162.641 672.826 653.624 704.383 732.779 658.358 1049.545 1493.121 1272.739 1343.812 1152.938 999.154 760.392 1339.894 1030.935 3327.483 943.058 1285.182 1222.399 646.665 1138.558 1260.905 1474.913 697.106 706.869 748.431 1858.282 576.532 808.621 1567.216 1330.298 418.551 1426.676 850.641 210.365 594.300 1109.095 880.905 868.310 1360.509 1349.838 810.001 699.466 298.327 1441.306 868.379 780.052 343.804 666.093 1892.288 1022.324 1086.909 1085.794 1483.755 931.532 536.596 1032.870 743.993 1489.793 596.845 721.755 835.413 2458.355 3668.310 1373.626 310.941 794.779 1810.791 1547.548 1142.953 662.861 351.725 1313.435 1297.154 1203.205 1409.436 1024.418 608.103 715.233 1288.698 1397.701 720.862 1598.861 1015.035 963.297 816.751 1324.941 2907.760 535.163 301.876 1341.920 239.934 1576.545 1642.075 356.222 1225.012 1146.277 1381.832 286.449 1186.165 1238.122 1085.200 917.846 409.416 1104.164 1337.360 1005.357 1332.813 1680.626 545.646 730.980 1314.713 348.080 1090.795 460.564 744.581 1183.729 815.778 752.120 1515.604 224.157 232.796 468.022 1411.785 1212.791 2717.635 110.830 1329.434 1394.492
1486.996 2437.765 2115.795 1362.539 1410.939 1369.600 1613.803 784.836 1318.026 1300.383 1404.109 1677.190 1333.062 2046.167 1958.701 1059.986 1117.343 1443.449 669.346 937.160 2137.660 1400.858 1389.329 1390.148 1519.560 935.447 1217.475 1878.391 1124.551 1685.608 1592.732 1664.075 1193.176 2603.409 1046.775 1931.790 1128.465 1346.495 0.000 3092.430 1887.876 1135.202 992.989 1079.264 1028.710 2326.609 1816.190 1256.779 1000.460 1362.807 1448.254 1158.143 1779.348 1133.174 1314.545 2339.557 1049.352 2178.330 1895.301 2240.899 1564.493 1910.148 1887.857 1891.866 1252.958 2212.660 2682.247 584.506 2043.935 2342.064 1198.203 1923.507 2503.009 705.882 3145.102 2140.060 2363.441 2292.540 1760.252 2048.130 2380.559 2664.039 1457.027 1890.343 1480.376 1849.406 1760.005 1971.736 2527.650 2408.556 1273.117 2604.156 1880.515 1287.847 1007.221 2298.221 1475.750 2051.783 2537.989 2538.964 1993.474 1862.581 1461.442 2630.432 1205.512 1968.473 1461.131 1573.687 3030.129 1722.448 618.190 2248.909 2183.879 2121.966 989.226 2166.849 925.424 2678.919 1521.253 1646.162 964.328 1701.781 3024.149 1282.803 1171.100 1978.252 2578.417 2736.674 2310.210 1381.204 1448.486 2081.061 2486.280 2324.428 2497.706 1113.017 943.164 710.182 1494.923 815.447 798.146 2776.340 2044.908 1993.171 1994.231 2502.421 2175.662 1429.480 1572.509 2445.872 1228.976 2606.419 2831.201 1626.855 1925.135 769.087 2570.958 1218.811 1886.289 2427.248 1284.249 854.432 1535.951 2281.644 595.622 585.810 2510.293 2448.252 1703.673 1110.771 2446.155 1259.872 1790.919 1623.679 1322.584 2368.042 1940.782 1935.594 2704.730 1487.396 1281.973 1220.809 2589.265 1913.611 1985.537 1311.348 2518.560 2583.618
2446.848 2323.865 2970.080 2156.843 2257.391 2412.372 2363.302 2290.259 2325.307 2243.093 2504.023 2028.663 2103.411 3401.035 2621.506 2147.277 2307.809 3155.964 2387.676 2424.725 1950.844 2135.993 2091.056 2068.220 2663.838 2435.499 2219.406 1754.928 2253.038 1472.154 2466.913 1461.654 2260.560 2766.769 2759.290 2144.200 2284.648 2124.789 2986.097 0.000 3245.690 2433.968 2416.642 2236.269 2307.575 2139.793 2248.375 2506.973 2406.153 1952.763 2100.497 2849.330 2936.105 2286.429 2284.605 2329.268 2426.591 3533.197 3028.831 3095.185 2730.764 2054.734 2013.364 2645.393 2708.988 2962.159 2599.812 2991.565 3401.749 2483.667 2910.718 2673.006 2865.836 2513.603 5078.542 2281.663 3217.726 1474.929 1751.712 3196.496 3173.519 2762.424 1674.162 1702.880 2806.368 3706.992 1797.894 2639.153 3591.216 3262.842 2506.909 2490.257 2780.432 2174.805 2616.422 2439.824 2938.842 1572.198 2424.090 2621.606 1742.362 2303.786 2238.115 2742.342 2918.027 2110.076 1979.934 2724.031 3804.902 3080.262 2807.572 2998.408 3541.693 2246.951 2422.407 2945.484 2671.587 2752.674 2654.782 2779.692 2696.846 2543.321 5386.661 3124.685 2252.542 1409.262 1880.329 2826.925 2484.608 1971.159 2353.868 1192.877 2627.883 3115.819 3322.050 2825.532 2377.921 2372.129 3207.438 3148.760 2459.894 2662.441 3039.035 2968.166 2119.215 2388.522 4626.112 2593.100 2124.748 3254.533 2336.015 3526.852 2767.382 2077.757 3282.949 2830.654 2488.522 2374.807 3244.103 2568.851 2996.764 2602.222 1865.184 2210.040 3056.185 2488.025 2396.394 1695.736 1723.612 2147.737 3227.327 2436.438 3148.732 2246.822 1835.045 2309.650 2728.392 2061.101 2787.372 2122.550 2115.234 2556.381 2475.366 3270.729 4435.987 2135.402 2601.202 2501.182
1043.672 2352.378 1576.054 1208.258 1232.783 859.715 1358.094 1678.473 1022.070 1122.226 862.387 1511.658 1204.129 732.194 1659.670 1553.267 1122.276 714.197 1312.769 1297.844 2091.759 1222.702 1264.310 1251.175 739.211 1246.459 1185.795 1826.579 1823.166 1902.065 1215.899 1880.532 1115.705 2107.663 889.804 1685.821 1205.445 1193.432 1890.000 3268.666 0.000 1032.840 1138.032 1521.438 1415.124 2280.708 1570.221 906.854 1475.155 1633.271 1280.022 809.159 736.611 1172.824 1097.532 2136.594 1307.665 864.357 778.646 1660.494 692.545 1763.811 1836.044 1569.473 856.258 1808.762 2474.471 1840.505 177.620 2134.288 1003.616 1606.641 2007.263 1806.520 2688.283 1960.152 1783.035 2354.059 1746.402 734.157 1857.176 2449.775 1770.905 1838.530 698.076 1252.275 1708.192 1672.705 1213.677 1828.151 1015.446 2518.770 1419.197 1226.335 1308.695 2090.445 467.801 1999.971 2452.603 2331.188 1941.661 1623.416 1261.948 2422.656 985.030 1786.360 1447.280 699.647 2042.853 453.449 1709.637 1704.073 317.563 1948.625 1349.910 1844.456 1163.279 2311.837 957.032 834.141 1052.276 3532.154 3955.083 1255.036 1320.784 1926.439 2884.590 2331.454 2071.045 1664.830 1127.043 2387.234 2164.682 1801.045 1908.777 1080.066 1502.991 1324.289 733.017 1782.470 1398.824 2690.954 1300.393 1531.852 1908.845 2417.035 3530.489 854.467 1375.621 1809.107 986.020 1570.810 2623.425 1419.725 611.162 1557.784 2363.182 1061.299 61.583 2219.472 877.122 1344.851 1522.106 2196.257 1960.088 1830.359 2424.907 2754.425 1677.306 1716.764 1922.771 1046.002 221.976 1384.576 1818.380 2165.079 1618.389 1782.809 2496.954 1309.240 1234.765 937.960 2503.879 438.552 3340.364 1178.689 2310.783 2375.842
380.280 1518.058 1009.079 328.058 418.001 277.578 574.173 893.942 210.856 307.445 353.171 664.331 323.929 1216.568 875.750 641.091 182.191 987.908 618.677 425.493 1217.872 407.920 384.111 377.289 479.371 360.135 293.353 952.692 926.227 1021.865 486.016 1000.332 235.505 1502.622 591.233 929.766 265.360 313.232 1182.235 2394.780 1061.222 0.000 230.021 625.773 542.773 1406.821 815.722 232.593 602.804 720.147 435.395 574.064 760.461 232.739 282.751 1376.112 421.341 1348.730 844.364 1134.184 546.296 911.398 962.157 785.553 433.721 1111.874 1713.988 1187.703 1217.282 1373.805 742.662 822.721 1402.223 1098.755 3129.586 1200.832 1256.725 1480.172 866.202 1012.029 1273.843 1695.779 890.705 964.643 620.167 1601.789 834.306 888.785 1505.068 1301.840 176.341 1684.450 788.493 346.135 436.344 1329.962 690.157 1126.084 1618.283 1570.705 1067.774 855.877 468.504 1662.173 639.550 1030.305 567.081 539.563 1938.107 895.794 1001.872 1143.000 1357.225 1189.306 477.559 1060.536 491.138 1701.639 470.315 595.225 589.549 2651.954 3583.273 1175.729 380.699 1052.552 2004.390 1726.414 1303.506 751.706 342.748 1507.034 1509.000 1217.712 1390.990 767.926 630.640 630.197 1039.382 1199.804 635.826 1856.634 952.887 901.149 1074.525 1582.715 2822.723 408.633 559.650 1339.156 121.219 1514.397 1862.942 613.996 1098.482 966.611 1602.699 85.911 1059.636 1458.989 828.708 797.727 641.906 1361.937 1252.323 1090.129 1590.587 1874.225 803.419 819.825 1339.439 162.058 964.265 616.975 909.081 1404.596 834.469 1009.894 1736.471 481.931 354.565 241.299 1669.559 1086.262 2632.599 298.489 1550.300 1615.359
560.399 1552.365 1208.606 425.908 500.499 440.307 703.363 707.260 410.383 396.542 474.815 747.809 403.681 1234.721 1048.261 450.804 180.711 907.021 405.282 215.424 1252.261 489.400 460.883 460.767 601.015 141.234 288.094 992.992 739.546 1063.494 685.544 1041.961 256.544 1692.968 510.346 1021.350 199.084 411.082 968.840 2411.119 1076.429 201.831 0.000 418.974 332.704 1441.210 905.750 327.485 392.735 570.755 518.873 461.322 882.105 198.328 410.705 1454.158 205.201 1366.883 966.008 1333.711 645.998 994.877 1002.458 985.081 320.979 1302.220 1796.848 974.308 1232.489 1456.665 661.775 1013.067 1592.569 885.359 3011.592 1254.660 1456.252 1508.224 874.853 1133.672 1473.371 1778.640 868.406 1004.943 627.275 1520.902 874.606 1061.296 1667.797 1501.368 343.823 1718.757 951.222 358.467 289.401 1412.822 664.303 1166.384 1652.590 1653.565 1108.075 952.141 551.002 1745.033 530.999 1083.074 575.732 660.676 2100.835 911.001 788.477 1338.469 1372.432 1236.567 267.490 1260.063 410.251 1793.222 591.959 716.869 508.662 2624.331 3369.878 1057.735 241.719 1092.853 1989.795 1851.275 1399.770 602.315 542.212 1492.439 1600.583 1417.240 1590.517 687.039 420.571 416.801 951.319 1081.810 422.431 1890.941 1115.615 1063.877 1108.832 1617.022 2609.328 500.186 643.128 1538.684 320.747 1677.125 1945.802 697.474 1113.689 847.846 1685.559 285.439 1074.843 1541.849 747.821 619.414 655.473 1396.244 1038.928 880.061 1624.894 1859.630 818.274 633.144 1538.966 327.893 979.472 713.239 733.962 1482.643 1033.997 1050.195 1819.331 565.409 383.117 291.516 1703.866 1102.165 2419.203 381.967 1633.161 1698.219
819.113 1469.430 1447.911 523.327 683.915 717.390 840.969 374.332 650.142 621.795 792.983 779.911 433.799 1626.252 1185.866 119.530 436.102 1243.006 474.243 329.991 1169.325 577.572 458.655 513.324 919.183 399.789 402.578 910.056 406.618 875.052 924.848 853.520 483.371 1662.015 846.331 1031.278 396.356 492.939 1061.177 2281.874 1467.961 563.583 447.087 0.000 212.841 1358.274 1057.471 693.957 311.419 439.414 564.254 852.853 1200.273 398.138 652.848 1371.223 412.349 1758.415 1284.176 1573.016 986.109 941.813 919.522 1123.060 712.511 1439.826 1713.912 1066.645 1624.021 1373.729 997.759 1150.673 1730.175 600.170 3165.584 1171.725 1695.557 1425.288 791.917 1451.841 1651.185 1695.704 646.472 922.008 993.858 1794.033 791.670 1198.902 1944.880 1740.673 710.295 1635.821 1228.305 370.581 558.446 1329.886 1055.835 1083.448 1569.654 1570.629 1025.139 1093.642 695.015 1662.097 893.687 1000.138 492.796 979.375 2282.569 1302.533 882.652 1476.075 1763.964 1153.631 327.673 1423.151 663.323 1710.584 910.127 1035.037 754.743 2415.426 3464.053 1211.727 293.903 1009.917 1767.862 1768.339 1374.670 470.974 780.602 1270.505 1517.945 1593.486 1799.717 912.574 252.822 458.697 1294.480 1235.802 537.022 1808.006 1392.699 1340.961 1025.896 1534.086 2703.504 848.445 657.169 1732.200 561.092 1954.209 1862.866 711.516 1505.220 917.695 1602.623 597.618 1466.374 1458.913 1083.805 689.264 567.705 1313.309 1131.266 574.593 1541.958 1637.697 735.338 300.216 1704.994 659.248 1371.004 854.740 512.028 1399.707 1206.058 967.259 1736.395 579.450 360.889 657.987 1620.930 1493.697 2513.379 441.942 1550.225 1615.283
843.218 1548.249 1472.017 533.365 708.021 728.991 882.127 478.592 674.248 645.901 763.500 821.069 476.982 1522.012 1227.025 206.573 402.347 1064.503 355.237 150.995 1248.144 585.942 499.813 544.963 889.700 220.793 372.290 988.876 507.910 976.344 948.954 954.811 465.691 1740.834 667.829 1110.098 361.006 501.310 966.445 2383.166 1363.721 490.515 373.740 189.749 0.000 1437.093 1098.630 616.170 108.548 522.560 603.069 748.613 1170.789 367.849 676.954 1450.042 270.757 1654.175 1254.692 1597.122 934.683 1020.632 998.341 1164.218 608.271 1480.984 1792.732 971.913 1519.781 1452.548 819.257 1191.831 1771.333 677.125 3048.371 1250.544 1719.663 1504.107 870.737 1422.357 1692.343 1774.523 747.764 1000.827 914.567 1676.820 870.489 1240.060 1956.481 1764.779 631.905 1714.640 1239.906 402.378 379.450 1408.705 951.595 1162.268 1648.473 1649.449 1103.958 1134.800 732.834 1740.916 714.691 1078.957 571.615 949.360 2323.727 1198.293 786.082 1517.233 1659.724 1232.451 148.677 1464.309 484.327 1789.404 880.644 1005.553 575.747 2516.718 3367.484 1094.514 310.949 1088.736 1869.154 1847.159 1453.490 554.119 804.708 1371.797 1596.764 1634.644 1840.875 769.709 115.518 339.690 1115.977 1118.589 358.026 1886.825 1404.299 1352.562 1104.715 1612.905 2606.934 788.871 698.328 1773.358 585.198 1965.810 1941.686 752.674 1400.980 800.482 1681.442 574.124 1362.134 1537.733 905.303 572.050 646.436 1392.128 1036.534 651.548 1620.778 1738.988 814.157 401.508 1746.152 615.185 1266.764 895.898 613.320 1478.526 1247.217 1046.078 1815.214 620.609 392.457 580.200 1699.749 1389.457 2416.809 466.163 1629.044 1694.102
1415.175 641.015 1615.589 1136.867 1225.718 1392.395 1100.263 1630.090 1305.330 1223.116 1484.047 889.398 1083.435 2377.808 1164.481 1377.239 1287.833 2288.926 1702.195 1497.412 264.933 1116.016 1071.079 1048.243 1643.862 1429.395 1199.430 883.644 1662.376 1184.614 1228.986 1139.623 1240.584 1083.919 1892.252 687.175 1273.930 1104.812 2272.113 2102.398 2225.713 1413.992 1405.925 1361.921 1423.776 0.000 791.350 1486.997 1522.354 1471.004 1080.521 1843.053 1916.128 1275.712 1264.628 646.418 1420.487 2509.970 2007.495 1740.693 1710.787 754.448 615.162 1210.290 1702.884 1514.443 916.961 2277.581 2381.773 862.647 2043.680 1336.559 1270.215 1855.928 4343.501 746.307 1816.590 1187.791 1104.262 2175.160 1766.813 1079.574 1274.964 930.336 1786.391 2902.808 716.807 1182.128 2381.639 1886.566 1486.932 807.406 1425.940 1168.701 1610.318 793.161 1918.865 845.769 741.239 938.756 921.985 846.761 1206.442 1059.491 1912.904 589.401 973.830 1704.054 2412.086 2060.285 2093.588 1591.703 2521.716 561.039 1538.608 1597.819 1760.011 1069.823 1634.806 1759.716 1851.432 2774.595 4674.989 2389.644 1246.438 760.171 2127.031 1144.074 999.526 1502.564 1234.051 1629.675 1032.262 1709.114 1878.018 2045.393 1463.757 1686.648 2333.224 2413.719 1736.881 979.591 1829.457 1613.675 433.304 705.671 3914.439 1573.123 1008.549 1810.501 1316.038 2082.820 1084.531 961.558 2262.972 2145.731 805.672 1354.831 2224.126 905.450 2129.726 1917.299 859.686 527.189 2342.201 1830.350 713.544 1996.866 866.872 1555.973 1820.622 1416.461 2128.756 968.909 1435.848 626.799 1376.719 599.518 1104.522 1102.573 1109.130 1536.404 792.515 2250.752 3724.315 1115.426 918.351 818.332
717.696 843.566 899.296 608.358 528.238 764.866 386.839 1328.295 712.277 613.780 809.509 498.641 655.142 1661.515 448.188 1073.493 778.714 1705.827 1249.107 1029.923 588.150 557.998 657.152 613.023 969.926 961.907 723.709 733.977 1360.581 1347.482 515.562 1325.949 722.837 900.313 1309.152 177.009 768.213 593.532 1812.665 2261.541 1608.373 881.117 901.402 1058.175 1065.409 788.545 0.000 900.949 1170.399 1153.891 602.801 1228.507 1241.591 769.995 663.064 623.355 960.698 1793.677 1291.202 1024.400 1039.016 295.578 386.305 493.997 1157.352 909.418 961.231 1818.133 1764.433 621.048 1460.580 620.266 994.196 1554.133 3872.876 449.064 1146.942 1346.934 929.148 1458.867 1120.778 943.022 1216.322 778.473 1169.052 2319.708 571.789 465.835 1665.346 1192.057 916.186 1009.958 709.647 769.760 1139.693 577.205 1301.526 992.845 943.791 817.948 849.059 79.917 508.962 909.416 1367.372 277.548 798.716 1086.715 1752.162 1439.331 1632.302 945.667 1904.377 439.813 1081.990 881.526 1261.523 948.882 967.521 1053.633 1359.934 2977.572 4213.703 1919.019 864.903 919.314 2330.007 1015.658 527.546 1185.450 520.627 1832.651 756.242 1063.078 1269.310 1499.414 1126.628 1260.626 1746.082 1943.094 1266.256 1182.142 1113.164 897.382 400.033 908.223 3453.153 955.784 511.234 1201.793 772.622 1474.111 1110.185 461.138 1587.517 1691.671 849.942 819.137 1606.787 706.232 1546.626 1463.239 684.572 687.445 1882.753 1528.555 916.095 2199.842 685.887 1254.178 1174.586 880.768 1511.416 255.484 1263.797 651.839 660.426 273.998 983.714 559.618 724.458 951.354 995.067 1633.413 3263.029 687.133 797.543 862.602
317.166 1614.093 971.948 424.092 485.581 152.580 631.587 990.804 248.280 375.025 155.252 760.365 419.963 1018.649 933.163 734.348 303.356 861.356 691.587 501.729 1313.907 475.500 480.145 473.323 281.452 427.539 401.629 1048.726 1023.089 1117.899 480.827 1096.366 331.540 1529.961 464.681 954.462 386.526 409.266 1255.144 2490.814 862.772 213.921 319.112 702.518 619.009 1502.855 838.863 0.000 679.040 841.312 531.429 384.036 562.542 353.904 350.331 1405.236 488.745 1150.812 646.445 1096.731 347.846 1007.433 1058.192 842.966 283.859 1169.287 1743.112 1260.612 1018.832 1402.929 616.109 880.135 1429.562 1171.664 3186.192 1228.793 1219.272 1576.207 962.236 814.110 1249.284 1724.904 986.740 1060.677 423.451 1475.237 930.340 946.199 1352.118 1264.388 149.337 1780.484 707.989 442.170 521.337 1359.086 515.494 1222.118 1714.317 1599.829 1163.809 892.058 535.442 1691.297 493.880 1055.001 663.115 341.113 1785.156 697.344 1074.782 1105.870 1158.775 1217.267 553.795 1117.949 547.744 1726.335 272.396 397.306 627.153 2747.989 3656.183 1232.335 501.865 1148.587 2100.425 1753.753 1339.686 872.871 400.536 1603.068 1533.696 1193.154 1353.537 654.943 706.876 703.106 901.611 1256.410 708.735 1952.669 799.936 820.644 1170.559 1678.749 2895.633 188.413 649.114 1314.598 196.996 1361.446 1892.066 688.366 900.031 1023.217 1631.823 277.134 861.185 1488.113 702.155 854.333 737.940 1457.972 1325.233 1166.365 1686.622 1970.259 899.454 916.687 1314.880 204.575 765.815 653.218 1017.506 1433.720 891.882 1051.451 1765.595 562.038 450.599 77.862 1765.593 887.811 2705.508 394.523 1579.425 1644.483
939.260 1649.817 1573.585 634.933 809.589 819.168 983.695 565.616 775.817 747.469 853.677 922.638 578.551 1612.189 1328.593 308.141 492.524 1109.901 339.345 241.172 1349.713 687.511 601.381 646.531 979.877 310.970 473.858 1090.444 609.478 1077.912 1050.522 1056.380 567.259 1842.402 713.226 1211.666 462.574 602.878 950.554 2484.734 1453.898 580.692 463.917 291.317 115.141 1538.661 1200.198 706.347 0.000 624.128 704.637 824.595 1260.966 469.417 778.523 1551.610 360.934 1744.352 1344.869 1698.690 1024.860 1122.200 1099.909 1265.786 698.448 1582.552 1894.300 956.022 1609.958 1554.117 864.654 1293.400 1872.902 743.080 3032.479 1352.112 1821.231 1605.675 972.305 1512.534 1793.912 1876.091 849.332 1102.395 1004.744 1660.928 972.058 1341.628 2046.658 1866.347 722.082 1816.209 1330.083 503.946 469.627 1510.274 1041.772 1263.836 1750.041 1751.017 1205.526 1236.368 834.402 1842.484 804.868 1180.525 673.183 1039.537 2425.296 1288.470 770.191 1618.801 1749.901 1334.019 238.854 1565.877 574.504 1890.972 970.821 1095.730 650.783 2606.045 3351.592 1078.622 412.517 1190.304 1970.722 1948.727 1555.058 655.688 906.276 1473.366 1698.332 1736.212 1942.444 779.468 164.114 323.799 1161.374 1102.697 342.134 1988.393 1494.476 1442.739 1206.283 1714.474 2591.042 879.048 799.896 1874.927 686.766 2055.987 2043.254 854.242 1491.157 784.590 1783.010 664.301 1452.311 1639.301 950.700 556.158 748.004 1493.696 1020.642 717.502 1722.346 1840.557 915.725 503.076 1847.720 705.362 1356.941 997.467 714.888 1580.095 1348.785 1147.646 1916.783 722.177 494.026 670.377 1801.318 1479.634 2400.917 567.732 1730.612 1795.671
973.988 1640.017 1602.786 678.202 838.790 872.265 1002.199 638.062 805.017 776.670 947.858 941.141 588.674 1790.400 1347.096 492.430 590.977 1462.701 735.478 665.739 1339.913 732.447 619.885 674.554 1074.058 601.418 557.453 1080.644 575.433 651.439 1079.723 629.906 638.246 1832.602 1066.026 1201.866 551.231 647.814 1333.899 2058.261 1632.109 718.458 602.859 477.112 548.590 1528.861 1218.701 858.105 647.167 0.000 725.484 1017.001 1355.148 553.013 807.723 1541.810 592.510 1922.563 1439.051 1727.891 1140.984 1112.400 1090.109 1284.290 876.659 1601.056 1884.500 1339.367 1788.169 1544.317 1217.454 1311.903 1891.405 861.405 3426.345 1342.312 1850.432 1258.371 962.505 1606.716 1812.415 1866.291 422.859 1092.595 1158.006 2054.794 962.258 1360.132 2099.755 1895.548 874.443 1806.409 1383.181 522.449 782.341 1500.474 1219.983 1073.033 1740.241 1741.217 1195.726 1254.872 856.245 1832.685 1086.679 1170.725 659.011 1134.251 2443.799 1466.681 1155.374 1637.305 1928.112 1324.219 663.422 1584.381 932.034 1881.172 1065.002 1189.912 1023.455 2191.813 3734.464 1472.488 450.489 987.434 1544.248 1938.927 1545.258 101.709 935.477 1046.892 1688.532 1754.716 1960.947 1173.335 588.571 719.932 1506.999 1496.563 807.696 1978.593 1547.574 1495.836 1196.483 1704.674 2973.914 1003.320 818.399 1893.430 715.967 2109.084 2033.454 872.746 1669.369 1178.457 1773.211 752.493 1630.522 1629.501 1303.500 950.025 730.053 1483.896 1403.988 835.828 1712.546 1414.083 905.926 495.539 1866.224 814.123 1535.152 1015.970 288.415 1570.295 1367.288 1137.846 1906.983 740.680 512.529 822.136 1791.518 1657.845 2783.790 596.817 1720.812 1785.871
387.775 1239.290 1016.573 138.981 198.318 397.835 393.128 866.745 310.770 200.893 479.589 356.421 137.302 1386.498 738.026 613.894 340.976 1328.606 811.369 588.314 939.104 51.513 148.800 98.521 640.006 520.297 253.297 673.924 899.031 839.313 493.511 817.780 285.099 1382.734 931.931 689.128 327.797 131.523 1374.927 2116.012 1231.153 456.084 459.792 598.576 572.080 1128.053 623.680 500.535 677.070 692.950 0.000 851.286 911.670 329.579 259.847 1105.109 519.088 1518.661 1014.294 1141.678 709.096 603.488 683.389 675.219 756.938 991.985 1442.985 1380.395 1387.213 1102.802 1083.360 702.832 1282.334 1092.583 3435.138 892.922 1264.219 1201.404 625.671 1181.959 1203.345 1424.777 708.153 685.875 791.831 1942.487 555.538 751.061 1600.326 1309.335 515.772 1405.682 837.045 268.828 701.955 1058.959 924.305 847.316 1339.515 1299.702 789.006 667.052 193.504 1391.170 966.958 729.916 328.574 709.494 1834.728 1065.725 1194.564 1028.234 1527.156 881.396 640.380 975.310 851.648 1439.657 640.246 765.156 943.069 2469.402 3775.965 1481.281 369.404 773.784 1821.838 1497.412 1092.817 724.509 294.794 1324.482 1247.018 1145.645 1351.876 1122.193 669.751 822.888 1368.861 1505.356 828.518 1577.866 1048.144 996.407 795.757 1303.947 3015.415 578.563 254.791 1284.360 347.589 1556.678 1591.939 309.137 1268.412 1253.933 1331.696 394.104 1229.566 1187.986 1169.405 1025.501 388.421 1083.169 1445.015 1067.005 1311.819 1691.673 524.651 792.628 1257.153 455.735 1134.196 428.150 755.628 1133.593 758.218 704.187 1465.468 124.465 269.995 550.940 1390.791 1256.192 2825.291 169.293 1279.298 1344.356
691.096 1988.022 1246.697 798.022 859.511 526.510 1005.517 962.188 622.210 748.955 476.998 1134.295 793.893 950.931 1307.093 946.027 576.179 512.138 596.484 672.728 1687.836 849.430 854.075 847.253 424.324 634.564 687.342 1422.656 1106.881 1482.888 851.808 1461.355 650.586 1778.306 173.519 1325.443 640.841 783.196 1173.715 2863.491 792.639 486.913 520.770 916.132 790.009 1876.785 1209.844 395.840 850.040 1067.913 905.359 0.000 684.112 626.727 724.261 1776.217 702.359 1083.093 820.240 1331.137 469.257 1381.362 1432.121 1216.896 225.540 1479.405 2114.093 1124.220 948.699 1773.910 324.947 1254.064 1677.906 1090.235 2914.336 1599.774 1453.678 1950.136 1327.225 952.893 1527.819 2095.884 1346.735 1434.607 385.140 1126.020 1304.270 1320.128 1432.414 1498.794 503.538 2154.414 999.430 757.714 683.580 1730.067 380.513 1596.048 2088.247 1970.810 1537.738 1263.038 909.372 2062.278 268.745 1425.982 1025.070 478.450 1976.761 627.211 993.352 1374.716 1088.642 1588.247 724.795 1491.879 446.994 1982.480 537.266 613.322 335.991 2829.207 3574.753 960.479 697.461 1522.516 2465.413 2002.097 1710.667 1099.473 774.466 1968.057 1835.325 1471.688 1587.943 363.781 846.999 608.004 532.729 1074.692 682.539 2326.598 991.541 1112.086 1544.489 2052.679 2814.204 343.454 1023.044 1593.132 570.926 1553.051 2263.047 1059.347 829.899 841.499 2002.804 571.046 791.052 1859.094 368.138 628.566 1096.111 1831.901 1243.803 1114.074 2060.551 2335.248 1270.646 1000.479 1593.414 510.514 695.682 1024.198 1212.292 1804.701 1265.812 1422.432 2136.576 935.968 815.588 425.210 2139.523 818.375 2624.079 768.453 1950.406 2015.464
686.298 1931.341 858.321 902.649 887.063 541.636 950.783 1501.457 703.991 816.617 443.822 1118.104 898.520 615.373 1054.826 1248.606 862.812 1001.646 1229.819 1077.348 1675.925 917.093 958.702 945.566 437.594 1003.158 880.186 1520.970 1533.742 1596.456 774.499 1574.923 810.096 1389.930 806.854 1264.784 924.689 887.823 1807.049 2963.058 752.891 789.857 894.731 1233.288 1194.629 1876.320 1149.184 603.393 1254.659 1327.662 974.413 726.209 0.000 913.359 791.923 1715.558 1064.364 747.535 243.169 942.761 328.761 1359.142 1474.080 963.590 773.307 1091.029 2053.434 1757.555 908.950 1713.251 958.282 1000.758 1289.531 1723.569 3356.510 1539.115 1065.302 2048.450 1440.793 410.834 1139.443 1732.042 1465.296 1532.921 437.924 1614.921 1402.583 1067.861 1050.346 1110.418 709.837 2097.733 742.022 920.726 1096.957 1669.408 487.608 1694.362 2031.566 1886.088 1636.052 1207.143 883.403 1793.684 902.079 1365.323 1141.672 365.048 1567.880 402.627 1626.687 986.341 1048.894 1527.588 1129.414 1238.573 1078.973 1594.104 393.552 203.927 969.325 3226.545 4208.088 1593.813 1016.406 1620.830 2578.981 1613.722 1652.859 1359.221 748.498 2081.625 1446.949 1083.312 1199.567 997.116 1282.495 1241.338 995.013 1708.026 1284.355 2269.917 582.660 854.678 1487.808 1995.998 3447.538 474.810 997.076 1204.756 680.411 1144.170 2178.325 1026.171 489.622 1474.833 1942.145 755.690 751.304 1798.435 929.189 1261.900 1216.497 1775.220 1877.138 1701.717 2003.870 2448.816 1371.697 1427.340 1205.038 756.481 655.934 991.023 1512.771 1744.042 1012.506 1361.773 2051.854 1003.631 929.156 653.798 2082.842 847.315 3257.413 873.080 1865.683 1954.805
513.792 1462.501 1142.591 283.161 357.752 411.090 560.616 747.740 344.368 295.631 486.683 608.773 264.646 1280.027 905.513 492.429 37.964 1026.429 485.742 295.885 1162.315 346.653 321.847 321.731 612.883 221.695 149.059 897.135 780.026 944.605 619.528 923.072 113.797 1550.221 629.755 878.602 79.127 268.335 1049.300 2325.208 1121.736 165.445 155.081 460.599 391.105 1351.264 763.003 339.527 473.196 575.852 379.838 580.730 893.973 0.000 326.685 1329.376 277.998 1412.190 977.876 1267.695 658.040 855.841 906.600 842.707 440.387 1159.473 1667.252 1054.768 1277.796 1327.069 781.183 870.320 1449.822 962.981 3109.512 1145.275 1390.237 1422.313 788.942 1145.541 1370.832 1649.044 813.446 909.086 639.620 1640.311 778.748 918.549 1638.580 1435.352 339.896 1628.893 922.005 219.431 376.329 1283.226 709.610 1070.527 1562.725 1523.969 1012.217 809.394 408.255 1615.437 650.408 979.141 486.787 672.718 2002.216 956.308 868.937 1195.722 1417.739 1133.748 347.951 1142.798 526.022 1650.475 603.827 728.737 617.442 2574.695 3450.338 1155.655 208.244 996.995 1927.131 1721.679 1257.023 607.412 461.653 1429.774 1457.836 1313.133 1519.364 806.447 501.032 497.262 1070.727 1179.730 502.891 1801.077 1086.398 1034.661 1018.968 1527.158 2689.789 512.228 504.092 1451.847 254.731 1647.909 1816.206 558.439 1158.995 928.306 1555.963 233.939 1120.149 1412.253 867.229 699.874 557.828 1306.380 1119.389 937.404 1535.030 1796.965 732.363 673.623 1424.641 295.569 1024.779 570.492 764.786 1357.860 925.705 954.337 1689.735 426.373 277.305 303.558 1614.002 1147.472 2499.664 242.932 1503.565 1568.623
285.965 1370.851 914.764 199.527 199.238 255.701 414.553 927.173 168.636 67.216 347.353 517.123 246.311 1244.364 759.451 674.322 284.534 1186.472 701.892 512.034 1070.665 201.608 248.320 230.081 507.168 437.845 305.902 805.485 959.458 938.832 391.701 917.300 235.170 1404.158 789.797 732.540 350.405 184.701 1265.450 2247.573 1089.019 317.464 391.280 659.004 629.315 1259.614 616.940 358.401 689.345 753.378 258.928 709.152 779.434 335.082 0.000 1183.313 513.630 1376.527 872.160 1039.869 574.093 764.191 814.950 690.836 614.804 1013.410 1521.189 1270.918 1245.079 1181.006 941.226 724.257 1303.759 1153.011 3319.794 1006.870 1162.410 1332.965 757.232 1039.825 1179.528 1502.981 807.673 817.436 649.697 1800.353 687.098 772.486 1468.483 1207.526 373.638 1537.243 751.908 346.442 592.478 1137.163 782.171 978.877 1471.075 1377.906 920.567 663.331 262.192 1469.374 824.824 833.078 454.370 567.360 1856.153 923.591 1085.087 1048.685 1385.022 995.344 564.100 965.818 718.453 1504.412 498.112 623.022 816.864 2568.922 3666.488 1365.937 442.122 905.345 1921.358 1575.616 1110.960 784.937 247.455 1424.002 1311.773 1123.397 1296.675 980.059 717.182 713.412 1226.727 1390.012 719.041 1709.427 916.301 864.564 927.318 1435.508 2905.939 436.429 391.020 1244.842 208.970 1477.812 1670.143 445.366 1126.278 1144.456 1409.900 255.485 1087.432 1266.190 1027.272 916.024 519.982 1214.730 1335.538 1127.433 1443.380 1791.193 656.212 853.056 1245.124 317.115 992.062 424.429 855.148 1211.798 739.751 829.528 1543.672 288.146 354.872 408.806 1522.352 1114.058 2715.814 278.302 1357.502 1422.560
1262.322 489.794 1240.050 1152.985 1072.865 1309.492 931.466 1678.952 1256.903 1158.406 1354.136 810.744 1132.297 2215.382 1002.055 1426.102 1323.340 2250.453 1751.057 1546.274 481.906 1102.625 1119.941 1072.230 1514.553 1478.257 1248.292 944.057 1711.238 1452.508 1060.189 1407.517 1267.463 687.324 1853.779 511.330 1312.840 1138.159 2320.975 2370.292 2153.000 1425.744 1446.028 1410.783 1472.639 647.670 610.556 1445.576 1571.216 1519.867 1074.257 1773.134 1786.217 1314.621 1207.691 0.000 1469.349 2347.545 1845.070 1360.751 1583.643 607.612 555.429 1047.865 1701.978 1117.848 487.140 2326.443 2309.060 466.052 2005.207 1174.133 873.620 1904.790 4392.363 290.391 1419.995 1455.684 1153.124 2012.735 1370.218 682.979 1522.325 990.749 1713.679 2864.335 778.177 1019.703 2219.213 1489.971 1460.813 555.707 1263.514 1217.564 1659.180 396.566 1846.153 1113.663 589.300 542.161 1059.139 596.967 1053.589 662.896 1911.999 446.672 1022.692 1631.341 2015.491 1983.958 2142.450 1195.108 2449.003 303.679 1587.471 1435.394 1806.150 673.228 1512.147 1598.260 1900.294 3042.489 4723.851 2438.506 1295.300 1028.064 2394.925 747.480 517.517 1551.426 1065.254 1897.569 635.667 1312.519 1481.423 2044.041 1512.619 1735.510 2290.709 2462.581 1785.743 828.370 1667.031 1451.249 389.920 493.325 3963.301 1500.411 929.896 1413.907 1317.249 1686.225 654.710 882.904 2141.384 2194.593 375.850 1363.764 2151.413 508.855 2091.253 1966.161 908.548 213.465 2391.063 1879.212 504.926 2264.760 915.684 1604.835 1424.027 1425.394 2056.043 800.111 1569.800 71.956 1214.294 511.293 675.207 1049.313 1157.992 1495.981 529.474 2178.039 3773.177 1164.288 521.756 388.510
717.239 1547.954 1365.479 469.241 580.640 597.147 783.504 681.822 567.256 518.520 631.655 767.882 423.754 1416.621 1128.402 409.803 260.853 1053.852 488.645 243.049 1247.849 521.819 480.955 480.840 757.855 177.475 308.167 988.580 711.139 1059.082 842.417 1037.550 336.686 1740.539 657.177 1100.589 271.975 437.187 1052.203 2406.707 1258.330 363.205 232.246 384.296 262.110 1436.798 985.891 484.326 343.006 566.344 538.946 643.222 1038.945 276.685 549.573 1449.747 0.000 1548.784 1122.848 1490.584 802.838 1014.949 998.046 1065.596 502.879 1382.361 1792.437 1057.671 1414.389 1452.253 808.605 1093.209 1672.711 880.355 3101.982 1250.249 1613.125 1503.812 870.441 1290.513 1593.721 1774.228 863.994 1000.532 784.227 1667.733 870.194 1141.437 1824.637 1658.241 500.664 1714.345 1108.062 378.539 368.799 1408.410 846.204 1161.973 1648.178 1649.153 1103.663 1032.283 631.144 1740.621 704.040 1078.662 571.320 817.516 2225.105 1092.902 871.840 1418.611 1554.333 1232.156 265.005 1365.686 518.492 1789.108 748.799 873.709 609.912 2632.948 3453.241 1148.125 261.792 1088.441 1985.384 1846.864 1453.195 597.903 684.541 1488.027 1596.469 1536.022 1742.253 803.874 349.977 499.343 1105.326 1172.200 505.794 1886.530 1272.455 1220.718 1104.420 1612.610 2692.692 657.027 663.201 1674.736 477.620 1833.965 1941.390 717.547 1295.589 931.209 1681.147 446.814 1256.743 1537.437 894.651 702.777 651.061 1391.833 1122.292 854.777 1620.483 1855.219 813.862 604.737 1647.530 509.793 1161.373 793.381 729.550 1478.231 1148.594 1045.783 1814.919 585.482 378.706 448.356 1699.454 1284.065 2502.567 402.040 1628.749 1693.807
1313.322 2492.307 1419.287 1485.952 1510.477 1130.880 1519.142 1973.549 1293.235 1399.921 1070.846 1745.128 1481.823 250.901 1615.791 1831.910 1417.352 1284.230 1607.845 1592.920 2236.890 1500.396 1542.005 1528.870 1034.287 1541.535 1463.489 2104.273 2117.046 2179.759 1342.858 2158.226 1393.400 1949.713 1184.880 1825.750 1500.521 1471.126 2185.076 3546.361 942.113 1327.916 1433.108 1816.514 1710.200 2437.286 1710.150 1186.696 1770.231 1910.965 1557.716 1104.235 780.155 1467.900 1375.227 2276.523 1602.740 0.000 558.869 1503.727 955.785 1920.108 2035.046 1524.555 1151.334 1651.995 2614.399 2135.581 983.791 2274.216 1336.308 1561.724 1849.314 2101.596 3443.210 2100.080 1538.779 2631.753 2024.096 434.236 1460.469 2291.825 2048.600 2116.224 993.152 1822.309 1985.887 1628.826 647.831 1521.075 1293.140 2658.698 1302.987 1504.030 1603.771 2230.373 772.489 2277.665 2592.531 2445.871 2219.355 1768.108 1510.427 2353.467 1280.106 1926.288 1724.975 994.723 1554.338 578.065 2004.713 1547.306 893.357 2088.554 1644.986 1799.538 1458.355 2153.887 961.911 772.286 1347.352 3809.849 4586.114 1825.069 1599.710 2204.133 3162.285 2173.505 2213.824 1942.524 1375.522 2664.928 2006.732 1414.932 1420.262 1375.142 1798.067 1619.365 1303.050 2086.053 1693.900 2830.883 1143.625 1415.643 2048.773 2556.963 3825.565 1101.834 1624.100 1320.592 1263.714 1082.295 2738.108 1653.195 343.399 1852.860 2503.110 1338.994 940.526 2359.400 1307.216 1639.927 1799.800 2336.186 2255.164 2125.435 2564.836 3032.119 1955.000 2010.644 1536.659 1339.785 790.685 1618.047 2096.074 2305.008 1573.471 1922.738 2611.637 1586.934 1512.459 1233.035 2643.807 1101.130 3635.440 1456.383 2425.466 2515.770
813.455 1992.441 919.421 986.086 1010.611 631.014 1019.276 1584.894 793.369 900.055 570.980 1245.262 981.957 432.600 1115.925 1332.043 946.249 1178.309 1350.643 1160.785 1737.024 1000.530 1042.139 1029.003 564.751 1086.596 963.623 1604.407 1617.180 1679.893 842.992 1658.360 893.533 1451.029 941.780 1325.883 1008.127 971.260 1914.201 3046.495 836.191 873.294 978.169 1316.725 1278.066 1937.420 1210.284 686.830 1338.096 1411.099 1057.850 861.135 281.526 996.796 875.361 1776.657 1147.801 564.763 0.000 1003.860 455.919 1420.241 1535.180 1024.689 904.553 1152.129 2114.533 1892.481 992.251 1774.350 1093.208 1061.857 1350.630 1810.732 3479.039 1600.214 1126.402 2131.887 1524.230 212.995 1200.542 1793.141 1548.733 1616.358 598.038 1716.387 1486.021 1128.960 914.083 1171.517 793.274 2158.832 803.121 1004.163 1180.394 1730.507 616.489 1777.799 2092.665 1947.187 1719.489 1268.242 1010.561 1854.783 1037.005 1426.422 1225.109 580.386 1628.979 398.804 1733.838 1047.440 1132.194 1588.688 1212.851 1299.672 1206.131 1655.204 462.044 272.420 1104.251 3309.982 4315.239 1719.147 1099.844 1704.267 2662.418 1674.821 1713.958 1442.658 875.656 2165.062 1508.048 1144.411 1260.667 1132.042 1365.933 1362.163 1171.903 1842.953 1367.792 2331.017 643.759 915.777 1548.907 2057.097 3554.690 601.968 1124.234 1265.855 763.848 1205.269 2239.424 1153.329 360.237 1609.760 2003.244 839.128 834.605 1859.534 1106.079 1396.826 1299.934 1836.320 1984.289 1785.154 2064.969 2532.253 1455.134 1510.777 1266.138 839.918 687.350 1118.180 1596.208 1805.141 1073.605 1422.872 2112.953 1087.068 1012.593 737.235 2143.941 969.843 3364.565 956.517 1926.783 2015.904
1018.562 1658.366 152.267 1195.143 1067.904 1056.785 818.128 1928.869 1042.153 1132.569 1084.968 1209.184 1241.927 1495.536 905.051 1674.067 1315.856 1858.770 1733.214 1543.357 1535.784 1144.783 1243.936 1213.597 1103.143 1469.167 1310.494 1613.337 1961.154 1934.449 720.690 1912.916 1264.090 684.066 1462.096 1124.644 1354.998 1180.317 2296.772 3117.061 1796.637 1289.594 1368.521 1658.748 1652.194 1707.999 1009.044 1173.638 1720.668 1754.464 1189.586 1381.451 1077.698 1356.779 1076.653 1337.415 1543.403 1570.639 1125.224 0.000 1164.663 1219.002 1333.940 685.557 1424.869 364.663 1479.050 2302.240 1952.696 1033.653 1613.524 796.067 583.667 2154.707 4202.912 1231.081 146.560 2202.454 1680.186 1292.889 346.680 1026.178 1803.289 1657.833 1314.593 2472.652 1451.149 918.087 1345.980 191.676 1188.875 1735.883 575.288 1356.544 1574.844 1146.478 1508.031 1848.366 1758.590 1180.224 1728.419 1067.002 1064.244 1087.820 1557.321 1225.182 1416.488 1296.940 1027.531 1420.997 2116.409 259.975 2092.640 1387.448 1595.423 639.732 1591.400 888.241 973.622 988.974 1624.567 3564.538 4697.811 2249.055 1451.687 1774.834 2916.974 907.858 1053.129 1786.024 933.087 2419.618 741.085 290.549 280.825 1652.358 1727.201 1744.734 1899.025 2300.065 1750.363 1996.942 947.185 571.759 1347.667 1673.500 3937.261 1122.284 1110.281 377.438 1134.398 649.756 1472.461 1117.251 1421.538 2066.872 1358.814 1207.642 1795.050 1145.929 1699.570 1897.988 1442.936 1473.737 2366.861 2129.129 1685.102 2786.809 1561.599 1854.752 412.275 1235.520 1699.679 994.329 1850.764 1310.802 486.755 1221.632 1345.990 1160.192 1325.031 1224.044 1709.650 1843.638 3747.136 1273.918 1159.820 1380.421
427.730 1736.436 1011.393 592.315 616.840 243.772 742.151 1191.123 406.127 506.284 242.004 895.715 588.186 819.943 1043.727 938.272 552.478 883.135 928.506 767.014 1475.816 606.759 648.368 635.232 123.268 692.825 569.852 1210.636 1223.409 1286.122 599.956 1264.589 499.762 1543.001 505.541 1069.878 614.356 577.489 1505.737 2652.724 751.587 479.523 584.398 922.954 884.295 1664.765 954.279 293.059 944.325 1017.328 664.079 424.896 338.501 603.025 481.590 1520.652 754.030 952.105 447.738 1095.832 0.000 1147.868 1220.101 953.530 468.315 1244.101 1858.528 1456.242 907.647 1518.345 656.969 990.698 1442.602 1416.961 3246.358 1344.209 1218.374 1738.116 1130.459 615.403 1292.514 1840.320 1154.962 1222.587 247.581 1497.017 1092.250 1056.762 1226.734 1263.489 399.503 1902.827 764.126 610.392 786.623 1474.502 441.019 1384.028 1836.660 1715.245 1325.718 1007.473 646.006 1806.713 600.767 1170.417 831.338 229.928 1741.457 524.526 1325.374 1139.412 1047.590 1332.682 819.080 1228.513 769.892 1747.176 301.961 229.300 668.013 2916.211 3906.775 1292.501 706.073 1310.496 2268.647 1766.793 1455.102 1048.887 511.100 1771.291 1600.020 1236.383 1352.639 695.803 972.162 940.026 903.726 1406.714 974.021 2075.011 756.236 876.781 1292.902 1801.092 3146.226 217.597 759.678 1357.827 370.077 1317.746 2007.482 803.782 744.053 1173.521 1747.239 445.357 750.000 1603.529 743.015 960.588 906.163 1580.315 1575.825 1391.383 1808.964 2138.482 1061.363 1117.006 1358.110 446.147 654.630 768.633 1202.437 1549.136 1002.446 1166.867 1881.011 693.297 618.822 343.464 1887.936 776.626 2956.101 562.746 1694.841 1759.899
865.205 773.457 1075.545 718.560 675.748 912.375 535.633 1257.629 859.786 759.323 957.019 339.428 665.128 1823.770 624.438 1004.778 869.526 1853.336 1329.734 1116.140 518.041 631.481 652.772 600.914 1117.436 1048.123 781.123 536.630 1289.915 1194.807 664.356 1149.817 822.277 868.611 1456.662 152.202 855.623 686.505 1899.652 2064.194 1755.883 995.685 987.618 989.460 1051.315 718.437 251.307 1048.459 1149.893 1098.543 602.940 1376.017 1389.100 857.405 810.574 582.632 1046.736 1955.932 1451.566 1200.650 1186.526 0.000 282.603 670.247 1294.564 1085.668 920.509 1905.120 1911.943 580.325 1608.090 796.515 962.495 1483.467 3963.280 370.446 1323.191 1149.586 731.800 1619.231 1297.028 902.300 1101.001 581.126 1316.562 2467.218 374.442 642.085 1841.595 1368.307 1063.696 939.849 885.897 793.101 1230.097 536.482 1449.036 795.498 873.682 777.225 651.712 306.718 656.472 868.693 1504.584 207.439 601.369 1234.224 1928.411 1586.841 1721.127 1121.917 2051.886 358.919 1166.147 1057.776 1379.790 917.181 1116.315 1202.427 1471.210 2784.789 4302.528 2009.423 872.687 721.966 2137.225 974.936 570.340 1130.103 669.421 1639.868 724.541 1239.328 1445.559 1646.924 1091.296 1314.187 1893.592 2033.498 1356.659 1112.033 1289.414 1073.631 329.924 838.114 3541.978 1103.294 458.579 1378.043 897.731 1650.361 1069.463 411.588 1747.880 1773.270 809.219 936.524 1754.296 665.509 1694.136 1544.838 487.225 617.337 1969.740 1457.889 845.986 2007.059 488.539 1183.512 1350.836 998.154 1658.926 404.278 1148.476 611.117 836.676 181.710 942.991 577.997 710.621 1098.864 924.958 1780.922 3351.853 697.119 756.821 821.879
957.649 728.180 1212.267 675.917 768.192 931.446 672.040 1169.141 844.381 762.167 1023.098 431.871 622.485 1920.109 803.713 916.290 826.884 1827.977 1241.246 1036.463 448.964 655.067 610.130 587.294 1182.913 968.446 738.480 434.246 1201.427 1112.141 800.762 1067.150 779.635 926.851 1431.302 326.407 812.981 643.863 1811.164 1981.528 1764.764 953.043 944.976 900.972 962.827 646.295 430.582 1026.048 1061.405 1010.055 619.572 1382.103 1455.179 814.763 803.679 629.973 959.538 2052.272 1547.905 1337.372 1249.838 296.921 0.000 849.522 1241.935 1224.571 978.748 1816.632 1920.824 638.565 1582.731 935.419 1020.734 1394.979 3882.552 436.560 1459.913 1066.920 643.312 1715.570 1435.931 960.540 1012.513 480.938 1325.442 2441.858 268.366 821.360 1978.317 1505.029 1025.983 894.572 1022.619 707.752 1149.369 594.722 1457.916 712.832 828.405 835.465 549.328 485.993 748.915 926.933 1451.955 262.062 512.881 1243.105 2067.315 1599.336 1632.639 1260.820 2060.767 412.382 1077.659 1207.896 1299.062 975.420 1173.857 1298.767 1390.483 2701.586 4214.040 1928.695 785.489 639.300 2054.022 1033.175 639.506 1041.615 800.696 1557.202 782.781 1378.232 1584.463 1584.444 1002.808 1225.699 1872.275 1952.770 1275.932 1066.756 1426.135 1210.353 284.647 792.837 3453.490 1112.174 551.023 1516.946 855.089 1789.264 1127.702 504.032 1802.023 1684.782 867.459 893.882 1763.177 723.749 1668.777 1456.350 398.737 572.059 1881.252 1369.401 800.709 1924.393 405.873 1095.024 1489.739 955.512 1667.807 540.685 1059.988 658.458 990.804 194.442 1001.231 641.624 648.181 1075.455 879.681 1789.803 3263.365 654.477 815.061 880.119
667.963 1247.300 576.407 652.635 572.515 715.133 275.620 1386.360 662.544 658.056 759.777 669.314 699.418 1449.569 310.943 1131.559 822.990 1656.094 1293.383 1074.200 991.883 602.275 701.428 671.089 920.194 1006.183 767.985 1078.635 1418.646 1391.940 385.732 1370.408 767.113 948.592 1259.420 580.743 812.489 637.808 1856.941 2577.192 1558.641 868.919 942.734 1116.240 1109.685 1192.279 465.143 847.149 1214.676 1211.956 647.077 1178.775 1031.731 814.271 650.866 1031.516 1004.974 1581.731 1079.257 701.512 982.814 684.300 790.039 0.000 1103.552 568.100 1369.393 1862.409 1714.701 1029.209 1410.848 309.786 848.192 1612.198 3850.238 855.073 824.053 1662.584 1137.678 1246.922 769.203 1290.704 1260.781 1123.132 1119.320 2269.976 916.448 323.978 1453.400 869.169 862.386 1413.691 443.037 814.036 1149.057 985.366 1251.794 1308.496 1347.524 1226.109 1193.718 523.101 553.238 1317.577 1313.572 681.281 873.979 1036.982 1410.843 1375.029 1676.578 594.092 1854.644 843.547 1126.266 455.513 1211.791 1152.766 791.773 885.624 1310.202 3022.030 4257.979 1896.381 909.179 1234.964 2374.466 1172.383 968.817 1243.515 507.300 1877.109 1005.611 711.503 917.734 1449.682 1184.693 1304.903 1696.350 1920.456 1310.532 1585.876 901.218 557.550 803.766 1311.956 3497.430 906.051 567.773 850.218 754.789 1122.536 1518.346 577.381 1375.571 1687.263 1258.103 806.939 1557.054 1114.393 1496.894 1507.515 900.428 1091.179 1927.029 1586.621 1319.829 2244.300 1021.729 1312.244 823.011 868.570 1461.684 451.821 1308.256 1060.001 275.408 677.731 1391.875 617.684 782.523 897.554 1398.800 1583.680 3307.305 731.410 1205.705 1270.763
631.287 1897.953 1285.106 710.362 784.886 466.702 940.196 1021.319 538.501 674.330 431.286 1044.225 700.097 994.596 1241.773 843.195 473.348 620.083 655.616 569.897 1597.767 774.805 757.299 757.183 475.434 531.733 584.510 1332.586 1133.873 1380.057 794.949 1358.524 547.754 1816.715 223.408 1267.924 538.009 695.535 1232.846 2760.659 836.304 384.082 417.939 813.301 687.178 1786.716 1152.324 336.032 747.208 965.082 815.289 203.700 735.650 523.896 649.636 1718.697 599.528 1126.758 871.778 1369.546 520.367 1291.293 1342.052 1151.576 0.000 1477.896 2056.574 1183.352 992.364 1716.390 374.837 1188.744 1716.316 1149.366 2964.225 1542.255 1492.088 1857.764 1224.394 996.559 1563.406 2038.365 1248.897 1344.538 436.678 1233.964 1214.200 1254.808 1476.079 1537.203 412.415 2064.344 1022.110 654.883 580.748 1672.547 424.178 1505.979 1998.177 1913.291 1447.669 1205.519 835.390 2004.758 243.538 1368.463 922.238 529.988 2015.170 670.876 1052.483 1413.126 1132.308 1530.728 621.963 1426.558 494.181 2020.889 575.675 653.848 395.122 2888.338 3633.885 1010.368 594.630 1432.447 2362.582 2040.507 1653.148 996.642 709.145 1865.226 1847.157 1507.275 1626.353 413.670 775.045 667.135 671.557 1133.823 741.670 2236.529 1029.950 1134.766 1454.419 1962.610 2873.335 374.556 939.544 1628.719 501.942 1591.460 2205.528 993.890 873.564 900.630 1945.284 468.215 834.718 1801.575 460.882 687.697 993.280 1741.832 1302.935 1173.206 1970.482 2232.417 1167.815 1027.470 1629.002 407.683 739.347 966.679 1128.289 1747.182 1200.492 1364.912 2079.056 861.343 712.757 334.087 2049.453 862.040 2683.210 678.384 1892.886 1957.944
980.675 1438.146 255.984 1007.037 926.917 1027.845 630.022 1740.763 975.256 1012.458 1072.489 1023.717 1053.821 1541.555 715.406 1485.961 1177.392 1904.789 1620.139 1428.602 1346.400 956.677 1055.830 1025.491 1149.162 1356.092 1122.388 1433.037 1773.048 1746.342 698.444 1724.810 1121.515 463.845 1508.114 935.260 1166.891 992.211 2183.697 2931.594 1842.655 1181.631 1255.446 1470.642 1464.088 1487.778 819.660 1159.861 1569.078 1566.358 1001.480 1427.469 1123.717 1168.673 963.578 1117.194 1359.376 1660.369 1171.243 376.685 1210.682 1038.702 1144.556 530.902 1416.264 0.000 1258.830 2189.165 1998.715 813.433 1659.543 648.584 363.446 1966.600 4162.950 1010.860 447.883 2016.986 1492.080 1338.908 386.153 805.957 1615.183 1477.534 1360.611 2518.670 1270.850 728.441 1435.710 505.905 1175.098 1515.662 621.307 1168.438 1461.769 926.257 1554.050 1662.898 1538.370 960.004 1548.120 877.619 907.641 867.600 1603.340 1035.799 1228.382 1342.959 1075.921 1467.015 2003.334 211.042 2138.658 1198.064 1480.668 452.895 1524.503 668.020 1019.641 1034.993 1622.914 3376.432 4584.735 2209.093 1263.581 1589.366 2728.868 687.637 832.909 1597.918 820.012 2231.512 520.864 328.453 534.684 1698.376 1539.095 1631.659 1945.044 2233.168 1637.288 1776.721 993.204 614.188 1158.283 1453.280 3824.186 1168.302 922.175 467.168 1067.501 739.486 1252.241 931.784 1467.557 1999.975 1138.593 1119.651 1841.069 925.709 1745.588 1829.193 1254.830 1253.517 2253.785 1941.023 1464.881 2598.703 1376.131 1666.646 439.961 1181.282 1745.698 806.223 1662.658 1090.582 354.777 1032.248 1125.769 972.086 1136.925 1210.266 1489.429 1889.657 3634.061 1085.812 939.599 1160.201
1630.409 521.404 1368.250 1521.072 1440.952 1677.579 1299.553 2047.039 1624.990 1526.493 1722.223 1178.831 1500.384 2583.469 1370.142 1794.189 1691.427 2618.540 2119.144 1914.361 781.681 1470.712 1488.028 1440.317 1882.640 1846.344 1616.379 1312.144 2079.325 1655.176 1428.276 1610.185 1635.550 904.610 2221.866 879.417 1680.927 1506.246 2689.062 2572.960 2521.087 1793.831 1814.115 1778.870 1840.726 850.339 978.643 1813.663 1939.303 1887.954 1442.344 2141.221 2154.304 1682.708 1575.778 473.027 1837.436 2715.632 2213.157 1488.951 1951.730 975.699 923.516 1415.952 2070.065 1246.049 0.000 2694.530 2677.147 535.339 2373.294 1542.220 1001.821 2272.877 4760.450 658.478 1548.196 1658.352 1521.211 2380.822 1498.419 705.083 1745.526 1358.836 2081.766 3232.422 1146.264 1387.790 2510.650 1618.172 1828.900 390.246 1631.601 1585.651 2027.267 652.997 2214.240 1316.331 465.014 524.400 1392.547 965.054 1421.676 625.444 2280.086 814.759 1390.779 1999.428 2143.692 2352.045 2510.537 1323.308 2817.090 714.000 1955.558 1642.411 2174.237 890.515 1880.234 1966.347 2268.381 3245.157 5091.938 2806.593 1663.387 1230.733 2597.593 731.869 780.126 1919.513 1433.341 2100.237 763.867 1440.720 1609.624 2412.128 1880.706 2103.597 2658.796 2830.668 2153.830 748.982 2035.118 1719.463 800.241 443.868 4331.388 1868.498 1297.983 1542.107 1685.336 1814.425 199.993 1250.991 2509.471 2562.680 222.746 1731.851 2519.500 555.989 2459.340 2334.248 1276.635 594.444 2759.150 2247.299 467.251 2467.428 1283.771 1972.922 1552.227 1793.481 2424.130 1168.198 1906.409 435.409 1536.341 879.380 404.983 1417.400 1526.079 1864.068 362.288 2546.126 4141.264 1532.375 479.955 192.817
1476.416 2443.233 2121.263 1368.007 1416.407 1356.323 1619.271 960.851 1323.494 1305.851 1386.128 1682.658 1338.530 1931.470 1964.169 1065.454 1122.811 1328.753 674.814 942.628 2143.128 1406.326 1394.797 1395.616 1404.863 940.915 1222.943 1883.859 1222.642 1691.076 1598.200 1669.543 1198.644 2608.877 932.078 1937.258 1133.933 1351.963 584.506 3097.898 1773.179 1135.880 998.457 1084.732 1034.178 2332.077 1821.658 1238.798 1005.928 1368.275 1453.722 1043.447 1664.651 1138.642 1320.013 2345.026 1054.820 2063.633 1800.780 2246.367 1449.796 1915.616 1893.325 1897.334 1153.469 2218.128 2687.715 0.000 1929.239 2347.532 1083.506 1928.975 2508.477 727.324 2586.139 2145.528 2368.909 2298.008 1765.720 1933.433 2386.027 2669.507 1462.495 1895.811 1365.679 1290.442 1765.473 1977.204 2412.953 2414.024 1227.553 2609.624 1867.238 1293.315 1012.689 2303.689 1361.053 2057.251 2543.457 2544.432 1998.942 1868.049 1466.910 2635.900 1090.815 1973.941 1466.599 1458.990 2957.301 1607.751 525.752 2254.377 2069.182 2127.434 994.694 2172.317 812.002 2684.387 1503.272 1593.862 837.261 2279.223 2760.504 840.366 1176.568 1983.720 2583.885 2742.142 2315.678 1386.672 1453.954 2086.529 2491.748 2329.896 2503.174 998.321 948.632 715.650 1380.227 256.483 803.614 2781.808 1972.080 1979.894 1999.699 2507.889 1912.017 1323.993 1577.977 2451.340 1234.444 2533.591 2836.669 1632.323 1810.438 425.077 2576.426 1220.013 1771.592 2432.716 1169.552 587.624 1541.419 2287.112 331.977 810.362 2515.761 2453.720 1709.141 1116.239 2451.623 1210.832 1676.222 1629.147 1328.052 2373.510 1946.250 1941.062 2710.198 1492.864 1287.441 1202.829 2594.733 1735.253 1721.892 1316.816 2524.028 2589.086
1216.764 2525.470 1749.146 1381.349 1405.874 1032.807 1531.185 1851.565 1195.162 1295.318 1035.479 1684.749 1377.220 905.286 1832.762 1726.359 1295.368 887.289 1485.861 1470.936 2264.851 1395.793 1437.402 1424.267 912.303 1419.551 1358.886 1999.670 1996.258 2075.156 1388.990 2053.624 1288.797 2280.754 1062.896 1858.913 1378.537 1366.523 2063.092 3441.758 197.971 1205.932 1311.124 1694.529 1588.216 2453.799 1743.313 1079.945 1648.247 1806.362 1453.114 982.251 909.702 1345.915 1270.624 2309.686 1480.756 953.136 951.738 1833.586 865.636 1936.902 2009.136 1742.565 1029.349 1981.854 2647.563 2013.597 0.000 2307.379 1176.708 1779.733 2180.355 1979.612 2603.487 2133.243 1956.127 2527.151 1919.494 907.249 2030.267 2622.866 1943.997 2011.621 871.168 1210.900 1881.284 1845.797 1330.183 2001.243 1188.537 2691.861 1592.288 1399.427 1481.787 2263.536 640.893 2173.062 2625.694 2504.279 2114.753 1796.508 1435.040 2595.747 1158.121 1959.452 1620.372 872.738 2159.358 626.540 1882.729 1877.165 272.517 2121.717 1523.002 2017.547 1336.371 2484.929 1130.123 1007.232 1225.367 3705.246 3870.286 1411.243 1493.876 2099.531 3057.682 2504.546 2244.137 1837.922 1300.134 2560.325 2337.773 1974.136 2025.282 1253.158 1676.083 1497.381 906.108 1938.678 1571.915 2864.046 1473.484 1704.944 2081.936 2590.127 3703.580 1027.559 1548.712 1925.612 1159.111 1687.316 2796.517 1592.816 784.254 1730.876 2536.273 1234.391 234.674 2392.563 1050.214 1517.942 1695.198 2369.349 2133.180 2003.451 2597.999 2927.516 1850.398 1889.856 2095.863 1219.094 395.067 1557.668 1991.472 2338.171 1791.481 1955.901 2670.045 1482.331 1407.856 1111.051 2676.970 475.595 3513.456 1351.781 2483.875 2548.933
1271.345 761.932 942.874 1162.007 1081.888 1318.515 940.489 1686.957 1265.926 1167.429 1363.159 819.766 1140.302 2199.721 1011.078 1434.107 1332.363 2259.476 1759.062 1554.279 713.506 1111.648 1127.947 1081.253 1523.576 1486.262 1256.297 952.062 1719.243 1615.694 1069.211 1570.704 1276.486 482.561 1862.801 520.353 1321.862 1147.181 2328.980 2499.344 2162.023 1434.766 1455.051 1418.788 1480.644 810.857 619.578 1454.598 1579.221 1527.872 1083.279 1782.156 1781.883 1323.644 1216.713 440.981 1477.355 2309.932 1829.409 1063.575 1592.666 616.635 563.435 1056.887 1711.001 820.673 545.574 2334.448 2318.083 0.000 2014.230 1183.156 576.445 1912.795 4400.369 333.388 1122.820 1584.737 1161.129 1997.074 1073.043 464.644 1530.330 998.755 1722.701 2873.357 786.182 1028.725 2085.274 1192.796 1469.835 839.449 1272.537 1225.569 1667.186 248.785 1855.175 1230.648 862.156 339.569 1067.145 605.989 1062.611 431.037 1921.021 454.677 1030.697 1640.364 1718.316 1992.981 2150.455 897.932 2458.026 522.695 1595.476 1217.035 1815.173 499.654 1521.170 1607.282 1908.299 3205.676 4731.856 2446.512 1303.305 1157.117 2558.111 537.279 343.262 1559.431 1074.276 2060.755 338.491 1015.344 1184.248 2053.063 1520.625 1743.516 2299.731 2470.587 1793.748 1100.508 1651.370 1294.087 584.149 777.066 3971.307 1509.433 938.918 1116.731 1326.271 1389.049 631.806 891.927 2125.723 2202.599 425.337 1372.786 2160.436 227.853 2100.275 1974.167 916.553 576.044 2399.068 1887.218 788.668 2427.946 923.690 1612.841 1126.851 1434.417 2065.066 809.134 1577.805 414.368 1110.965 520.316 505.335 1058.336 1165.998 1505.004 813.216 2187.062 3781.182 1172.293 319.165 446.945
915.839 2194.885 1471.440 1013.297 1079.601 751.253 1230.260 970.887 833.216 969.045 701.741 1347.161 1003.033 1175.674 1531.836 958.392 776.284 330.427 605.183 700.476 1894.781 1069.520 1060.235 1060.119 649.067 662.311 887.446 1635.512 1115.580 1584.014 1076.551 1562.481 850.690 2003.049 159.113 1550.186 840.945 998.471 1182.414 2990.836 1017.382 687.017 708.548 956.949 817.756 2083.729 1434.586 620.583 868.101 1213.275 1118.225 287.650 908.855 826.832 944.351 2000.960 776.217 1307.836 1044.983 1555.880 694.000 1594.228 1644.977 1441.639 380.504 1704.148 2338.836 1132.919 1173.442 1998.653 0.000 1478.807 1902.649 1098.933 2628.469 1824.517 1678.421 2150.743 1517.373 1177.636 1752.562 2320.627 1355.434 1647.463 609.883 944.308 1517.126 1544.871 1657.157 1723.537 715.351 2361.276 1224.173 957.818 712.522 1954.810 605.256 1808.904 2295.109 2195.553 1750.594 1487.781 1130.104 2287.021 317.850 1650.725 1218.251 703.193 2201.504 851.954 1002.051 1599.459 1313.385 1812.990 752.542 1716.622 455.693 2207.223 762.009 838.065 344.689 2837.905 3583.452 674.612 897.566 1735.372 2476.824 2226.840 1935.410 1244.835 999.209 1979.467 2060.068 1696.431 1812.686 110.005 855.698 616.702 381.901 1083.391 691.237 2533.461 1216.284 1336.829 1751.351 2259.542 2822.902 568.197 1242.480 1817.875 795.669 1777.794 2487.790 1284.090 1054.642 850.197 2227.547 771.151 1015.795 2083.837 171.227 637.264 1296.216 2038.764 1252.502 1122.773 2267.414 2346.658 1460.793 1009.177 1818.157 702.398 920.425 1248.941 1220.990 2029.444 1490.555 1647.175 2361.319 1156.058 1015.692 637.023 2346.386 980.225 2632.777 981.319 2175.148 2240.207
1095.557 1654.201 370.343 1121.918 1041.798 1142.727 744.904 1855.644 1090.138 1127.340 1187.370 1138.598 1168.702 1655.915 830.288 1600.842 1292.274 2019.149 1735.021 1543.483 1461.282 1071.558 1170.712 1140.373 1263.521 1470.973 1237.269 1547.919 1887.930 1861.224 813.326 1839.691 1236.397 679.901 1622.474 1050.141 1281.773 1107.092 2298.579 3046.475 1957.015 1296.512 1370.328 1585.524 1578.969 1661.678 934.542 1273.613 1683.959 1681.240 1116.361 1541.829 1238.076 1283.555 1078.459 1333.250 1474.258 1774.728 1285.602 491.045 1325.041 1153.584 1259.438 641.855 1530.016 289.153 1474.886 2304.047 2113.075 1029.488 1773.902 0.000 579.502 2081.482 4277.832 1226.916 562.243 2131.868 1606.961 1453.267 500.512 1022.013 1730.064 1592.415 1474.971 2633.030 1385.731 843.323 1550.070 620.265 1288.850 1731.718 715.930 1283.320 1576.651 1142.313 1668.410 1777.780 1754.425 1176.059 1663.001 992.500 1022.522 1083.655 1717.699 1150.680 1343.263 1457.318 1131.896 1581.375 2118.216 325.402 2253.018 1312.945 1595.550 549.124 1639.384 884.076 1134.001 1149.352 1737.795 3491.313 4699.617 2323.975 1378.463 1704.248 2843.749 903.693 1048.964 1712.799 934.894 2346.393 736.920 442.813 649.044 1812.736 1653.977 1746.540 2059.404 2348.050 1752.170 1992.777 1107.564 702.464 1273.165 1669.335 3939.067 1282.662 1037.056 581.527 1182.382 853.845 1468.296 1046.665 1581.917 2114.857 1354.649 1234.532 1955.428 1141.764 1859.948 1944.075 1369.711 1469.573 2368.667 2055.904 1680.937 2713.584 1491.013 1781.528 554.321 1296.163 1860.058 921.105 1777.539 1306.637 443.053 1147.130 1341.825 1086.967 1251.807 1324.019 1705.485 2004.017 3748.942 1200.693 1155.655 1376.256
1265.123 1206.847 467.106 1303.329 1223.209 1303.346 926.314 2037.055 1271.548 1308.750 1313.385 1229.350 1350.113 1723.954 1011.698 1782.253 1473.684 2087.188 1916.431 1724.894 1159.680 1252.969 1352.122 1321.783 1331.560 1652.384 1418.680 1396.354 2069.340 2042.634 967.250 2009.541 1417.807 232.546 1690.513 928.284 1463.183 1288.503 2479.989 2923.918 2025.054 1477.923 1551.738 1766.934 1760.380 1256.479 1051.973 1420.199 1865.370 1862.650 1297.772 1609.868 1306.116 1464.965 1259.870 885.895 1655.668 1834.165 1353.641 587.808 1393.080 1026.218 1009.608 827.194 1653.287 344.905 1027.531 2485.457 2181.114 582.133 1841.941 944.509 0.000 2262.893 4431.330 779.561 647.052 2009.311 1591.525 1521.306 597.275 574.658 1911.475 1440.850 1543.010 2701.069 1232.356 1024.734 1609.506 717.028 1435.436 1284.363 821.849 1464.730 1758.061 694.958 1736.449 1655.222 1307.071 728.704 1511.436 1052.163 1203.933 636.301 1785.738 900.851 1461.093 1525.357 1242.548 1649.414 2299.626 422.165 2321.057 968.869 1776.960 741.267 1820.795 436.721 1202.040 1217.391 1852.985 3644.513 4881.027 2477.473 1559.873 1581.691 2996.949 456.338 601.610 1894.210 1116.304 2499.592 289.565 539.576 708.480 1880.775 1835.387 1927.951 2127.443 2529.460 1933.580 1545.422 1175.603 818.320 1030.322 1221.981 4120.478 1350.701 1218.467 640.963 1363.793 913.282 1020.942 1228.076 1649.956 2296.267 907.294 1415.943 2023.467 694.409 1927.987 2125.485 1346.949 1022.218 2550.078 2237.315 1233.582 2866.784 1348.264 1962.938 651.084 1477.574 1928.097 1102.515 1958.950 859.283 635.197 929.899 894.470 1268.378 1433.217 1470.604 1258.130 2072.056 3930.353 1382.104 708.300 928.902
1349.475 1999.792 1978.273 1053.689 1214.277 1247.753 1371.331 321.317 1180.504 1152.157 1294.584 1310.273 964.161 1946.144 1716.228 563.514 933.432 1343.427 574.580 685.155 1699.687 1107.934 989.017 1043.686 1419.537 751.878 909.933 1440.419 720.702 1189.136 1455.210 1167.603 1003.334 2192.377 946.752 1561.641 898.649 1023.301 705.882 2595.958 1787.853 1021.600 904.825 610.443 629.815 1888.636 1587.834 1147.255 703.032 866.336 1094.616 1058.121 1679.325 905.492 1183.210 1901.585 855.556 2078.307 1785.777 2103.378 1464.470 1472.175 1449.884 1653.422 1139.355 1970.188 2244.275 727.324 1943.913 1904.091 1098.180 1681.035 2260.537 0.000 3257.392 1702.087 2225.919 1796.068 1322.280 1948.107 2181.547 2226.066 960.556 1452.370 1380.353 1885.841 1322.032 1729.264 2427.627 2271.035 1162.990 2166.183 1758.668 895.589 910.535 1860.248 1375.727 1610.730 2100.016 2100.991 1555.501 1624.004 1225.377 2192.459 1105.489 1530.500 1023.158 1473.664 2812.931 1622.425 721.782 2006.437 2083.856 1683.994 737.221 1953.513 841.944 2240.947 1411.728 1536.638 880.848 2152.692 3220.471 1303.535 804.161 1525.131 2081.946 2298.702 1905.033 884.732 1310.964 1584.589 2048.307 2123.848 2330.079 1012.995 632.064 559.033 1394.900 958.265 647.752 2338.368 1923.061 1871.323 1556.258 2064.448 2371.984 1319.956 1187.532 2262.562 1091.454 2484.571 2393.228 1241.878 1825.112 872.680 2132.985 1105.208 1786.266 1989.275 1184.226 770.952 1098.067 1843.671 791.944 198.025 2072.321 1951.780 1265.700 614.299 2235.356 1146.270 1690.896 1385.102 826.112 1930.069 1736.420 1497.621 2266.757 1109.812 885.669 1111.285 2151.292 1813.589 2181.859 972.304 2080.587 2145.645
3329.424 4439.139 3984.207 3315.075 3382.058 3209.332 3561.591 3107.517 3194.659 3271.501 3239.136 3648.308 3304.181 3427.040 3863.167 3095.022 3077.922 2537.425 2741.813 2926.569 4139.035 3371.977 3361.382 3361.266 3194.757 2906.565 3188.593 3879.766 3252.210 3720.644 3473.433 3699.111 3152.328 4490.039 2721.972 3902.908 3099.583 3300.249 3137.243 5127.466 2719.725 2989.196 2964.107 3128.428 3032.981 4327.983 3787.309 3091.806 3004.731 3397.844 3419.373 2833.341 3413.083 3104.293 3270.168 4340.932 3020.471 3445.770 3473.492 4101.571 3239.690 3895.376 3889.231 3772.970 2943.363 4099.291 4683.622 2578.279 2641.575 4343.439 2627.028 3810.138 4389.640 3235.564 0.000 4141.434 4224.112 4327.576 3761.627 3429.003 4261.260 4665.413 3492.064 3891.717 3155.573 2103.146 3761.380 3876.202 3703.567 4269.228 3080.561 4605.531 3720.247 3258.966 2959.819 4299.596 3044.335 4053.158 4539.363 4540.339 3994.848 3833.700 3432.561 4631.807 2880.709 3969.847 3462.505 3248.884 4532.742 3148.294 2819.876 4118.128 2728.408 4123.341 2978.635 4047.953 2665.010 4674.781 3307.699 3383.756 2690.269 4831.960 1872.251 2136.905 3142.219 3979.626 4613.454 4713.831 4281.329 3416.240 3330.165 4116.097 4482.142 4205.130 4358.377 2589.387 2992.328 2753.333 2641.195 2367.913 2827.867 4777.715 3761.974 3832.903 3995.606 4503.796 2714.807 3113.887 3543.627 4298.996 3108.637 4060.700 4832.576 3597.974 3306.008 2608.283 4572.333 3073.329 2756.428 4428.623 2725.289 2561.847 3542.247 4283.018 2884.715 3259.403 4511.668 4483.288 3705.048 3145.808 4326.856 3063.841 2916.821 3594.798 3357.620 4369.417 3821.886 3936.968 4706.105 3458.515 3269.891 3055.837 4590.640 2612.138 2766.169 3282.467 4519.934 4584.993
1072.325 681.667 1193.110 958.193 882.867 1119.495 741.468 1451.416 1066.906 968.409 1164.138 599.568 904.761 2019.012 805.686 1198.566 1109.159 2060.456 1523.521 1318.738 495.928 891.621 892.406 861.055 1324.555 1250.721 1020.756 716.521 1483.702 1394.417 870.191 1349.426 1061.910 732.798 1663.781 300.155 1095.257 926.138 2093.439 2263.803 1963.002 1235.318 1227.251 1183.247 1245.103 696.324 432.555 1255.578 1343.681 1292.331 863.081 1583.136 1596.220 1097.039 1017.693 337.472 1241.814 2151.175 1648.700 1313.812 1393.645 396.437 327.894 851.495 1511.981 1070.909 675.348 2098.907 2119.062 426.201 1815.209 977.763 826.681 1677.254 4164.828 0.000 1373.056 1349.196 925.588 1816.365 1323.279 775.268 1294.789 763.214 1523.681 2674.337 550.641 823.333 2022.843 1443.032 1270.815 747.580 1067.145 990.028 1431.645 392.912 1656.155 995.107 781.172 650.193 831.604 428.729 863.591 741.661 1722.001 219.136 795.156 1441.343 1968.552 1793.960 1914.914 1148.169 2259.006 217.027 1359.935 1239.024 1581.338 781.367 1322.150 1408.262 1672.758 2983.862 4496.315 2210.971 1067.764 921.576 2336.298 847.903 430.886 1323.890 875.256 1839.478 588.728 1265.580 1434.484 1854.043 1285.084 1507.975 2100.711 2235.046 1558.207 1020.243 1470.661 1254.879 348.608 685.198 3735.766 1310.413 718.720 1366.967 1127.251 1639.286 842.918 671.729 1945.014 1967.058 564.059 1173.766 1961.416 538.477 1901.255 1738.626 681.012 405.338 2163.527 1651.677 696.799 2206.669 688.149 1377.300 1377.088 1235.397 1866.045 610.113 1342.264 365.956 1017.924 300.118 815.959 838.138 930.457 1305.983 721.347 1988.042 3545.641 936.752 629.789 576.719
1134.540 1731.060 307.420 1294.931 1167.692 1156.573 917.916 2028.656 1141.941 1232.357 1197.530 1308.972 1341.714 1409.037 1004.839 1773.855 1415.644 1976.146 1833.002 1643.144 1635.572 1244.571 1343.724 1313.385 1220.519 1568.955 1410.282 1713.125 2060.942 2034.236 820.477 2012.704 1363.878 756.760 1579.472 1224.431 1454.785 1280.104 2396.560 3216.849 1914.013 1389.382 1468.309 1758.536 1751.981 1780.693 1108.832 1273.426 1820.456 1854.252 1289.373 1498.827 1195.074 1456.567 1176.441 1410.109 1643.191 1475.981 1242.600 163.548 1282.039 1318.789 1433.728 785.345 1529.829 459.742 1551.744 2402.028 2070.073 1106.347 1730.900 895.855 656.361 2254.494 4320.289 1303.775 0.000 2302.242 1779.974 1410.265 284.006 1098.872 1903.077 1757.621 1431.969 2590.028 1550.937 1017.874 1251.322 88.390 1288.663 1808.577 692.664 1456.332 1674.632 1219.172 1625.408 1948.153 1831.284 1252.918 1828.207 1166.790 1164.032 1160.514 1674.697 1324.970 1516.276 1414.316 932.873 1538.373 2216.197 354.068 2091.339 1487.235 1695.210 739.520 1691.187 960.934 1090.999 1106.350 1741.943 3664.326 4797.598 2366.432 1551.475 1874.622 3016.762 980.552 1125.823 1885.812 1032.875 2519.405 813.779 230.801 173.048 1769.734 1826.989 1844.522 2016.402 2399.853 1850.151 2069.636 1064.562 689.136 1447.455 1746.194 4037.049 1239.660 1210.069 282.779 1234.185 555.098 1545.155 1217.039 1439.708 2166.660 1431.508 1307.430 1912.426 1218.623 1816.946 1997.776 1542.724 1546.431 2466.648 2228.917 1757.796 2886.597 1661.387 1954.540 352.528 1335.308 1817.056 1094.117 1950.552 1383.496 586.543 1321.420 1418.684 1259.980 1424.819 1323.832 1782.343 1961.014 3846.924 1373.706 1232.513 1453.115
1526.246 1402.249 2047.897 1236.241 1336.789 1491.770 1441.119 1550.944 1404.704 1322.491 1583.421 1106.480 1182.809 2480.433 1699.323 1407.962 1387.207 2384.658 1648.361 1593.144 1029.228 1215.390 1170.454 1147.618 1743.236 1525.127 1298.804 832.745 1513.723 844.497 1544.729 799.506 1339.958 1845.153 1987.983 1222.017 1373.305 1204.186 2246.782 1466.517 2325.087 1513.366 1505.299 1457.653 1519.508 1218.177 1326.192 1586.371 1618.086 1213.448 1179.895 1938.959 2015.503 1375.087 1364.002 1407.652 1516.219 2612.595 2108.229 2173.002 1810.161 1132.551 1091.181 1723.210 1798.616 2039.976 1678.195 2252.250 2481.147 1561.484 2139.412 1750.823 1943.653 1774.287 4339.227 1359.480 2295.543 0.000 841.340 2275.894 2251.335 1840.808 934.847 780.697 1885.766 2967.677 875.711 1716.970 2669.033 2340.659 1586.307 1568.640 1858.249 1264.433 1706.050 1517.641 2018.240 650.015 1502.473 1699.990 820.179 1381.603 1317.513 1820.725 2008.636 1187.893 1069.562 1803.428 2882.719 2159.659 2068.257 2076.225 2621.090 1325.334 1634.340 2023.301 1855.743 1831.057 1734.180 1859.090 1947.164 2139.164 4647.346 2385.370 1342.170 427.620 1491.600 1905.309 1562.425 1231.844 1433.266 1000.453 1705.700 2193.636 2399.867 2086.217 1559.489 1632.814 2428.956 2409.445 1720.579 1740.825 2116.852 2045.983 1197.599 1466.906 3886.797 1672.498 1202.565 2332.350 1415.413 2604.669 1845.766 1155.574 2362.347 2091.339 1566.906 1454.205 2323.501 1646.668 2225.458 1862.907 954.812 1288.423 2316.870 1748.710 1474.778 1367.644 812.347 1408.422 2305.144 1515.836 2228.130 1324.639 1095.730 1388.033 1806.209 1138.918 1865.756 1201.948 1204.862 1635.778 1553.749 2350.127 3696.672 1214.800 1679.585 1579.566
947.421 1275.622 1518.207 649.830 757.964 905.358 884.641 1101.299 818.293 736.079 997.010 609.174 596.398 1894.021 1229.539 848.449 785.161 1760.136 1173.404 968.621 975.436 628.979 584.042 561.206 1156.825 900.604 696.403 712.232 1133.585 604.274 1006.325 635.430 730.506 1468.207 1363.461 837.389 749.753 617.775 1743.322 1757.795 1738.676 905.942 881.748 833.131 894.986 1164.384 941.564 976.919 993.564 936.069 601.070 1314.436 1429.091 751.535 777.591 1177.415 891.697 2026.184 1521.817 1643.312 1223.750 747.923 721.698 1166.732 1174.094 1483.498 1520.104 1748.790 1894.736 1179.921 1514.889 1194.345 1562.090 1327.137 3814.711 977.917 1756.588 854.899 0.000 1689.482 1694.858 1501.896 657.469 691.054 1299.355 2374.017 582.692 1242.574 2118.140 1810.969 976.855 1442.013 1328.558 639.911 1081.528 1136.078 1431.829 682.788 1375.846 1376.821 803.023 996.975 738.688 1468.289 1384.114 806.330 445.039 1217.017 2326.241 1573.248 1564.797 1519.747 2034.679 959.823 1009.818 1466.823 1231.221 1516.776 1147.769 1272.679 1322.641 2291.956 4146.198 1860.854 717.647 635.475 1644.392 1574.531 1180.862 954.466 854.441 1147.036 1324.137 1637.158 1843.389 1516.603 934.967 1157.858 1804.433 1884.929 1208.090 1614.198 1565.958 1514.221 832.088 1340.278 3385.649 1086.086 662.796 1775.873 808.227 2048.191 1669.058 651.493 1775.935 1616.941 1408.815 844.753 1737.089 1265.105 1600.935 1388.509 300.847 1119.501 1813.411 1301.560 1348.150 1514.227 436.730 1027.183 1748.666 906.384 1641.719 860.562 818.352 1205.899 1249.731 769.435 1542.587 623.123 580.340 1026.327 1427.122 1763.715 3195.524 628.389 1356.417 1421.475
979.512 2158.497 1085.477 1152.143 1176.668 797.070 1185.333 1750.951 959.426 1066.111 737.036 1411.318 1148.014 301.016 1281.982 1498.100 1112.306 1136.406 1460.021 1326.842 1903.081 1166.587 1208.195 1195.060 730.808 1252.652 1129.680 1770.464 1783.236 1845.950 1009.049 1824.417 1059.590 1617.086 1037.056 1491.940 1174.183 1137.317 2037.251 3212.551 794.288 1039.351 1144.225 1482.782 1444.122 2103.476 1376.340 852.886 1504.153 1577.156 1223.907 956.411 438.598 1162.853 1041.417 1942.714 1313.858 433.179 223.838 1169.917 621.976 1586.298 1701.236 1190.746 1003.509 1318.185 2280.590 1987.757 950.348 1940.407 1188.484 1227.914 1516.687 1953.771 3461.011 1766.271 1292.458 2297.944 1690.287 0.000 1366.599 1959.198 1714.790 1782.415 764.095 1674.484 1652.077 1295.017 782.499 1337.574 959.331 2324.889 969.178 1170.220 1346.451 1896.564 624.665 1943.856 2258.722 2113.244 1885.546 1434.299 1176.618 2020.840 1132.281 1592.479 1391.165 746.443 1611.675 383.244 1856.889 1213.497 1090.291 1754.744 1378.908 1465.729 1310.530 1821.260 628.101 438.476 1199.527 3476.039 4438.290 1677.244 1265.900 1870.324 2828.475 1840.878 1880.015 1608.715 1041.712 2331.119 1674.105 1310.468 1426.723 1227.318 1531.989 1471.540 1155.225 1938.228 1533.849 2497.073 809.816 1081.834 1714.964 2223.154 3677.740 768.025 1290.290 1377.929 929.905 1139.632 2405.481 1319.386 228.653 1705.035 2169.301 1005.184 792.701 2025.591 1159.391 1492.102 1465.991 2002.376 2107.340 1951.211 2231.026 2698.310 1621.191 1676.834 1432.194 1005.975 642.861 1284.237 1762.265 1971.198 1239.662 1588.929 2279.010 1253.125 1178.650 903.292 2309.998 953.306 3487.615 1122.574 2092.839 2181.961
1120.691 1650.014 331.603 1239.574 1153.844 1142.725 862.560 1973.300 1128.093 1218.509 1183.681 1256.254 1286.358 1395.468 947.944 1718.498 1401.796 1962.969 1819.154 1629.296 1578.938 1189.214 1288.368 1258.029 1207.342 1555.107 1354.925 1665.575 2005.586 1978.880 806.629 1957.347 1350.030 675.714 1566.294 1167.797 1399.429 1224.748 2382.712 3164.131 1900.835 1375.533 1454.461 1703.180 1696.625 1699.647 1052.198 1259.578 1801.615 1798.896 1234.017 1485.649 1181.897 1401.211 1162.592 1329.062 1591.914 1462.412 1229.422 370.125 1268.861 1271.240 1377.094 763.439 1515.980 390.399 1470.698 2388.180 2056.895 1025.301 1717.722 878.609 575.315 2199.138 4307.111 1222.729 292.641 2249.524 1724.617 1397.087 0.000 1017.826 1847.720 1710.071 1418.791 2576.850 1503.387 960.979 1237.753 370.395 1274.815 1727.531 679.487 1400.976 1660.784 1138.126 1612.230 1895.436 1750.238 1171.872 1780.657 1110.156 1140.178 1079.468 1661.520 1268.336 1460.919 1401.139 919.304 1525.195 2202.349 320.865 2077.770 1412.036 1681.362 675.367 1677.339 879.888 1077.821 1093.173 1728.766 3608.970 4783.750 2353.254 1496.119 1821.904 2961.405 899.506 1044.777 1830.455 1019.027 2464.049 732.733 126.868 346.411 1756.556 1771.633 1830.674 2003.224 2386.004 1836.303 1988.590 1051.384 675.958 1390.821 1665.148 4023.200 1226.482 1154.712 269.210 1220.337 541.529 1464.109 1164.321 1426.139 2152.811 1350.462 1293.581 1899.249 1137.577 1803.768 1983.928 1487.367 1465.385 2452.800 2173.560 1676.750 2831.240 1608.669 1899.184 193.143 1321.459 1803.878 1038.761 1895.195 1302.450 569.297 1264.786 1337.638 1204.624 1369.463 1309.983 1701.297 1947.837 3833.076 1318.349 1151.467 1372.069
1646.367 1027.453 915.114 1537.029 1456.910 1693.537 1315.510 2071.977 1640.948 1542.451 1738.181 1183.973 1509.673 2171.961 1379.728 1819.126 1707.385 2535.195 2144.082 1939.299 1008.428 1476.026 1497.318 1445.460 1779.568 1871.282 1625.668 1350.978 2104.263 1881.923 1415.258 1836.933 1651.508 429.031 2138.520 882.908 1696.884 1522.203 2714.000 2799.707 2473.061 1809.788 1830.073 1803.808 1865.663 1077.086 1006.597 1829.620 1964.241 1912.891 1447.486 2057.875 1754.123 1698.666 1591.735 706.502 1862.374 2282.172 1801.649 1035.815 1841.088 980.842 963.187 1275.201 2086.023 792.913 766.196 2719.468 2629.121 469.142 2289.949 1392.516 548.685 2297.815 4785.388 733.140 1095.059 1885.100 1546.148 1969.314 1045.283 0.000 1915.349 1395.474 1991.017 3149.076 1185.935 1397.375 2057.514 1165.036 1844.857 1041.314 1269.856 1610.588 2052.205 648.537 2184.456 1543.079 1116.082 419.646 1466.060 1005.741 1437.633 147.978 2233.746 854.429 1415.717 1973.365 1690.556 2097.421 2535.475 870.172 2769.065 922.447 1980.495 1189.275 2190.194 304.218 1650.047 1665.399 2288.605 3471.905 5116.876 2831.531 1688.325 1457.480 2824.341 112.681 543.878 1944.451 1449.298 2326.984 460.740 987.583 1156.488 2328.782 1905.644 2128.535 2575.450 2855.606 2178.768 1366.029 1623.610 1266.327 983.901 1042.587 4356.326 1798.709 1303.125 1088.971 1701.293 1361.289 595.621 1256.134 2097.963 2587.618 606.167 1747.808 2471.475 467.927 2375.995 2359.186 1301.573 848.326 2784.088 2272.237 1054.189 2694.175 1302.887 1997.860 1099.091 1809.439 2376.104 1184.156 1962.824 679.889 1083.204 884.523 517.695 1422.543 1551.017 1880.026 1020.315 2520.063 4166.201 1541.665 399.242 641.002
1061.803 1550.472 1679.297 730.070 900.342 1007.500 1045.730 726.028 920.435 838.221 1096.358 980.294 665.551 1959.755 1390.628 583.046 841.400 1591.733 823.445 860.494 1177.451 761.417 635.049 708.756 1222.558 916.442 752.642 981.541 688.807 377.217 1167.414 355.684 786.746 1841.859 1195.059 1211.122 805.993 698.015 1421.866 1784.039 1804.409 962.181 926.259 672.039 743.344 1366.400 1262.233 1033.159 841.922 388.532 766.862 1306.427 1503.648 807.774 879.733 1551.066 907.534 2091.917 1587.551 1804.401 1289.483 1121.656 1099.365 1327.822 1191.683 1644.588 1826.419 1427.334 1960.469 1553.573 1346.487 1355.435 1934.937 949.372 3514.311 1351.568 1917.677 984.149 722.269 1755.215 1855.947 1875.547 0.000 929.493 1365.088 2142.761 971.514 1403.663 2220.282 1972.058 1033.094 1716.864 1489.648 696.150 1088.949 1509.730 1497.562 798.811 1650.696 1750.473 968.974 1298.404 899.777 1841.941 1353.796 1179.981 607.087 1282.750 2487.331 1638.981 1243.341 1680.837 2100.412 1333.475 858.176 1627.912 1107.356 1890.428 1213.502 1338.412 1132.615 2008.461 3822.430 1560.454 773.076 713.212 1360.897 1948.183 1554.514 406.928 1004.243 863.540 1697.789 1798.248 2004.479 1261.301 813.690 807.898 1643.207 1584.530 895.663 1889.048 1668.100 1616.363 1205.740 1615.129 3061.881 1151.820 861.931 1936.962 864.467 2209.280 1993.989 916.278 1841.669 1266.423 1715.129 900.993 1802.822 1638.757 1432.533 1037.991 746.822 1436.647 1491.954 923.794 1623.001 1230.731 889.581 583.506 1909.756 962.623 1707.452 1059.502 270.814 1536.257 1410.820 1147.102 1916.239 784.212 636.579 1082.566 1701.973 1829.448 2871.756 707.988 1730.069 1727.789
1018.203 1124.835 1515.548 728.197 828.745 983.726 933.075 1221.421 896.661 814.447 1075.378 598.437 674.765 1972.389 1166.973 968.570 879.164 1880.257 1293.526 1088.743 787.799 707.347 662.410 639.574 1235.193 1020.726 790.760 74.619 1253.707 780.117 1036.686 735.126 831.915 1317.420 1483.582 689.668 865.261 696.143 1863.444 1649.503 1817.044 1005.323 997.256 953.252 1015.107 976.748 793.843 1078.328 1113.685 1062.335 671.852 1434.383 1507.459 867.043 855.959 1026.628 1011.818 2104.552 1600.185 1640.652 1302.118 600.202 553.935 1211.086 1294.215 1527.852 1369.318 1868.912 1973.104 1029.134 1635.011 1238.699 1411.304 1447.259 3934.832 827.130 1763.194 734.896 678.257 1767.850 1739.211 1351.109 870.467 0.000 1377.722 2494.138 256.944 1184.621 2160.990 1808.309 1078.263 1291.226 1325.899 760.032 1201.649 985.292 1510.196 380.807 1225.059 1226.035 183.040 849.253 809.469 1317.502 1504.235 655.543 565.161 1295.385 2370.595 1651.616 1684.919 1564.101 2113.047 809.037 1129.939 1511.177 1351.342 1365.990 1226.137 1351.047 1442.763 2370.098 4266.320 1980.975 837.769 307.276 1722.534 1423.745 1030.076 1093.895 925.222 1225.178 1173.350 1681.512 1887.743 1636.724 1055.088 1277.979 1924.555 2005.050 1328.212 1463.411 1608.808 1513.634 681.301 1189.492 3505.770 1164.454 694.522 1820.226 907.369 2092.544 1518.272 647.531 1854.303 1737.062 1258.028 946.162 1815.457 1114.319 1721.057 1508.630 451.017 968.714 1933.532 1421.681 1197.364 1592.369 304.227 1147.304 1793.020 1007.792 1720.087 816.596 1031.350 1055.113 1294.084 601.672 1391.800 693.904 700.461 1127.735 1276.335 1842.083 3315.645 706.757 1205.630 1270.689
662.686 1971.392 1189.405 788.819 850.309 478.729 977.107 1289.507 613.007 739.752 467.795 1125.092 784.690 860.719 1278.684 1033.052 602.060 795.786 930.955 800.433 1678.634 840.228 844.872 838.050 358.225 726.243 713.222 1413.453 1321.793 1482.626 834.912 1461.094 676.466 1721.013 507.990 1304.835 685.229 773.993 1508.186 2855.541 702.427 512.625 617.816 1001.222 917.713 1867.583 1189.235 386.638 977.744 1140.016 896.156 427.345 415.213 652.608 715.058 1755.608 787.449 992.881 603.018 1273.844 261.127 1372.160 1422.919 1188.487 474.443 1422.112 2093.485 1458.691 858.487 1753.301 659.418 1225.655 1620.614 1424.705 3199.383 1579.165 1396.386 1940.934 1326.964 770.683 1470.526 2063.125 1351.467 1425.405 0.000 1409.878 1295.067 1291.719 1342.202 1441.501 496.071 2137.783 990.228 783.595 820.041 1709.458 310.779 1586.846 2071.616 1950.201 1528.536 1242.430 880.962 2041.669 603.215 1405.374 1027.842 161.341 1898.963 537.000 1327.823 1317.424 998.431 1567.639 852.499 1463.469 781.465 1925.188 528.063 396.100 670.461 3112.716 3909.224 1294.950 800.568 1513.314 2465.152 1944.805 1690.058 1171.575 746.056 1967.795 1778.032 1414.395 1530.651 698.252 1005.580 942.474 789.154 1409.162 1007.439 2309.968 913.743 1102.884 1527.858 2036.049 3148.674 334.251 994.634 1535.839 561.723 1475.253 2242.439 1038.738 739.687 1175.969 1982.195 596.758 700.841 1838.485 683.940 963.036 1102.668 1815.271 1578.274 1448.545 2043.921 2334.986 1264.181 1215.391 1536.122 525.786 605.470 1003.590 1316.209 1784.093 1237.403 1401.823 2115.967 926.766 815.326 417.744 2122.892 727.467 2958.549 759.251 1929.797 1994.855
1893.322 3116.192 2430.744 1990.781 2057.085 1714.405 2207.744 1784.570 1810.700 1946.529 1679.224 2324.645 1980.517 1687.154 2509.320 1772.075 1753.768 751.062 1418.866 1603.622 2816.088 2047.004 2037.719 2037.603 1593.901 1583.618 1864.930 2556.819 1929.263 2397.697 2054.035 2376.165 1828.174 2962.352 1136.597 2527.670 1776.636 1975.955 1840.632 3804.519 1299.640 1664.501 1641.161 1805.481 1710.034 3005.037 2412.070 1598.067 1681.784 2074.897 2095.709 1258.939 1643.689 1781.346 1921.835 2978.444 1697.524 1819.317 1733.606 2515.184 1547.235 2571.712 2566.284 2419.123 1357.987 2663.452 3316.320 1281.668 1245.839 2976.137 1065.421 2456.291 2861.953 1912.617 2103.146 2802.001 2637.725 3004.629 2438.680 1689.117 2711.866 3298.111 2169.117 2568.770 1510.768 0.000 2438.433 2522.355 2168.637 2682.841 1692.835 3282.584 2201.657 1935.302 1636.873 2932.294 1274.941 2730.211 3216.416 3173.037 2671.902 2465.265 2107.588 3264.505 1295.334 2628.209 2139.559 1559.455 2997.813 1408.409 1496.929 2558.763 1332.672 2790.474 1655.688 2694.106 1342.063 3166.527 1739.492 1688.831 1335.552 3535.349 3369.946 855.268 1819.272 2656.680 3290.507 3186.144 2912.894 2093.293 1976.693 2793.150 3019.372 2655.735 2771.990 1172.678 1669.381 1430.386 854.832 1071.302 1504.920 3454.768 2155.082 2314.313 2672.659 3180.849 3168.144 1545.680 2219.964 2764.067 1773.153 2525.770 3465.274 2261.574 1566.122 1285.337 3205.031 1748.635 1298.053 3061.321 938.927 1238.900 2219.300 2960.071 1588.104 1936.456 3188.721 3160.341 2382.101 1822.861 2777.461 1679.882 1214.137 2226.425 2034.673 3006.928 2468.039 2614.021 3338.803 2133.542 1946.944 1614.507 3267.693 1041.439 2978.019 1958.803 3152.632 3217.691
884.460 957.996 1331.117 594.455 695.003 849.984 772.114 1087.678 762.918 680.704 941.635 419.861 541.023 1838.647 982.543 834.828 745.421 1746.514 1159.783 955.000 606.269 573.604 528.667 505.831 1101.450 886.983 657.018 207.603 1119.964 912.223 875.725 867.232 698.172 1150.582 1349.840 505.237 731.519 562.400 1729.701 1781.610 1683.301 871.580 863.513 819.509 881.365 795.217 609.412 944.585 979.942 928.593 538.109 1300.641 1373.716 733.301 722.216 859.789 878.076 1970.809 1466.442 1456.222 1168.375 415.771 368.750 1026.655 1160.472 1343.421 1202.479 1735.169 1839.361 862.296 1501.268 1054.269 1244.465 1313.516 3801.090 660.291 1578.763 867.002 561.850 1634.107 1554.781 1184.270 931.051 254.296 1243.980 2360.396 0.000 1000.190 2000.029 1623.879 944.521 1124.388 1141.469 626.290 1067.907 818.453 1376.454 512.914 1058.221 1059.196 322.685 664.823 675.726 1150.664 1370.493 488.704 431.418 1161.642 2186.165 1517.873 1551.176 1379.670 1979.304 642.198 996.197 1326.746 1217.600 1199.151 1092.394 1217.304 1309.020 2502.204 4132.577 1847.233 704.026 439.382 1854.640 1256.906 863.237 960.152 783.234 1357.284 1006.512 1497.081 1703.313 1502.982 921.346 1144.237 1790.812 1871.308 1194.469 1296.572 1447.847 1329.203 514.463 1022.653 3372.028 1030.712 533.561 1635.796 773.626 1908.114 1351.433 486.570 1720.561 1603.319 1091.190 812.419 1681.714 947.480 1587.314 1374.888 317.274 801.875 1799.789 1287.938 1030.525 1724.475 205.060 1013.562 1608.589 874.050 1586.344 638.020 978.526 888.274 1109.654 416.487 1224.962 560.162 566.718 993.992 1109.497 1708.340 3181.903 573.014 1038.792 1103.850
777.832 1225.610 797.219 774.102 693.982 825.002 397.088 1507.828 772.413 779.523 869.645 785.373 820.886 1559.438 39.421 1253.026 944.458 1765.963 1414.851 1195.667 970.193 723.742 822.896 792.556 1030.063 1127.651 889.453 1116.021 1540.114 1513.408 495.601 1491.875 888.581 1168.986 1369.288 559.053 933.957 759.276 1978.409 2643.585 1668.510 976.828 1050.644 1237.708 1231.153 1170.589 443.453 957.018 1336.143 1333.423 768.545 1288.643 1141.599 935.738 758.775 1009.826 1126.442 1691.600 1189.125 922.323 1092.682 677.622 768.349 330.950 1213.420 778.238 1347.703 1983.877 1824.569 1007.520 1520.716 489.085 1068.587 1733.666 3960.107 833.384 1044.865 1728.977 1259.145 1356.790 989.597 1329.494 1382.248 1160.517 1229.188 2379.844 953.833 0.000 1563.268 1089.980 972.255 1392.002 607.570 935.503 1256.967 963.677 1361.662 1374.889 1325.834 1204.420 1231.103 501.412 674.706 1295.887 1423.441 659.592 995.447 1146.851 1620.981 1484.898 1798.046 814.487 1964.513 821.857 1247.733 718.480 1321.659 1330.926 901.642 995.493 1420.070 3143.497 4379.447 2006.250 1030.646 1301.358 2495.933 1392.778 933.608 1364.983 615.210 1998.577 1138.286 931.898 1138.129 1559.550 1306.160 1426.370 1806.218 2030.325 1432.000 1564.186 1011.087 795.305 782.077 1290.267 3618.897 1015.920 689.240 1070.612 864.657 1342.930 1496.657 698.849 1485.439 1797.132 1236.413 914.849 1666.923 1092.704 1606.762 1624.391 1021.895 1069.489 2048.497 1708.088 1298.139 2365.768 1067.930 1433.711 1043.406 976.479 1571.553 530.045 1429.723 1038.311 544.470 656.041 1370.186 739.151 903.991 1007.423 1377.111 1693.549 3428.772 852.877 1184.015 1249.074
1296.904 2386.288 1313.268 1622.861 1507.418 1279.184 1413.216 2233.065 1346.982 1524.466 1221.561 1670.791 1630.128 656.477 1509.772 1980.214 1594.420 1627.979 1951.594 1808.956 2130.871 1599.116 1671.654 1650.679 1239.736 1734.766 1611.794 2131.799 2265.350 2328.064 1239.598 2306.531 1541.704 1684.395 1528.629 1719.731 1656.297 1608.034 2528.825 3578.669 1285.862 1521.465 1626.339 1964.896 1926.237 2331.267 1604.131 1335.000 1986.267 2059.270 1643.919 1447.984 1123.904 1644.967 1484.339 2170.504 1795.972 651.696 902.618 1375.781 1232.868 1814.089 1929.027 1418.537 1495.083 1408.820 2479.380 2479.330 1330.666 2033.982 1680.057 1455.705 1583.996 2445.345 3680.902 1994.061 1273.462 2664.061 2117.268 777.985 1195.151 2026.507 2196.904 2148.532 1336.901 2166.058 1969.612 1522.807 0.000 1255.758 1441.445 2552.679 1196.968 1652.334 1828.565 2124.354 1116.238 2309.973 2486.512 2180.553 2246.882 1662.090 1503.758 2088.150 1623.855 1820.270 1853.569 1338.472 1289.020 921.814 2348.462 1339.286 1338.779 1982.535 1861.022 1693.519 1802.104 1888.570 1110.215 1049.369 1691.101 3958.153 4929.863 2168.818 1748.014 2236.441 3310.589 1908.187 2053.459 2090.829 1368.852 2813.233 1741.414 1149.615 1154.944 1718.891 2014.103 1963.114 1646.799 2429.802 2015.963 2724.864 1026.324 1309.624 1942.754 2450.945 4169.314 1258.877 1572.391 1055.274 1412.019 816.978 2472.790 1578.858 687.148 2196.609 2359.143 1487.298 1284.275 2146.258 1650.965 1983.676 1880.018 2230.167 2598.913 2433.325 2458.817 3180.424 2016.248 2158.948 1271.341 1488.089 1134.434 1543.710 2244.379 2198.989 1467.453 1816.719 2346.319 1597.274 1660.764 1385.406 2537.788 1444.879 3979.189 1604.688 2160.149 2380.750
1187.591 1806.497 330.841 1347.983 1220.744 1209.625 970.968 2081.708 1194.993 1285.409 1250.582 1362.024 1394.766 1420.074 1057.891 1826.907 1468.696 2029.198 1886.054 1696.196 1688.624 1297.623 1396.776 1366.437 1273.571 1622.007 1463.333 1766.176 2113.994 2087.288 873.529 2065.756 1416.930 832.197 1632.524 1277.483 1507.837 1333.156 2449.612 3269.901 1967.065 1442.433 1521.361 1811.588 1805.033 1856.130 1161.884 1326.478 1873.507 1907.304 1342.425 1551.879 1248.126 1509.619 1229.493 1485.546 1696.242 1487.018 1295.652 185.711 1335.091 1371.841 1486.780 838.397 1582.881 512.794 1627.181 2455.080 2094.264 1181.784 1783.952 948.907 731.798 2307.546 4373.341 1379.212 88.390 2355.294 1833.026 1463.317 365.178 1174.309 1956.129 1810.673 1485.021 2643.080 1603.989 1070.926 1262.360 0.000 1341.715 1884.014 745.716 1509.384 1727.684 1294.609 1678.459 2001.205 1906.721 1328.355 1881.259 1219.842 1217.084 1235.951 1727.749 1378.022 1569.327 1467.368 943.911 1591.425 2269.249 407.120 2102.377 1540.287 1748.262 792.572 1744.239 1036.371 1144.050 1159.402 1794.995 3717.378 4850.650 2419.484 1604.527 1927.674 3069.814 1055.989 1201.260 1938.863 1085.927 2572.457 889.216 311.974 133.769 1822.786 1880.041 1897.574 2069.454 2452.905 1903.203 2145.073 1117.614 742.188 1500.507 1821.631 4090.101 1292.712 1263.121 306.453 1287.237 523.380 1620.592 1270.091 1450.745 2219.712 1506.945 1360.482 1965.478 1294.060 1869.998 2050.828 1595.776 1621.868 2519.700 2281.969 1833.233 2939.648 1714.438 2007.592 433.700 1388.360 1870.108 1147.169 2003.604 1458.933 639.595 1374.472 1494.121 1313.032 1477.871 1376.883 1857.780 2014.066 3899.976 1426.758 1307.950 1528.552
372.033 1612.916 1026.815 422.915 486.985 251.941 642.295 964.211 240.600 376.428 306.007 759.188 418.786 1169.404 943.871 707.755 295.473 976.422 664.994 475.136 1312.730 476.904 478.968 472.146 432.207 400.946 400.452 1047.549 996.497 1116.722 519.647 1095.189 330.363 1570.743 579.747 970.022 378.642 408.089 1228.551 2489.637 1013.527 206.037 292.519 675.925 592.416 1501.679 854.422 158.678 652.447 827.706 530.252 509.064 713.297 346.021 351.734 1420.796 462.152 1301.566 797.200 1151.598 477.190 1006.256 1057.015 853.674 389.856 1179.995 1758.672 1234.019 1169.587 1418.489 731.175 890.842 1470.344 1145.071 3159.599 1244.353 1274.139 1575.030 961.060 964.865 1304.151 1740.463 985.563 1059.501 552.512 1590.303 929.163 956.906 1479.431 1319.255 0.000 1779.307 762.856 440.993 494.744 1374.646 622.502 1220.941 1713.140 1615.389 1162.632 907.617 537.488 1706.857 599.877 1070.561 661.938 491.868 1912.469 848.099 1048.189 1160.737 1309.530 1232.826 527.202 1128.657 521.151 1741.895 423.151 548.061 619.562 2746.812 3629.590 1205.742 479.607 1147.410 2099.248 1794.535 1355.246 859.266 411.244 1601.891 1549.256 1248.021 1408.404 770.009 680.283 676.513 1020.196 1229.817 682.142 1951.492 927.249 875.512 1169.382 1677.572 2869.040 331.379 654.507 1369.465 204.041 1488.759 1907.626 703.926 1050.786 996.624 1647.383 213.399 1011.940 1503.673 817.221 827.740 736.764 1456.795 1298.640 1139.773 1685.445 1969.082 898.277 890.094 1369.747 109.782 916.570 668.777 990.913 1449.280 902.590 1067.011 1781.155 563.442 449.422 122.708 1764.416 1038.566 2678.915 393.346 1594.984 1660.043
1685.661 218.757 1673.948 1501.902 1496.204 1732.831 1354.805 1995.125 1670.365 1581.207 1777.475 1161.312 1448.470 2638.721 1425.395 1742.274 1652.868 2653.961 2067.230 1862.447 716.085 1453.365 1436.114 1413.278 1937.892 1794.430 1564.465 1272.999 2027.411 1589.580 1483.528 1544.590 1605.619 1121.222 2257.287 934.669 1638.966 1469.847 2637.148 2507.364 2576.339 1779.027 1770.960 1726.956 1788.811 784.743 1033.895 1852.032 1887.389 1836.039 1424.825 2196.473 2209.557 1640.747 1629.663 569.716 1785.522 2770.884 2268.409 1794.649 2006.982 1026.362 887.077 1471.204 2067.919 1551.747 370.635 2642.616 2732.399 857.638 2408.715 1597.472 1307.519 2220.963 4708.536 713.730 1853.894 1592.757 1469.297 2436.074 1804.117 1016.663 1679.931 1319.692 2137.018 3267.843 1107.120 1443.042 2642.552 1923.870 1851.967 0.000 1686.854 1533.736 1975.353 830.465 2269.492 1250.735 169.829 876.646 1326.951 1020.306 1476.928 937.024 2277.939 861.315 1338.865 2054.680 2449.390 2407.297 2458.623 1629.007 2872.343 724.390 1903.643 1858.733 2125.046 1107.127 1935.487 2021.599 2216.467 3179.562 5040.024 2754.679 1611.473 1165.137 2531.997 1043.449 940.856 1867.599 1488.593 2034.641 1069.565 1746.418 1915.322 2410.428 1828.792 2051.683 2698.259 2778.754 2101.916 453.796 2090.371 1874.588 705.218 141.221 4279.474 1923.750 1280.464 1847.805 1681.073 2120.123 519.106 1233.473 2564.723 2510.766 574.992 1719.866 2574.753 884.564 2494.761 2282.334 1224.721 358.828 2707.236 2195.385 164.603 2401.832 1244.627 1921.008 1857.926 1781.496 2479.382 1223.450 1840.814 557.284 1637.633 871.433 724.096 1399.881 1474.165 1901.439 106.699 2601.379 4089.350 1480.461 832.201 545.063
474.396 1449.217 492.434 800.352 684.909 564.073 476.144 1458.534 524.474 701.958 605.029 848.283 847.136 1186.451 572.701 1205.683 819.889 1413.803 1237.247 1047.389 1193.800 776.608 849.146 828.171 658.175 973.199 837.263 1271.353 1490.819 1539.658 382.420 1518.125 767.173 1050.447 1017.128 782.659 881.766 785.526 1800.805 2756.160 1407.581 780.122 880.642 1190.365 1164.669 1394.196 667.060 680.926 1224.700 1284.739 821.411 936.483 768.612 870.436 661.830 1233.433 1048.984 1318.613 816.138 617.217 719.695 877.018 991.956 440.625 937.328 717.079 1571.309 1806.273 1563.640 1231.126 1168.556 513.948 950.048 1684.371 3711.719 1056.990 739.758 1841.553 1294.759 983.803 769.770 1392.559 1408.498 1315.849 928.643 2027.684 1109.165 585.736 1190.281 784.874 696.163 1615.608 0.000 877.803 1083.283 1187.283 1081.369 1487.464 1549.441 1428.026 1386.435 725.018 681.249 1454.201 1112.353 883.198 1031.061 885.922 1485.177 1111.911 1620.442 626.355 1703.584 1045.464 1099.455 651.893 1073.272 1254.621 528.655 622.506 1171.683 3169.748 4201.843 1757.862 973.483 1413.933 2522.183 1274.239 1170.734 1316.298 546.344 2024.827 1107.466 713.639 874.023 1207.390 1252.536 1248.766 1454.058 1781.937 1254.396 1787.793 638.100 334.818 1005.683 1513.873 3441.293 677.316 749.883 835.083 616.718 1107.402 1720.263 756.350 1112.452 1548.744 1460.020 689.514 1405.994 1316.310 1254.602 1379.861 1057.509 1293.096 1870.893 1658.794 1521.746 2392.018 1193.739 1384.417 835.366 742.807 1310.623 652.345 1455.973 1261.917 424.386 879.648 1593.792 774.765 886.233 731.331 1600.717 1432.620 3251.168 822.655 1407.622 1472.680
577.129 1370.225 1205.928 281.344 441.932 475.407 644.796 692.997 408.159 379.812 551.000 580.850 190.815 1414.397 989.694 440.147 260.777 1249.242 704.918 481.547 1070.121 334.787 248.016 293.808 677.200 413.531 206.284 810.852 725.283 850.828 682.865 829.295 241.388 1562.811 852.568 913.557 221.031 250.956 1268.476 2228.979 1259.051 388.258 353.026 424.828 452.524 1259.070 847.183 487.801 556.680 519.202 351.914 803.543 958.290 222.813 410.865 1272.018 411.078 1546.559 1042.193 1331.033 744.126 827.917 820.318 926.888 663.200 1243.653 1614.708 1273.944 1415.111 1274.525 1003.996 954.501 1534.003 918.835 3328.687 1072.521 1453.574 1326.084 692.713 1209.858 1455.013 1596.500 719.668 822.804 819.730 1863.124 692.466 1002.729 1702.897 1498.690 487.736 1536.617 986.322 0.000 595.504 1230.682 932.423 984.244 1470.450 1471.425 925.935 893.575 481.679 1562.893 873.220 900.934 393.592 737.392 2086.397 1093.624 1088.113 1279.903 1555.055 1054.427 533.614 1226.978 745.197 1611.380 668.144 793.054 836.618 2480.917 3669.514 1374.830 179.755 910.713 1833.353 1669.135 1275.466 550.762 538.619 1335.997 1418.741 1397.314 1587.839 1029.260 498.083 716.437 1293.540 1398.905 722.067 1708.801 1150.716 1098.978 926.692 1434.882 2908.964 606.462 476.169 1536.006 319.109 1712.226 1763.662 530.515 1296.311 1147.482 1503.419 355.635 1257.465 1359.709 1090.042 919.050 468.417 1214.104 1338.564 893.258 1442.754 1703.188 636.134 618.881 1508.822 417.265 1162.094 654.673 708.137 1300.503 1009.886 868.055 1637.191 398.450 170.451 526.371 1521.726 1284.091 2718.840 198.959 1451.021 1516.079
646.521 1614.327 1275.319 508.845 570.463 529.124 773.327 632.668 477.550 459.907 563.633 823.496 479.368 1336.952 1118.225 393.215 263.649 928.607 313.101 119.917 1314.222 560.382 536.569 536.454 689.833 81.752 363.781 1054.953 694.552 1125.455 752.256 1103.923 339.482 1762.933 531.933 1091.314 274.771 492.801 876.659 2473.080 1178.661 295.183 152.513 376.391 237.198 1503.171 975.714 416.303 297.228 632.717 594.560 563.553 970.923 279.480 474.070 1516.119 195.658 1469.115 1054.825 1400.424 734.816 1070.563 1064.419 1051.391 423.210 1372.184 1858.809 882.127 1334.721 1518.626 683.361 1083.032 1662.534 793.179 2944.120 1316.622 1522.965 1570.185 936.814 1222.490 1540.083 1840.601 930.367 1066.905 716.204 1542.489 936.567 1131.260 1756.614 1568.081 432.641 1780.718 1040.039 434.153 0.000 1474.783 766.535 1228.345 1714.551 1715.526 1170.036 1022.106 620.967 1806.994 578.795 1145.035 637.693 749.493 2189.653 1013.233 696.296 1408.434 1474.664 1298.528 171.983 1326.373 361.574 1855.481 680.777 805.687 452.994 2532.151 3277.697 990.263 317.406 1154.814 2051.757 1913.236 1469.734 664.276 608.010 1554.400 1662.842 1483.952 1657.230 646.956 325.064 324.621 980.081 1014.338 330.250 1952.902 1204.433 1152.695 1170.793 1678.983 2517.148 589.004 718.815 1605.397 388.500 1765.943 2007.763 773.161 1215.920 755.665 1747.520 378.792 1177.074 1603.810 769.407 527.233 717.434 1458.206 946.747 784.554 1686.855 1921.591 880.235 588.150 1605.679 430.125 1081.704 783.204 795.923 1544.604 1100.307 1112.156 1881.292 641.096 445.078 380.334 1765.827 1204.397 2327.023 457.654 1695.122 1760.180
1208.810 789.839 1225.345 1099.473 1019.353 1255.980 877.954 1624.423 1203.392 1104.895 1300.624 757.232 1077.768 2161.870 948.544 1371.572 1269.829 2196.942 1696.528 1491.745 650.972 1049.113 1065.412 1018.719 1461.041 1423.728 1193.763 889.528 1656.709 1567.423 1006.677 1522.433 1213.952 765.033 1800.267 457.818 1259.328 1084.647 2266.446 2436.810 2099.488 1372.232 1392.517 1356.254 1418.109 851.368 557.044 1392.064 1516.687 1465.337 1020.745 1719.622 1732.706 1261.110 1154.179 445.644 1414.820 2294.033 1791.558 1346.046 1530.131 554.101 500.900 994.353 1648.467 1103.144 783.520 2271.914 2255.548 458.436 1951.695 1120.621 858.916 1850.261 4337.834 270.853 1405.291 1522.202 1098.595 1959.223 1355.514 807.502 1467.796 936.220 1660.167 2810.823 723.648 966.191 2165.701 1475.267 1407.301 855.752 1210.003 1163.034 1604.651 0.000 1792.641 1168.114 889.345 682.428 1004.610 543.455 1000.077 773.896 1858.487 392.143 968.163 1577.829 2000.787 1930.446 2087.921 1180.404 2395.492 460.161 1532.941 1381.882 1752.638 813.602 1458.636 1544.748 1845.765 3156.868 4669.322 2383.977 1240.771 1094.582 2509.304 880.138 463.120 1496.897 1011.742 2012.484 620.962 1297.815 1466.719 1990.529 1458.090 1680.981 2237.197 2408.052 1731.214 1128.415 1613.520 1397.737 521.614 793.370 3908.772 1446.899 876.384 1399.202 1263.737 1671.520 951.091 829.392 2087.872 2140.064 672.231 1310.252 2097.902 570.712 2037.741 1911.632 854.019 513.510 2336.534 1824.683 804.971 2379.675 861.155 1550.306 1409.323 1371.883 2002.531 746.599 1515.270 474.128 1160.782 457.781 848.194 995.801 1103.463 1442.469 829.519 2124.528 3718.648 1109.759 662.024 684.891
774.072 2082.778 1306.454 911.190 963.182 590.115 1088.493 1280.628 735.378 852.626 590.165 1242.057 907.061 610.383 1390.070 1155.422 724.431 650.038 914.924 899.998 1801.004 953.101 967.243 960.421 469.611 848.613 835.593 1535.824 1425.321 1604.997 946.298 1583.464 798.837 1838.062 491.959 1416.221 807.600 896.364 1492.155 2977.912 435.115 634.995 740.186 1123.592 1017.279 1989.953 1300.621 509.008 1077.310 1262.386 1010.422 411.314 486.481 774.978 827.932 1866.994 909.819 742.545 628.521 1390.894 422.945 1494.211 1545.289 1299.873 458.412 1539.162 2204.871 1442.660 591.175 1864.687 643.387 1337.041 1737.663 1408.674 2951.772 1690.552 1513.435 2063.304 1449.334 612.346 1587.575 2180.174 1473.837 1547.775 300.231 1188.116 1417.438 1403.105 1091.866 1558.551 618.442 2249.169 1112.598 905.965 910.850 1820.845 0.000 1709.216 2183.002 2061.588 1650.906 1353.816 992.348 2153.055 587.184 1516.760 1150.213 348.917 1921.041 320.980 1311.792 1434.473 731.118 1679.025 952.065 1574.856 765.434 2042.237 650.433 564.540 654.430 3147.646 3893.193 1190.876 922.939 1635.684 2587.522 2061.854 1801.445 1293.946 857.442 2090.166 1895.081 1531.445 1647.700 682.221 1105.146 926.443 668.858 1393.132 1000.978 2421.354 1030.792 1225.254 1639.244 2147.435 3132.643 456.621 1106.020 1652.889 684.094 1448.999 2353.825 1150.124 489.351 1159.938 2093.581 719.128 433.528 1949.872 614.294 947.005 1225.038 1926.657 1562.243 1432.514 2155.307 2457.357 1386.551 1318.918 1653.171 648.157 338.158 1114.976 1438.580 1895.479 1348.789 1513.209 2227.353 1039.639 937.697 540.114 2234.279 442.576 2942.518 881.621 2041.183 2106.241
1128.918 1134.900 1650.570 838.913 939.461 1094.442 1043.791 1332.137 1007.377 925.163 1186.093 709.152 785.481 2083.105 1301.995 1079.286 989.879 1990.973 1404.241 1199.458 761.879 818.063 773.126 750.290 1345.909 1131.442 901.476 439.110 1364.422 721.436 1147.402 676.445 942.631 1452.442 1594.298 824.690 975.977 806.859 1974.159 1590.823 1927.760 1116.039 1107.972 1063.968 1125.823 950.827 928.864 1189.044 1224.401 1090.387 782.567 1545.099 1618.175 977.759 966.675 1140.302 1122.534 2215.268 1710.901 1775.674 1412.834 735.224 693.853 1325.882 1404.931 1642.648 1410.846 1979.627 2083.819 1164.156 1745.726 1353.496 1546.326 1557.975 4045.548 962.152 1898.216 676.215 674.813 1878.566 1854.008 1486.131 811.786 383.370 1488.438 2604.854 478.383 1319.643 2271.706 1943.331 1188.979 1301.291 1460.921 870.748 1312.365 1120.313 1620.912 0.000 1235.124 1361.056 426.543 984.275 920.185 1452.524 1614.951 790.565 675.877 1406.101 2485.392 1762.332 1795.635 1678.897 2223.763 944.059 1240.655 1625.973 1462.058 1501.012 1336.853 1461.762 1553.479 2311.417 4377.036 2091.691 948.485 248.595 1663.853 1558.767 1165.098 1108.784 1035.938 1166.497 1308.372 1796.309 2002.540 1747.440 1165.804 1388.695 2035.271 2115.766 1438.928 1473.475 1719.524 1648.656 816.323 1199.556 3616.486 1275.170 805.238 1935.023 1018.085 2207.341 1578.416 758.246 1965.019 1847.778 1299.556 1056.878 1926.173 1249.341 1831.772 1619.346 561.733 1021.074 2044.248 1532.397 1207.428 1533.688 415.019 1258.020 1907.816 1118.508 1830.803 927.311 972.670 1120.684 1408.881 741.590 1526.822 804.620 811.177 1238.451 1286.400 1952.799 3426.361 817.472 1340.652 1312.217
1608.902 147.512 1683.428 1423.713 1419.444 1656.072 1293.990 1916.937 1592.177 1503.019 1700.715 1083.124 1370.281 2571.534 1358.207 1664.086 1574.680 2575.773 1989.042 1784.259 637.897 1375.177 1357.926 1335.090 1861.132 1716.242 1486.276 1194.811 1949.223 1511.392 1422.713 1466.401 1527.431 1130.703 2179.098 880.901 1560.777 1391.659 2558.960 2429.176 2499.580 1700.839 1692.772 1648.768 1710.623 706.555 985.076 1773.844 1809.201 1757.851 1346.637 2119.713 2132.797 1562.559 1551.475 603.253 1707.334 2703.696 2201.222 1804.130 1930.222 948.174 808.889 1404.016 1989.731 1561.227 445.403 2564.428 2655.639 885.893 2330.527 1530.285 1316.999 2142.775 4630.348 747.267 1863.374 1514.569 1391.108 2368.886 1813.597 1091.431 1601.742 1241.504 2060.258 3189.654 1028.931 1375.855 2575.365 1933.350 1773.779 169.829 1619.666 1455.548 1897.165 839.945 2192.732 1172.547 0.000 951.414 1248.763 1040.487 1400.168 1011.792 2199.751 783.127 1260.677 1977.921 2458.870 2330.537 2380.435 1638.487 2795.583 646.202 1825.455 1791.546 2046.858 1116.607 1874.671 1960.784 2138.279 3101.373 4961.836 2676.491 1533.285 1086.949 2453.809 1118.217 974.393 1789.411 1427.777 1956.453 1079.046 1755.898 1924.802 2332.240 1750.604 1973.495 2620.071 2700.566 2023.728 409.517 2023.183 1807.401 627.030 95.975 4201.286 1846.990 1202.276 1857.285 1602.885 2129.604 593.874 1155.285 2497.536 2432.578 649.760 1641.678 2497.993 912.819 2416.573 2204.146 1146.533 392.365 2629.048 2117.197 123.013 2323.644 1166.439 1842.820 1867.406 1703.308 2402.622 1162.635 1762.626 590.821 1570.446 793.245 798.864 1321.693 1395.977 1823.251 204.145 2524.619 4011.161 1402.273 906.969 619.831
1452.667 764.639 1061.892 1343.330 1263.210 1499.837 1121.811 1868.279 1447.248 1348.751 1544.481 1001.088 1321.624 2318.740 1192.400 1615.429 1513.685 2440.798 1940.384 1735.601 745.614 1292.970 1309.269 1262.575 1704.898 1667.584 1437.619 1133.384 1900.565 1619.109 1250.533 1574.118 1457.808 508.542 2044.124 701.675 1503.184 1328.503 2510.302 2536.893 2343.345 1616.089 1636.373 1600.111 1661.966 814.272 800.901 1635.921 1760.544 1709.194 1264.601 1963.479 1900.901 1504.966 1398.035 443.688 1658.677 2428.950 1948.427 1182.594 1773.988 797.957 744.757 1238.209 1892.323 939.691 508.745 2515.770 2499.405 250.712 2195.552 1364.478 695.463 2094.117 4581.691 514.710 1241.838 1622.286 1342.451 2116.092 1192.061 382.897 1709.460 1180.077 1904.024 3054.680 967.504 1210.048 2204.292 1311.814 1651.158 842.156 1416.635 1406.891 1848.508 430.107 2036.498 1280.264 864.863 0.000 1248.467 787.311 1243.934 362.815 2102.344 635.999 1212.019 1821.686 1837.334 2174.303 2331.777 1016.951 2639.348 684.661 1776.798 1336.053 1996.495 494.447 1702.492 1788.605 2089.621 3209.091 4913.178 2627.834 1484.627 1194.666 2561.526 455.533 495.499 1740.754 1255.598 2064.170 479.240 1134.362 1303.266 2234.386 1701.947 1924.838 2481.053 2651.909 1975.070 1103.215 1770.389 1413.106 765.471 779.773 4152.629 1690.755 1120.240 1235.749 1507.594 1508.067 489.972 1073.249 2244.741 2383.921 354.838 1554.109 2341.758 147.714 2281.598 2155.489 1097.875 585.512 2580.391 2068.540 791.375 2431.361 1105.012 1794.163 1245.870 1615.739 2246.388 990.456 1759.127 417.075 1229.983 701.638 321.362 1239.658 1347.320 1686.326 815.922 2368.384 3962.504 1353.615 126.005 389.674
1124.514 1193.071 1583.100 834.509 935.057 1090.038 1024.097 1327.733 1002.973 920.759 1181.689 671.844 781.077 2078.701 1234.526 1074.882 985.475 1986.569 1399.837 1195.054 837.824 813.659 768.722 745.886 1341.504 1127.038 897.072 115.082 1360.018 830.142 1127.708 785.151 938.226 1385.656 1589.894 757.220 971.573 802.455 1969.755 1699.528 1923.356 1111.634 1103.568 1059.564 1121.419 1026.772 861.395 1184.640 1219.997 1168.647 778.163 1540.695 1613.771 973.355 962.271 1094.864 1118.130 2210.863 1706.497 1708.205 1408.430 667.754 620.733 1278.638 1400.527 1595.404 1437.554 1975.223 2079.415 1097.371 1741.322 1306.251 1479.540 1553.570 4041.144 895.366 1830.746 784.921 797.826 1874.162 1806.763 1419.345 920.492 183.040 1484.034 2600.450 323.742 1252.173 2252.012 1875.862 1184.575 1359.463 1393.451 866.344 1307.961 1053.528 1616.508 429.321 1293.295 1294.271 0.000 916.806 915.781 1385.739 1610.547 723.779 671.472 1401.697 2438.147 1757.928 1791.230 1631.653 2219.359 877.273 1236.251 1578.729 1457.654 1434.226 1332.448 1457.358 1549.074 2420.123 4372.632 2087.287 944.081 357.301 1772.559 1491.981 1098.312 1200.207 1031.534 1275.202 1241.586 1749.064 1955.295 1743.036 1161.400 1384.291 2030.867 2111.362 1434.523 1531.647 1699.830 1581.186 749.538 1257.728 3612.082 1270.766 785.544 1887.778 1013.681 2160.096 1586.508 738.552 1960.615 1843.374 1326.265 1052.473 1921.769 1182.555 1827.368 1614.942 557.328 1036.950 2039.844 1527.993 1265.600 1642.393 438.048 1253.616 1860.572 1114.104 1826.398 890.003 1081.375 1123.349 1361.637 668.470 1460.037 800.216 806.773 1234.047 1344.572 1948.395 3421.957 813.068 1273.866 1338.925
729.578 855.448 939.928 620.240 540.120 776.748 398.721 1340.177 724.159 625.662 821.391 510.523 667.024 1686.858 492.995 1085.375 790.596 1717.709 1260.989 1041.805 600.032 569.880 669.034 624.906 981.808 973.789 735.591 745.859 1372.463 1359.364 527.444 1337.831 734.719 880.414 1321.034 188.891 780.095 605.414 1824.547 2273.423 1620.256 892.999 913.284 1070.057 1077.291 800.427 64.490 912.831 1182.281 1165.773 614.683 1240.389 1253.473 781.877 674.946 633.953 972.580 1819.020 1314.654 1065.033 1050.898 307.460 398.187 538.804 1169.234 952.232 971.830 1830.015 1776.315 631.646 1472.462 663.080 974.298 1566.015 3884.758 459.663 1187.574 1358.816 941.030 1482.319 1163.592 953.621 1228.204 790.355 1180.934 2331.590 583.671 510.642 1705.978 1232.690 928.068 1021.840 750.280 781.642 1151.575 587.803 1313.408 1004.727 955.673 828.546 860.941 0.000 520.844 920.014 1379.254 289.430 810.598 1098.597 1794.976 1451.213 1644.184 988.481 1916.259 451.695 1093.872 926.333 1273.405 928.984 979.403 1065.515 1371.816 2989.454 4225.585 1930.901 876.785 931.196 2341.889 1003.235 506.057 1197.332 532.509 1844.533 736.344 1105.893 1312.124 1511.296 1138.510 1272.509 1757.964 1954.976 1278.138 1194.024 1153.797 938.014 411.915 920.105 3465.035 967.666 523.116 1244.607 784.504 1516.925 1120.784 473.020 1610.968 1703.553 860.540 831.019 1618.669 716.830 1558.508 1475.121 696.454 699.327 1894.635 1540.437 927.977 2211.724 697.769 1266.060 1217.400 892.650 1523.298 267.366 1275.679 662.438 705.233 285.880 994.312 571.500 736.340 963.236 1006.949 1645.295 3274.911 699.015 808.142 873.200
289.537 1260.760 909.782 237.863 100.080 336.707 276.216 979.995 284.118 191.910 381.351 401.330 284.647 1294.874 621.114 727.145 408.219 1277.668 878.612 659.429 1005.343 187.503 286.657 258.126 541.768 591.412 353.214 832.116 1012.281 977.169 395.273 955.636 352.342 1265.821 880.994 594.203 397.718 223.037 1442.170 2274.204 1180.215 452.959 526.774 711.826 694.914 1205.739 478.603 472.791 799.904 806.200 232.306 800.349 813.432 399.500 234.905 1044.976 590.203 1427.037 922.670 1034.887 610.858 660.718 792.262 558.307 729.193 875.073 1382.852 1447.638 1336.275 1042.669 1032.422 585.920 1165.422 1205.833 3455.288 868.533 1148.163 1359.597 783.864 1090.335 1086.432 1364.644 846.009 844.068 740.894 1891.550 700.150 634.149 1502.088 1202.544 488.028 1427.151 720.133 399.265 733.097 998.826 873.368 1005.508 1360.984 1239.569 947.199 524.994 0.000 1331.037 939.214 694.741 488.180 658.556 1717.816 1011.173 1261.807 911.322 1476.218 857.007 711.495 858.398 833.365 1366.075 587.932 674.724 931.776 2607.259 3843.208 1501.431 494.408 931.977 1959.694 1437.279 972.623 837.760 177.253 1462.338 1173.436 1028.733 1234.964 1071.256 783.001 890.132 1317.923 1525.506 895.761 1599.336 949.906 898.169 817.226 1325.416 3082.659 527.625 252.683 1167.447 344.464 1439.765 1531.806 307.029 1217.474 1292.313 1271.563 390.979 1178.628 1127.853 1118.468 1092.744 546.614 1104.639 1512.258 1180.256 1333.289 1829.529 682.844 905.879 1140.241 452.609 1083.258 286.092 893.484 1073.461 641.306 691.191 1405.335 232.252 407.694 523.196 1412.260 1205.254 2892.534 316.638 1219.165 1284.223
1605.622 964.621 954.648 1496.284 1416.165 1652.792 1274.765 2031.232 1600.203 1501.706 1697.436 1143.228 1468.928 2211.495 1338.983 1778.381 1666.640 2574.729 2103.337 1898.554 945.597 1435.281 1456.573 1404.715 1819.102 1830.537 1584.923 1301.013 2063.518 1819.092 1403.488 1774.101 1610.763 449.238 2178.054 842.163 1656.139 1481.458 2673.255 2736.875 2496.300 1769.043 1789.328 1763.063 1824.918 1014.254 965.852 1788.875 1923.496 1872.146 1406.741 2097.409 1793.657 1657.921 1550.990 643.670 1821.629 2321.706 1841.183 1075.349 1880.622 940.097 912.385 1314.735 2045.278 832.447 644.555 2678.723 2652.359 418.340 2329.483 1432.050 588.219 2257.070 4744.643 682.338 1134.593 1822.268 1505.403 2008.848 1084.817 125.430 1874.604 1347.705 2030.551 3188.610 1135.133 1356.630 2097.048 1204.569 1804.112 919.674 1309.390 1569.843 2011.460 597.735 2189.452 1480.247 994.442 356.814 1416.095 954.940 1396.888 0.000 2255.298 803.628 1374.972 1974.641 1730.090 2136.955 2494.730 909.706 2792.303 871.645 1939.750 1228.809 2149.449 344.276 1689.581 1704.933 2247.860 3409.073 5076.131 2790.786 1647.580 1394.648 2761.509 152.215 534.732 1903.706 1408.553 2264.152 456.858 1027.117 1196.022 2368.316 1864.899 2087.790 2614.984 2814.861 2138.023 1278.410 1663.144 1305.861 933.099 973.296 4315.581 1838.242 1262.380 1128.505 1660.548 1400.823 473.981 1215.389 2137.497 2546.873 538.298 1707.063 2494.713 405.095 2415.528 2318.441 1260.828 785.494 2743.343 2231.492 991.357 2631.343 1262.142 1957.115 1138.625 1768.694 2399.343 1143.411 1922.079 617.057 1122.738 843.778 396.054 1381.798 1510.272 1839.281 898.675 2521.339 4125.456 1500.920 336.410 573.133
816.601 2083.267 1418.597 895.675 970.200 652.015 1125.510 970.649 723.815 859.644 616.600 1229.539 885.411 1122.831 1427.086 867.992 658.662 569.915 604.946 594.694 1783.081 960.119 942.613 942.497 596.224 556.529 769.824 1517.900 1115.343 1565.370 980.263 1543.838 733.068 1950.206 173.241 1453.237 723.323 880.849 1182.176 2945.973 964.539 569.395 602.767 851.168 711.974 1972.029 1337.638 521.346 772.005 1107.493 1000.603 234.807 856.012 709.210 834.950 1904.011 670.435 1254.993 992.140 1503.037 641.157 1476.606 1527.365 1336.889 262.882 1651.305 2241.887 1132.682 1120.599 1901.704 324.669 1374.057 1849.807 1098.696 2914.058 1727.568 1625.578 2043.078 1409.708 1124.794 1699.719 2223.679 1355.196 1529.851 557.040 1183.797 1399.514 1440.121 1604.314 1670.694 597.729 2249.658 1171.331 840.196 606.740 1857.861 552.413 1691.292 2183.491 2098.604 1632.983 1390.833 1020.703 2190.072 0.000 1553.776 1107.552 650.350 2148.661 799.111 1001.813 1546.617 1260.543 1716.042 646.760 1611.872 414.269 2154.380 709.166 785.222 344.452 2837.668 3583.215 960.201 779.944 1617.761 2476.586 2173.998 1838.461 1139.053 894.459 1979.230 2007.225 1643.588 1759.843 363.503 799.841 616.465 621.389 1083.153 691.000 2421.843 1163.441 1283.986 1639.733 2147.923 2822.665 515.354 1124.858 1765.032 687.256 1724.951 2390.841 1179.204 1001.799 849.960 2130.598 653.529 962.953 1986.888 410.715 637.027 1178.594 1927.146 1252.265 1122.536 2155.795 2346.421 1353.128 1008.940 1765.314 592.997 867.582 1151.993 1220.753 1932.496 1385.805 1550.226 2264.370 1046.657 898.070 519.401 2234.767 990.275 2632.540 863.697 2078.200 2143.258
911.177 605.305 1161.750 739.073 721.719 958.347 625.567 1232.296 905.758 805.294 1002.990 385.399 685.640 1908.573 710.642 979.445 890.039 1891.132 1304.401 1099.618 349.889 677.452 673.285 646.886 1163.407 1031.601 801.635 497.401 1264.582 1175.296 754.290 1130.305 842.790 854.871 1494.457 233.337 876.136 707.018 1874.319 2044.683 1801.855 1016.198 1008.131 964.127 1025.982 550.284 337.511 1089.203 1124.560 1073.210 648.912 1421.988 1435.072 877.918 856.545 507.098 1022.693 2040.735 1536.369 1286.855 1232.497 250.449 108.757 756.451 1305.090 1171.873 900.756 1879.787 1957.914 566.586 1645.886 882.720 948.755 1458.134 3945.707 363.165 1409.396 1130.075 706.467 1704.034 1383.232 888.560 1075.668 544.093 1362.533 2505.013 331.521 728.290 1927.800 1454.512 1089.138 771.697 972.101 770.907 1212.524 522.743 1495.007 775.987 705.529 763.486 612.483 392.922 702.443 854.954 1515.110 0.000 576.036 1280.196 2014.616 1632.812 1695.794 1208.122 2097.858 289.507 1140.814 1143.981 1362.217 903.441 1201.118 1287.230 1453.638 2764.741 4277.195 1991.850 848.644 702.455 2117.177 961.196 567.048 1104.770 754.224 1620.357 710.801 1325.533 1531.764 1647.599 1065.963 1288.854 1935.430 2015.925 1339.087 943.881 1375.618 1159.836 161.772 669.962 3516.645 1149.265 504.551 1464.247 918.244 1736.565 1055.723 457.560 1832.683 1747.937 789.466 957.037 1800.268 651.770 1731.932 1519.505 461.892 449.184 1944.407 1432.556 677.834 1987.548 469.028 1158.179 1437.041 1018.667 1704.897 494.212 1123.143 535.583 922.881 103.392 929.252 623.968 711.336 1138.610 756.806 1826.894 3326.520 717.632 743.081 802.127
688.627 1174.671 1302.707 378.796 508.118 634.324 669.141 806.485 547.259 465.045 725.976 497.631 325.364 1608.701 1014.039 553.635 482.006 1465.321 878.590 673.807 874.567 361.313 301.183 302.981 871.505 605.790 393.480 613.926 838.771 702.299 790.825 680.766 435.692 1367.256 1068.647 736.520 454.939 346.741 1448.508 2021.318 1453.356 608.165 586.934 538.316 600.172 1063.515 840.695 682.105 698.749 645.396 361.087 1019.622 1152.594 456.721 506.557 1076.464 596.883 1740.864 1236.497 1427.812 938.430 647.054 623.392 951.232 879.279 1267.998 1419.154 1453.976 1609.416 1078.971 1220.075 978.845 1461.140 1032.323 3519.897 876.966 1541.088 1118.423 468.875 1404.162 1479.357 1400.945 573.242 625.877 1014.034 2079.203 495.540 1027.074 1847.106 1595.469 682.041 1341.063 1113.058 345.097 786.714 1035.128 1146.508 787.318 1274.895 1275.871 729.009 896.106 508.205 1367.339 1089.300 705.379 0.000 931.697 2110.741 1287.928 1269.983 1304.247 1749.359 858.873 715.004 1251.323 936.407 1415.826 862.449 987.359 1027.827 2334.492 3851.384 1566.040 422.833 713.787 1686.927 1473.581 1079.912 676.956 604.594 1189.571 1223.186 1421.658 1627.889 1221.789 640.153 863.044 1509.619 1590.115 913.276 1513.247 1294.925 1243.187 731.138 1239.328 3090.835 800.766 485.342 1560.372 513.413 1832.690 1568.108 490.601 1490.615 1322.127 1307.865 549.939 1451.769 1164.155 1306.121 1093.695 260.801 1018.550 1518.596 1006.746 1247.200 1556.762 439.208 732.369 1533.166 611.570 1356.399 682.912 620.717 1104.949 1034.231 671.129 1441.637 407.623 285.526 731.512 1326.172 1478.395 2900.710 357.355 1255.466 1320.525
705.483 2014.189 1196.869 870.069 894.593 521.526 1019.904 1365.252 683.881 784.037 524.198 1173.468 865.939 708.979 1321.481 1123.049 692.058 771.375 999.548 890.430 1753.570 884.512 926.121 912.986 401.022 816.241 803.220 1488.389 1411.791 1563.875 877.709 1542.343 766.464 1728.477 576.583 1347.632 775.227 855.242 1576.779 2930.477 550.688 602.622 707.814 1091.220 1007.711 1942.518 1232.032 476.635 1067.742 1230.014 941.833 495.938 344.472 742.606 759.343 1798.405 877.446 841.141 572.601 1281.309 304.225 1425.622 1497.855 1231.284 543.036 1429.577 2136.282 1527.284 706.747 1796.098 728.011 1268.452 1628.078 1493.299 3084.923 1621.963 1403.850 2015.870 1408.213 710.942 1477.990 2070.589 1432.716 1500.341 147.571 1343.333 1370.003 1334.516 1190.462 1448.966 586.069 2180.581 1047.764 873.593 910.039 1752.256 243.840 1661.781 2114.413 1992.999 1603.472 1285.227 923.759 2084.466 671.808 1448.171 1109.091 0.000 1906.428 385.260 1396.416 1324.888 846.691 1610.436 942.496 1506.267 850.058 1932.652 585.600 439.198 739.054 3193.965 3977.817 1346.094 890.566 1588.250 2546.401 1952.269 1732.856 1261.573 788.854 2049.045 1785.496 1421.860 1538.115 766.845 1095.578 1011.067 764.743 1477.756 1085.602 2352.765 921.207 1160.420 1570.655 2078.846 3217.267 424.249 1037.432 1543.304 647.831 1482.718 2285.236 1081.535 587.947 1244.562 2024.992 686.756 549.101 1881.283 698.918 1031.629 1183.917 1858.068 1646.867 1517.138 2086.718 2416.236 1339.117 1305.389 1543.586 615.784 453.730 1046.387 1406.207 1826.890 1280.200 1444.620 2158.764 971.050 896.575 507.741 2165.690 575.727 3027.142 840.500 1972.594 2037.653
1742.862 2301.055 1033.621 1850.166 1770.046 1725.142 1473.152 2583.892 1792.940 1855.588 1667.518 1866.846 1896.950 1593.406 1558.536 2329.090 2020.522 2441.321 2444.771 2254.913 2189.530 1799.806 1898.960 1868.620 1685.693 2180.724 1965.517 2276.167 2616.178 2589.472 1508.647 2567.939 1964.645 1326.755 2044.646 1778.389 2010.021 1835.340 3008.329 3774.723 2222.790 1967.422 2072.297 2313.772 2307.217 2350.688 1662.790 1780.958 2412.207 2409.488 1844.609 1964.001 1844.273 2011.803 1806.707 1980.104 2202.506 1660.350 1839.547 1058.637 1747.213 1881.831 1987.686 1374.031 2007.419 1079.650 2121.740 2995.347 2267.595 1676.342 2196.074 1491.714 1226.356 2809.730 4617.831 1873.770 956.318 2860.116 2335.209 1714.914 878.007 1668.867 2458.312 2320.663 1956.161 3055.202 2113.979 1571.571 1435.691 971.569 1887.402 2378.572 1381.505 2011.568 2274.522 1789.167 2053.167 2506.027 2401.280 1822.913 2391.249 1720.748 1750.770 1730.509 2139.871 1878.928 2071.511 1927.578 0.000 1858.743 2827.966 1022.142 2275.708 2041.193 2306.979 1303.977 2300.929 1530.930 1556.173 1650.024 2207.118 4219.561 5409.367 2831.606 2106.711 2432.496 3571.997 1550.547 1695.819 2441.047 1663.142 3074.641 1383.774 832.471 837.800 2234.908 2382.225 2456.291 2481.576 2945.819 2461.920 2639.631 1472.281 1377.976 2001.413 2316.190 4648.818 1704.834 1765.304 738.130 1857.976 731.472 2115.150 1774.913 1624.076 2712.626 2001.503 1933.256 2221.204 1788.618 2282.120 2499.692 2097.959 2116.427 3078.417 2784.152 2327.791 3441.832 2219.261 2509.775 954.197 1934.047 2071.363 1649.353 2505.787 1953.492 1197.906 1875.378 1988.679 1815.215 1980.055 1831.363 2352.339 2381.808 4458.693 1928.941 1802.509 2023.110
859.921 2168.214 1213.175 1024.506 1049.031 675.963 1174.342 1494.722 838.319 938.475 653.211 1327.493 1020.377 436.967 1409.679 1369.516 938.525 817.123 1129.018 1114.092 1908.007 1038.950 1080.559 1067.424 555.460 1062.707 1002.043 1642.827 1639.415 1718.313 1028.022 1696.780 931.954 1744.783 706.053 1501.657 1021.694 1009.680 1706.248 3084.915 475.005 849.089 954.280 1337.686 1231.373 2096.956 1386.057 723.102 1291.404 1449.519 1096.270 625.408 381.629 989.072 913.781 1952.430 1123.913 569.129 399.279 1297.614 508.793 1579.647 1652.292 1318.443 672.506 1445.883 2290.307 1656.754 631.065 1950.123 857.481 1355.611 1644.384 1622.768 3141.729 1775.988 1420.156 2170.307 1562.650 383.244 1494.296 2086.895 1587.154 1654.778 514.325 1355.201 1524.441 1422.714 918.450 1465.271 831.694 2334.606 1096.875 1042.584 1124.944 1906.281 305.382 1816.219 2268.438 2147.024 1757.909 1439.252 1078.197 2148.537 801.278 1602.196 1263.529 495.686 1747.625 0.000 1525.886 1341.194 771.009 1764.461 1166.158 1593.426 979.528 1948.958 713.168 566.174 868.524 3348.403 4107.287 1357.962 1137.033 1742.687 2700.839 1968.575 1886.881 1481.078 943.291 2203.482 1801.802 1438.165 1554.421 896.315 1319.240 1140.537 835.943 1607.225 1215.072 2506.790 937.513 1209.531 1724.680 2232.871 3346.737 670.715 1191.869 1513.879 802.268 1275.583 2439.261 1235.560 315.935 1374.032 2179.017 877.548 473.419 2035.308 828.388 1161.099 1338.354 2012.093 1776.337 1646.608 2240.743 2570.673 1493.555 1533.012 1559.892 862.251 323.578 1200.412 1634.628 1980.915 1367.359 1598.645 2312.789 1125.488 1051.013 754.208 2319.715 634.023 3156.612 994.937 2126.619 2191.677
1279.447 2230.215 1908.245 1154.990 1203.389 1162.051 1406.253 861.240 1110.476 1092.833 1196.559 1469.640 1125.512 1838.617 1751.151 852.436 909.793 1235.900 461.797 729.611 1930.110 1193.308 1181.779 1182.598 1312.011 727.897 1009.925 1670.842 1009.624 1478.058 1385.182 1456.526 985.626 2395.859 839.225 1724.240 920.915 1138.945 861.177 2884.880 1680.326 927.653 785.439 871.715 821.160 2119.059 1608.641 1049.229 792.911 1155.258 1240.704 950.594 1571.798 925.625 1106.996 2132.008 841.803 1970.780 1687.751 2033.350 1356.944 1702.598 1680.307 1684.317 1045.408 2005.111 2474.698 642.793 1836.386 2134.514 990.653 1715.958 2295.460 790.754 2827.182 1932.510 2155.891 2084.990 1552.703 1840.580 2173.009 2456.489 1249.478 1682.793 1272.827 1455.632 1552.455 1764.186 2320.101 2201.007 1065.567 2396.606 1672.966 1080.298 799.672 2090.672 1268.200 1844.234 2330.439 2331.415 1785.924 1655.032 1253.893 2422.882 997.962 1760.923 1253.581 1366.137 2822.579 1514.898 0.000 2041.360 1976.329 1914.417 781.677 1959.299 717.875 2471.370 1313.703 1438.613 746.984 2516.669 3106.379 856.708 963.550 1770.702 2370.868 2529.125 2102.661 1173.654 1240.936 1873.511 2278.730 2116.879 2290.156 905.468 735.615 502.632 1287.374 756.841 590.597 2568.791 1837.359 1785.621 1786.681 2294.872 2345.830 1221.930 1364.959 2238.323 1021.426 2398.869 2623.652 1419.305 1717.586 342.330 2363.408 1011.261 1678.739 2219.699 1076.699 476.488 1328.402 2074.094 833.360 873.793 2302.744 2240.703 1496.123 903.222 2238.605 1052.322 1583.369 1416.130 1115.034 2160.493 1733.233 1728.044 2497.180 1279.846 1074.423 1013.260 2381.715 1706.062 2155.705 1103.799 2311.010 2376.069
969.909 1480.790 161.312 1036.262 956.142 1008.132 659.248 1769.988 993.500 1041.684 1036.314 1052.942 1083.046 1446.883 744.632 1515.186 1206.618 1810.117 1649.365 1457.827 1375.626 985.902 1085.056 1054.717 1054.490 1385.317 1151.613 1462.263 1802.274 1775.568 672.036 1754.035 1150.741 506.490 1413.442 964.485 1196.117 1021.436 2212.923 2960.819 1747.983 1210.856 1284.672 1499.868 1493.313 1530.423 848.886 1124.985 1598.303 1595.584 1030.705 1332.797 1029.045 1197.899 992.803 1159.839 1388.602 1569.513 1076.570 282.013 1116.009 1067.928 1173.782 560.127 1376.216 187.087 1301.474 2218.391 1904.043 856.077 1564.870 675.297 406.091 1995.826 4154.259 1053.505 351.830 2046.212 1521.305 1244.235 295.297 848.602 1644.408 1506.759 1265.939 2423.998 1300.075 757.667 1344.855 409.852 1140.222 1558.307 526.635 1197.664 1490.995 968.902 1459.378 1692.123 1581.014 1002.648 1577.345 906.844 936.866 910.244 1508.668 1065.024 1257.607 1248.287 1026.405 1372.343 2032.560 0.000 2043.986 1227.289 1509.894 472.055 1542.746 710.664 924.969 940.320 1575.914 3405.657 4613.961 2200.402 1292.807 1618.592 2758.093 730.282 875.553 1627.143 849.238 2260.737 563.509 237.598 443.829 1603.704 1568.321 1660.884 1850.372 2251.412 1666.514 1819.366 898.532 523.106 1187.509 1495.924 3853.411 1073.630 951.400 376.312 1085.744 648.630 1294.885 961.009 1372.885 2018.219 1181.238 1148.876 1746.396 968.353 1650.916 1849.335 1284.055 1296.161 2283.011 1970.248 1507.526 2627.928 1405.357 1695.871 349.106 1186.867 1651.026 835.449 1691.883 1133.226 365.985 1061.474 1168.414 1001.311 1166.151 1175.390 1532.073 1794.985 3663.286 1115.037 982.243 1202.845
1339.585 2648.291 1871.967 1504.170 1528.695 1155.627 1654.006 1974.386 1317.983 1418.139 1158.299 1807.570 1500.041 869.918 1955.582 1849.180 1418.188 1010.110 1608.682 1593.756 2387.671 1518.614 1560.223 1547.088 1035.124 1542.371 1481.707 2122.491 2119.079 2197.977 1511.811 2176.444 1411.617 2403.575 1185.717 1981.733 1501.358 1489.344 2185.912 3564.579 320.792 1328.753 1433.944 1817.350 1711.037 2576.620 1866.134 1202.766 1771.067 1929.183 1575.934 1105.072 1032.523 1468.736 1393.445 2432.507 1603.577 880.581 1074.559 1956.406 988.457 2059.723 2131.956 1865.385 1152.170 2104.675 2770.383 2136.418 293.696 2430.200 1299.528 1902.553 2303.176 2102.432 2734.791 2256.064 2065.467 2649.971 2042.314 1030.070 1987.157 2745.687 2066.817 2134.442 993.989 1342.204 2004.105 1968.617 1251.851 2047.763 1311.358 2814.682 1715.109 1522.247 1604.608 2386.357 763.714 2295.883 2748.515 2627.100 2237.573 1919.329 1557.861 2718.568 1280.942 2082.272 1743.193 995.559 2081.026 749.361 2005.550 1999.986 0.000 2244.538 1645.822 2140.368 1459.191 2607.750 1252.944 1130.053 1348.188 3828.067 4001.591 1550.948 1616.697 2222.351 3180.502 2627.367 2366.957 1960.742 1422.955 2683.146 2460.594 1941.620 1946.950 1375.979 1798.904 1620.201 1028.929 2075.626 1694.736 2986.867 1596.305 1827.765 2204.757 2712.947 3826.401 1150.379 1671.533 1847.280 1281.932 1608.984 2919.337 1715.637 907.075 1853.696 2659.094 1357.212 357.495 2515.384 1173.035 1640.763 1818.018 2492.170 2256.001 2126.272 2720.820 3050.337 1973.218 2012.676 2063.347 1341.915 517.888 1680.489 2114.292 2460.991 1914.301 2078.722 2792.866 1605.152 1530.677 1233.872 2799.791 629.502 3636.276 1474.601 2606.696 2671.754
1090.999 514.614 1275.468 959.539 901.542 1138.169 760.143 1452.762 1085.581 987.083 1182.813 617.831 906.107 2037.687 824.360 1199.912 1110.505 2079.131 1524.867 1320.084 292.881 909.884 893.751 870.915 1343.230 1252.067 1022.102 730.637 1485.048 1299.247 888.866 1254.256 1063.256 857.692 1682.456 318.417 1096.603 927.484 2094.785 2217.031 1981.677 1236.664 1228.597 1184.593 1246.449 493.277 451.230 1274.253 1345.026 1293.677 881.343 1601.811 1614.895 1098.384 1036.368 322.796 1243.160 2169.850 1667.375 1400.573 1412.320 414.699 344.714 870.170 1525.556 1195.803 716.453 2100.253 2137.737 569.406 1833.884 996.438 951.575 1678.600 4166.173 217.432 1497.950 1302.423 926.934 1835.040 1448.173 891.381 1296.135 777.329 1542.356 2693.012 564.757 842.008 2041.518 1567.926 1289.490 681.006 1085.819 991.374 1432.990 525.563 1674.830 960.402 614.839 766.306 845.719 506.640 882.266 857.774 1735.577 263.930 796.502 1460.018 2093.446 1812.635 1916.260 1273.063 2277.680 0.000 1361.281 1257.699 1582.684 902.542 1340.825 1426.937 1674.104 2889.228 4497.661 2212.316 1069.110 874.803 2241.664 964.016 569.655 1325.236 893.931 1744.307 713.622 1390.474 1559.378 1868.066 1286.430 1509.321 2119.386 2236.392 1559.553 853.190 1489.336 1273.554 143.855 579.271 3737.112 1329.088 736.982 1491.862 1138.710 1764.180 884.024 689.991 1963.689 1968.403 605.164 1177.503 1980.091 654.590 1919.930 1739.972 682.358 358.493 2164.873 1653.022 587.143 2111.499 702.264 1378.646 1501.982 1239.134 1884.720 628.788 1343.610 351.280 1036.599 318.380 904.521 856.400 931.802 1324.658 666.115 2006.717 3546.987 938.098 745.902 617.824
796.109 1629.744 1444.317 594.570 669.161 676.017 872.025 560.088 646.094 607.040 710.526 902.565 558.478 1469.039 1216.923 288.069 349.373 1011.529 369.862 98.021 1329.640 658.062 581.308 622.178 836.726 167.819 449.505 1070.371 589.405 1057.839 921.254 1036.307 425.206 1822.329 614.855 1190.012 360.495 578.525 947.615 2464.661 1310.747 437.541 320.766 271.244 132.051 1518.588 1074.412 563.196 192.081 604.055 680.285 695.639 1117.815 365.205 638.094 1531.537 255.424 1601.201 1201.718 1569.422 881.709 1102.127 1079.836 1154.116 555.297 1470.882 1874.227 953.083 1466.807 1534.044 766.283 1181.729 1761.231 758.620 3013.899 1332.039 1691.963 1585.602 952.232 1369.383 1682.241 1856.018 829.259 1082.322 861.593 1625.411 951.985 1229.958 1903.507 1737.079 578.931 1796.136 1186.932 483.873 326.476 1490.201 898.621 1243.763 1729.968 1730.944 1185.453 1120.803 719.664 1822.411 661.717 1160.452 653.110 896.386 2313.625 1145.319 767.252 1507.131 1606.750 1313.946 0.000 1454.207 431.353 1870.899 827.670 952.580 522.773 2598.213 3348.653 1060.042 392.444 1170.231 1950.649 1928.654 1534.985 635.615 773.062 1453.293 1678.259 1624.542 1826.228 716.735 219.918 354.316 1063.003 1084.117 372.651 1968.320 1351.325 1299.588 1186.210 1694.401 2588.103 735.897 779.823 1763.256 556.458 1912.836 2023.181 834.169 1348.007 815.107 1762.937 521.150 1309.160 1619.228 852.329 586.675 727.931 1473.623 1017.703 733.043 1702.273 1820.484 895.652 483.003 1736.050 562.211 1213.790 881.901 694.815 1560.022 1237.115 1127.573 1896.710 702.104 473.953 527.227 1781.245 1336.483 2397.979 543.379 1710.539 1775.598
925.789 1573.743 535.718 978.963 898.843 972.959 601.948 1712.688 920.371 964.608 1017.603 995.642 1025.747 1707.395 687.332 1457.887 1147.895 1913.921 1565.254 1375.396 1318.326 928.603 1027.756 997.417 1178.020 1301.206 1094.314 1404.963 1744.974 1718.268 643.559 1696.736 1093.441 882.453 1517.246 907.186 1138.817 964.136 2128.811 2903.520 1816.467 1126.745 1200.561 1442.568 1436.014 1518.722 791.586 1104.975 1541.004 1538.284 973.405 1436.601 1289.557 1140.599 908.692 1357.959 1331.302 1839.558 1337.083 660.500 1240.640 1010.628 1116.482 455.736 1361.378 465.716 1677.437 2134.279 1972.527 1232.040 1668.674 578.348 782.053 1938.526 4108.064 1181.517 769.875 1988.912 1464.006 1504.748 708.145 1224.565 1587.109 1449.460 1377.146 2527.802 1242.776 700.367 1711.226 827.898 1120.212 1740.134 621.253 1140.364 1406.884 1311.810 1509.620 1634.824 1673.967 1378.611 1520.046 849.545 879.567 1286.207 1571.398 1007.725 1200.308 1294.808 1349.786 1632.856 1948.449 533.035 2112.471 1169.990 1427.462 0.000 1469.617 1086.627 1049.600 1143.450 1568.028 3348.358 4529.850 2154.207 1235.507 1561.292 2700.794 1106.244 1251.516 1569.844 765.127 2203.437 939.472 650.446 856.677 1707.508 1511.021 1576.773 1954.176 2178.283 1582.402 1912.319 1159.044 560.670 1130.209 1638.400 3769.300 1163.878 894.101 789.160 1012.615 1061.478 1670.848 903.710 1633.397 1945.089 1557.200 1064.765 1814.881 1344.316 1754.720 1774.307 1226.756 1417.622 2198.900 1912.949 1646.272 2570.629 1348.057 1638.572 761.954 1126.396 1719.510 778.149 1634.584 1386.444 301.259 1004.174 1544.376 944.012 1108.851 1155.381 1725.244 1841.507 3579.175 1057.738 1358.206 1578.808
733.206 1887.825 1387.989 763.761 830.743 613.114 1000.136 708.091 598.441 720.187 642.918 1096.994 752.866 1293.402 1301.712 661.125 526.607 690.685 342.387 387.826 1587.720 820.662 810.068 809.952 744.370 355.251 637.279 1328.452 852.784 1321.219 877.488 1299.686 601.013 1928.584 294.010 1327.863 548.269 748.934 919.618 2728.041 1135.111 437.881 412.793 644.300 505.107 1776.669 1212.264 495.588 565.138 906.215 868.058 405.379 1026.583 552.979 709.575 1778.637 469.157 1425.565 1134.111 1512.771 789.303 1344.062 1337.917 1211.515 459.586 1537.836 2116.513 826.074 1291.171 1776.330 445.438 1248.683 1828.185 836.138 2706.327 1590.120 1635.312 1843.683 1210.313 1295.365 1665.315 2098.304 1092.638 1340.403 727.611 1304.566 1210.065 1314.747 1774.885 1680.428 484.343 2054.216 1124.029 707.652 408.505 1732.487 722.985 1501.844 1988.049 1973.230 1443.534 1265.458 881.247 2064.698 418.449 1418.533 911.191 820.922 2272.822 969.683 739.255 1521.910 1431.114 1572.027 439.893 1486.498 0.000 2099.736 760.062 884.972 166.291 2575.110 3320.656 752.470 590.904 1428.312 2214.028 2152.376 1713.087 937.774 769.085 1716.672 1907.097 1609.185 1769.578 360.253 592.902 353.907 742.159 776.545 394.872 2226.401 1287.601 1236.685 1444.291 1952.481 2560.107 643.492 992.313 1730.629 557.322 1849.112 2265.467 1046.659 1172.370 543.352 2005.224 522.014 1133.524 1861.514 531.484 374.469 990.933 1731.704 989.707 859.978 1960.354 2083.863 1153.733 746.382 1730.911 467.623 1038.154 1026.618 958.195 1807.121 1260.431 1385.654 2138.996 907.200 718.577 459.619 2039.325 1160.847 2369.982 731.152 1952.826 2017.884
1564.922 1040.754 766.906 1571.470 1491.351 1603.146 1226.114 2106.418 1571.348 1576.892 1613.185 1218.415 1544.115 2023.754 1311.498 1853.567 1741.826 2386.987 2178.523 1973.740 1021.729 1510.468 1531.759 1479.901 1631.360 1905.723 1660.110 1385.419 2138.704 1895.224 1267.050 1850.233 1685.949 280.824 1990.313 917.349 1731.325 1556.644 2748.441 2813.008 2324.854 1777.723 1851.538 1838.249 1900.104 1090.387 1041.038 1719.999 1998.682 1947.332 1481.927 1909.668 1605.915 1733.107 1559.670 719.802 1896.815 2133.964 1653.441 887.608 1692.880 1015.283 998.673 1126.994 1953.086 644.705 936.583 2753.909 2480.914 563.385 2141.741 1244.309 400.477 2332.256 4731.130 768.626 946.852 1898.400 1580.590 1821.106 897.075 302.057 1949.791 1429.915 1842.810 3000.869 1221.421 1324.533 1909.306 1016.828 1735.236 1118.271 1121.649 1645.029 2057.861 684.023 2036.249 1556.379 1140.978 562.612 1500.501 1041.228 1472.074 366.873 2085.538 889.916 1450.158 1825.157 1542.348 1949.214 2569.916 721.965 2620.857 957.933 2014.936 1041.067 2120.595 0.000 1501.840 1517.191 2152.784 3485.205 5151.317 2777.273 1722.766 1470.781 2837.641 183.737 578.319 1978.892 1416.104 2340.285 385.226 839.376 1008.280 2180.575 1940.085 2162.976 2427.243 2829.260 2213.209 1379.330 1475.403 1118.120 1019.387 1055.888 4390.767 1650.501 1337.566 940.763 1663.593 1213.081 814.515 1290.575 1949.755 2596.067 795.762 1715.743 2323.267 556.782 2227.787 2393.627 1336.014 861.626 2818.529 2306.678 1067.489 2707.476 1337.328 2032.301 950.884 1777.374 2227.897 1218.597 1997.265 693.190 934.997 918.964 728.377 1456.984 1585.458 1770.404 1092.037 2371.855 4200.642 1576.106 542.207 830.598
421.489 1694.911 853.384 592.604 617.129 237.531 697.325 1191.412 399.887 506.572 179.908 854.190 588.475 839.610 918.921 938.561 552.767 989.462 957.161 767.303 1439.494 607.048 648.656 635.521 233.835 693.113 570.141 1210.925 1223.697 1286.411 521.041 1264.878 500.051 1384.992 592.787 1028.353 614.644 577.778 1520.719 2653.013 961.627 479.812 584.686 923.243 884.584 1639.890 912.754 293.348 944.614 1017.617 664.368 512.142 412.516 603.314 481.878 1479.127 754.319 971.773 467.406 937.824 295.354 1106.343 1220.390 827.685 520.906 1086.092 1817.003 1526.187 1117.687 1476.820 744.215 864.853 1284.593 1417.250 3333.604 1302.684 1060.365 1738.405 1130.748 635.071 1134.505 1727.104 1155.251 1222.876 504.302 1603.343 1092.538 931.956 1150.409 1105.480 399.792 1861.302 606.117 610.681 786.912 1432.977 654.779 1384.317 1795.135 1673.720 1326.007 965.948 619.489 1765.188 688.013 1128.892 831.627 439.968 1583.448 695.669 1340.356 981.403 1257.630 1291.157 819.369 1102.668 813.319 1589.167 0.000 218.267 755.259 2916.500 3921.757 1379.747 706.361 1310.785 2268.936 1608.784 1413.577 1049.176 484.584 1771.580 1442.011 1078.374 1194.630 783.049 972.450 968.680 1029.717 1493.960 974.310 2033.486 598.227 718.773 1251.377 1759.567 3161.207 252.975 733.162 1199.818 370.366 1159.737 1965.957 762.257 763.720 1260.767 1705.714 445.645 960.040 1562.004 830.261 1047.834 906.452 1538.790 1590.807 1391.672 1767.439 2138.771 1061.652 1117.295 1200.101 446.436 864.670 727.108 1202.726 1507.611 876.601 1125.342 1839.486 693.586 619.111 343.753 1846.411 986.666 2971.083 563.035 1653.316 1718.374
542.551 1815.973 890.326 713.666 738.191 358.594 746.856 1312.474 520.949 627.635 300.970 975.252 709.537 676.143 966.495 1059.624 673.829 1052.703 1078.223 888.365 1560.556 728.110 769.719 756.584 319.145 814.176 691.203 1331.987 1344.760 1407.473 570.572 1385.940 621.114 1421.934 678.098 1149.416 735.707 698.840 1641.781 2774.075 921.155 600.874 705.749 1044.305 1005.646 1760.952 1033.816 414.410 1065.677 1138.679 785.431 597.453 249.050 724.377 602.941 1600.189 875.382 808.306 303.939 974.765 224.370 1227.406 1341.452 875.259 640.872 1123.034 1938.066 1628.799 1077.215 1597.882 829.526 912.427 1321.535 1538.312 3418.915 1423.747 1097.307 1859.467 1251.811 471.604 1171.447 1764.046 1276.314 1343.938 417.149 1666.584 1213.601 979.530 1082.935 1142.422 520.854 1982.364 653.691 731.744 907.974 1554.039 610.587 1505.379 1916.197 1794.782 1447.070 1087.011 740.552 1825.688 773.324 1249.955 952.689 399.496 1599.885 599.712 1461.418 1018.345 1217.158 1412.220 940.432 1150.242 934.381 1626.109 189.625 0.000 840.570 3037.563 4042.819 1465.058 827.424 1431.848 2389.999 1645.726 1534.640 1170.239 605.646 1892.642 1478.953 1115.316 1231.572 868.360 1093.513 1089.743 1073.294 1579.271 1095.372 2154.549 614.664 766.347 1372.439 1880.630 3282.270 338.286 854.224 1236.760 491.428 1176.174 2087.020 883.319 600.253 1346.078 1826.776 566.708 919.568 1683.066 915.572 1133.145 1027.515 1659.852 1711.869 1512.735 1888.502 2259.833 1182.715 1238.358 1237.043 567.499 824.198 848.171 1323.789 1628.674 924.175 1246.404 1960.548 814.648 740.173 464.815 1967.473 946.194 3092.145 684.097 1774.378 1839.436
789.229 1952.387 1444.012 828.323 895.306 669.137 1056.159 626.197 654.464 784.749 698.942 1161.556 817.429 1321.682 1357.735 613.703 591.170 718.964 260.494 439.817 1652.283 885.225 874.630 874.514 795.075 419.813 701.841 1393.014 770.890 1239.325 933.512 1217.792 665.576 1984.608 322.290 1383.887 612.831 813.497 837.724 2646.147 1163.391 502.444 477.355 647.109 551.662 1841.231 1268.287 551.612 523.412 916.524 932.621 433.658 1054.863 617.541 765.599 1834.660 533.719 1453.844 1190.134 1568.795 840.008 1408.624 1402.479 1267.539 515.610 1593.859 2172.537 788.230 1319.450 1832.353 473.718 1304.707 1884.209 754.244 2668.483 1654.682 1691.336 1846.257 1274.875 1323.645 1721.339 2154.328 1010.744 1404.965 755.891 1296.932 1274.628 1370.771 1803.165 1736.452 540.367 2118.779 1180.052 772.214 473.067 1788.510 751.265 1566.406 2052.611 2029.253 1508.096 1321.482 945.809 2120.721 472.497 1483.095 975.753 849.202 2328.845 997.963 657.361 1577.933 1459.394 1636.589 491.883 1542.521 124.816 2155.760 816.086 940.995 0.000 2493.216 3238.763 714.626 655.467 1492.874 2132.134 2208.400 1769.110 934.921 825.108 1634.778 1963.120 1665.208 1825.601 388.532 511.008 272.013 770.438 738.701 346.548 2290.963 1343.625 1292.708 1508.854 2017.044 2478.213 699.515 1056.875 1786.652 617.905 1905.135 2321.490 1111.222 1200.650 505.508 2061.247 586.577 1161.804 1917.537 559.764 292.575 1055.495 1796.266 907.813 778.084 2024.916 2001.969 1218.296 664.488 1786.935 523.646 1066.434 1082.642 876.301 1863.145 1316.454 1450.216 2195.019 971.763 783.139 515.642 2103.888 1189.126 2288.088 795.715 2008.849 2073.907
2798.238 3046.818 3415.732 2466.505 2636.777 2743.935 2782.166 2208.051 2656.870 2574.656 2832.793 2716.730 2401.986 3696.190 3127.063 2338.269 2577.835 3096.968 2322.865 2590.678 2673.797 2497.852 2371.484 2445.191 2958.993 2588.965 2489.078 2477.887 2444.030 1851.572 2903.849 1806.756 2523.181 3489.722 2700.293 2867.159 2542.428 2434.450 1699.807 2565.598 3540.844 2698.616 2646.507 2427.262 2498.567 2862.746 2971.334 2769.594 2597.145 2143.755 2503.297 2811.662 3240.083 2544.210 2616.168 3052.221 2662.757 3828.352 3323.986 3540.837 3025.918 2777.693 2736.323 3064.257 2906.476 3381.023 3322.765 2277.249 3696.904 3206.626 2851.721 3091.870 3588.795 2154.174 4837.846 3004.621 3654.113 2169.854 2335.368 3491.651 3592.382 3485.377 1865.154 2425.839 3101.523 3535.244 2520.853 3140.099 3956.717 3708.494 2769.529 3213.210 3226.083 2432.585 2660.739 3162.783 3129.268 2295.157 3147.043 3344.559 2465.321 3026.745 2636.212 3465.295 2859.030 2833.034 2343.522 3019.185 4223.766 3375.416 2271.708 3417.272 3836.848 2969.904 2613.399 3364.348 2578.942 3475.627 2949.937 3074.847 2617.846 0.000 4056.041 2936.321 2510.322 2209.558 1386.837 3549.878 3207.567 2162.151 2740.678 1514.867 3350.841 3534.683 3740.914 2766.535 2568.913 2363.700 3148.441 2508.190 2451.664 3385.394 3404.536 3352.798 2842.168 3111.475 3037.905 2888.255 2598.367 3673.397 2600.902 3945.715 3490.335 2652.713 3578.104 2422.605 3211.475 2637.428 3539.258 3291.810 2937.767 2507.950 2483.258 2932.993 2293.947 2009.025 3119.347 1527.528 2418.536 2338.729 3646.191 2699.058 3443.887 2795.937 2026.037 3032.603 3147.255 2784.060 3510.325 2520.648 2373.014 2819.001 3198.319 3565.884 2847.780 2444.423 3324.155 3224.135
3735.786 4686.555 4364.585 3611.329 3659.729 3618.390 3862.593 3317.580 3566.816 3549.173 3652.898 3925.980 3581.852 4294.957 4207.491 3308.776 3366.133 3692.239 2918.136 3185.950 4386.450 3649.648 3638.119 3638.938 3768.350 3184.237 3466.265 4127.181 3465.964 3934.398 3841.522 3912.865 3441.966 4852.199 3295.565 4180.580 3377.255 3595.285 2926.976 5341.220 3986.525 3383.992 3241.779 3328.054 3277.500 4575.399 4064.980 3505.569 3249.250 3611.597 3697.044 3406.933 4028.138 3381.964 3563.335 4588.347 3298.142 4427.119 4144.091 4489.689 3813.283 4158.937 4136.647 4140.656 3501.748 4461.450 4931.037 2663.332 3908.374 4590.854 3446.993 4172.297 4751.799 3123.298 1872.251 4388.850 4612.231 4541.330 4009.042 4296.920 4629.349 4912.829 3705.817 4139.133 3729.166 3369.946 4008.795 4220.526 4776.440 4657.346 3521.907 4852.946 4129.305 3536.637 3256.011 4547.011 3724.540 4300.573 4786.779 4787.754 4242.264 4111.371 3710.232 4879.222 3454.302 4217.263 3709.921 3822.477 5278.919 3971.238 2753.114 4497.699 3995.208 4370.756 3238.016 4415.639 3174.214 4927.709 3770.043 3894.952 3213.118 3958.869 0.000 3403.705 3419.890 4227.042 4827.207 4985.464 4559.000 3629.994 3697.276 4329.851 4735.070 4573.218 4746.496 3361.807 3191.954 2958.972 3743.713 2894.273 3046.936 5025.130 4293.698 4241.961 4243.021 4751.211 1361.273 3678.270 3821.299 4694.662 3477.765 4855.209 5079.991 3875.645 4173.925 2904.011 4819.748 3467.601 4023.228 4676.038 3533.039 3037.506 3784.741 4530.434 2519.663 3206.337 4759.083 4697.042 3952.463 3359.561 4694.945 3508.662 4039.709 3872.469 3571.374 4616.832 4189.572 4184.384 4953.520 3736.186 3530.763 3469.599 4838.055 3878.938 1412.635 3560.138 4767.350 4832.408
1370.562 2480.277 2025.344 1356.213 1423.195 1250.469 1602.728 1148.654 1235.796 1312.639 1280.274 1689.446 1345.318 1705.409 1904.305 1136.160 1119.059 751.862 782.950 967.706 2180.172 1413.114 1402.520 1402.404 1241.189 947.703 1229.731 1920.904 1293.347 1761.782 1514.571 1740.249 1193.465 2531.177 768.403 1944.046 1140.721 1341.386 1360.181 3168.604 1317.895 1030.333 1005.245 1169.566 1074.119 2369.121 1828.446 1132.944 1045.869 1438.981 1460.510 879.772 1500.977 1145.430 1311.306 2382.070 1061.609 1837.571 1637.105 2148.002 1286.122 1936.514 1930.369 1814.108 989.794 2140.429 2724.760 867.568 1408.579 2384.576 673.460 1851.276 2430.778 1276.701 2135.198 2182.572 2270.543 2368.713 1802.765 1707.372 2302.398 2706.551 1533.201 1932.855 1202.005 790.398 1802.517 1917.340 2186.892 2315.659 1121.699 2646.668 1761.384 1300.104 1000.957 2340.733 1197.378 2094.296 2580.501 2581.476 2035.986 1874.838 1473.699 2672.944 927.141 2010.985 1503.643 1295.315 2793.626 1426.663 861.014 2159.265 1521.010 2164.479 1019.772 2089.091 706.148 2715.919 1354.131 1430.187 731.407 3015.673 3401.998 0.000 1183.356 2020.764 2654.591 2754.969 2322.466 1457.378 1371.302 2157.235 2523.279 2246.267 2404.808 635.819 1033.465 794.470 855.632 754.295 869.005 2818.853 1808.406 1874.040 2036.743 2544.933 2754.043 1160.319 1584.765 2367.711 1149.774 2369.916 2873.714 1639.111 1584.377 649.421 2613.470 1114.466 1316.308 2469.760 808.215 602.984 1583.384 2324.156 1174.003 1300.541 2552.806 2524.426 1746.185 1186.945 2367.994 1104.978 1232.392 1635.936 1398.758 2410.554 1863.024 1978.106 2747.242 1499.652 1311.029 1096.975 2631.777 1086.361 2563.918 1323.604 2561.072 2626.130
649.747 1367.973 1278.546 353.962 514.550 548.025 669.578 569.965 480.777 452.430 623.618 608.520 264.433 1478.847 1014.476 315.163 253.597 1151.147 588.913 366.592 1067.868 408.094 287.264 341.934 749.818 298.576 220.073 808.599 602.251 860.285 755.483 838.753 313.474 1560.558 754.473 929.821 213.850 323.574 1152.470 2226.726 1320.555 381.077 286.570 299.845 321.240 1256.817 886.081 555.159 426.230 433.461 392.863 705.448 1030.908 215.632 483.483 1269.765 289.668 1611.009 1114.811 1403.651 816.743 840.356 818.065 951.669 565.105 1268.435 1612.455 1157.938 1476.615 1272.272 905.901 979.282 1558.784 795.803 3212.682 1070.268 1526.192 1323.831 690.460 1282.476 1479.795 1594.247 729.126 820.551 855.164 1765.029 690.213 1027.511 1775.515 1571.308 555.528 1534.364 1058.940 189.829 479.499 1228.429 908.429 981.991 1468.197 1469.172 923.682 922.251 523.625 1560.640 775.125 898.681 386.967 810.010 2111.178 1155.127 972.107 1304.684 1616.559 1052.174 418.658 1251.760 629.192 1609.127 740.762 865.672 720.612 2490.375 3553.509 1258.825 0.000 908.460 1842.811 1666.882 1273.213 465.020 611.237 1345.454 1416.488 1422.095 1628.326 914.574 368.298 591.189 1195.445 1282.900 606.061 1706.548 1223.334 1171.596 924.439 1432.629 2792.959 679.080 485.779 1560.810 391.727 1784.844 1761.409 540.125 1357.815 1031.476 1501.166 428.253 1318.969 1357.456 991.947 803.045 458.008 1211.852 1222.559 770.226 1440.501 1712.645 633.881 495.849 1533.603 489.883 1223.598 683.349 596.667 1298.250 1034.668 865.802 1634.938 408.060 179.908 519.190 1519.473 1346.291 2602.834 272.577 1448.768 1513.826
1098.626 974.629 1620.277 808.621 909.169 1064.150 1013.499 1267.613 977.084 894.871 1155.801 678.860 755.189 2052.813 1271.703 1048.994 959.587 1960.681 1365.029 1169.166 601.608 787.770 742.834 719.998 1315.616 1101.149 871.184 405.125 1230.391 561.166 1117.110 516.175 912.338 1417.533 1564.006 794.397 945.685 776.566 1943.867 1409.262 1897.467 1085.746 1077.679 1033.676 1095.531 790.557 898.572 1158.751 1194.109 930.116 752.275 1514.807 1587.883 947.467 936.382 980.032 1092.242 2184.975 1680.609 1745.382 1382.541 704.931 663.561 1295.590 1374.638 1612.356 1250.575 1949.335 2053.527 1133.864 1715.434 1323.203 1516.033 1490.956 4015.256 931.860 1867.923 427.620 594.398 1848.274 1823.716 1413.188 651.516 353.077 1458.146 2574.562 448.091 1289.350 2241.413 1913.039 1158.687 1141.020 1430.629 840.456 1282.073 1090.021 1590.620 222.395 1074.853 1272.370 392.559 953.983 889.893 1393.105 1584.659 760.273 645.584 1375.808 2455.099 1732.039 1765.342 1648.605 2193.471 897.714 1210.363 1595.681 1431.766 1403.437 1306.560 1431.470 1523.186 2151.147 4346.743 2061.399 918.192 0.000 1503.583 1477.689 1134.805 948.513 1005.646 1006.226 1278.080 1766.016 1972.247 1717.148 1135.512 1349.483 2004.978 2085.474 1408.635 1313.205 1689.232 1618.363 769.979 1039.286 3586.194 1244.878 774.945 1904.730 987.793 2177.049 1418.146 727.954 1934.727 1808.008 1139.286 1026.585 1895.881 1219.048 1801.480 1579.576 531.440 860.803 2013.955 1465.379 1047.158 1373.417 384.727 1125.090 1877.524 1088.216 1800.510 897.019 812.399 960.413 1378.589 711.298 1438.136 774.328 780.885 1208.158 1126.129 1922.507 3396.069 787.180 1251.965 1151.946
2153.222 2401.802 2770.716 1821.488 1991.761 2098.919 2137.149 1836.235 2011.854 1929.640 2187.777 2071.713 1756.970 3051.174 2482.047 1693.253 1932.819 2701.940 1933.651 1970.701 2028.781 1852.836 1726.468 1800.175 2313.977 2026.649 1844.061 1832.871 1799.013 1206.555 2258.833 1161.740 1878.165 2844.706 2305.265 2222.143 1897.412 1789.434 2532.072 1882.742 2895.828 2053.600 2029.406 1782.245 1853.551 2217.730 2326.318 2124.578 1952.129 1498.739 1858.281 2416.634 2595.067 1899.193 1971.152 2407.205 2017.741 3183.336 2678.969 2895.820 2380.902 2132.677 2091.306 2419.241 2301.890 2736.007 2677.748 2537.540 3051.888 2561.609 2456.694 2446.854 2943.779 2059.578 4624.518 2359.605 3009.096 1524.837 1690.352 2846.634 2947.366 2840.361 1220.138 1780.823 2456.507 3252.967 1875.837 2495.082 3311.701 3063.477 2124.513 2568.194 2581.067 1787.569 2199.156 2517.767 2588.981 1650.141 2502.026 2699.543 1820.304 2381.729 1991.196 2820.278 2464.003 2188.018 1698.506 2374.169 3578.750 2730.400 2353.547 2772.256 3191.831 2324.888 1968.383 2719.331 2217.563 2830.610 2304.921 2429.831 2242.822 1386.837 4932.637 2670.661 1865.306 1564.542 0.000 2904.862 2562.551 1517.135 2095.662 763.858 2705.825 2889.667 3095.898 2371.508 1923.897 1918.105 2753.414 2694.736 2005.869 2740.378 2759.519 2707.782 2197.152 2466.459 3855.550 2243.239 1953.350 3028.381 1955.885 3300.699 2845.319 2007.697 2933.088 2376.630 2566.459 1992.411 2894.241 2646.794 2542.739 2148.198 1838.241 2287.977 2602.161 2034.001 2474.331 297.182 1773.520 1693.712 3001.175 2054.042 2798.871 2150.921 1381.021 2387.587 2502.239 2139.043 2865.309 1875.631 1727.998 2173.985 2553.303 2920.867 3665.426 1799.407 2679.139 2579.119
1603.084 1074.067 805.068 1598.832 1518.712 1641.307 1264.276 2133.779 1609.510 1604.254 1651.346 1245.776 1571.476 2061.915 1349.660 1880.929 1769.188 2425.149 2205.884 2001.101 1055.043 1537.829 1559.121 1507.263 1669.522 1933.084 1687.471 1412.780 2166.065 1928.538 1305.212 1883.547 1713.311 318.985 2028.474 944.711 1758.687 1584.006 2775.802 2846.321 2363.015 1815.884 1889.700 1865.611 1927.466 1123.700 1068.400 1758.160 2026.044 1974.694 1509.289 1947.829 1644.077 1760.469 1597.831 753.116 1924.177 2172.126 1691.603 925.769 1731.042 1042.645 1024.990 1165.155 1991.248 682.867 801.353 2781.270 2519.075 530.945 2179.903 1282.470 438.639 2359.617 4769.291 794.943 985.013 1931.714 1607.951 1859.268 935.237 118.320 1977.152 1457.277 1880.971 3039.030 1247.737 1362.695 1947.468 1054.989 1773.397 1076.472 1159.810 1672.391 2096.023 710.340 2074.410 1589.693 1151.240 481.449 1527.863 1067.544 1499.436 183.136 2123.700 916.232 1477.519 1863.319 1580.510 1987.375 2597.277 760.126 2659.019 984.250 2042.298 1079.229 2158.756 194.696 1540.001 1555.353 2190.946 3518.519 5178.678 2815.434 1750.127 1504.094 2870.955 0.000 605.681 2006.254 1454.266 2373.598 434.203 877.537 1046.442 2218.736 1967.447 2190.338 2465.404 2867.422 2240.570 1412.643 1513.564 1156.281 1045.704 1089.201 4418.129 1688.662 1364.928 978.925 1701.754 1251.243 630.779 1317.937 1987.917 2634.229 667.969 1753.904 2361.429 529.729 2265.948 2420.989 1363.375 894.940 2845.891 2334.040 1100.803 2740.789 1364.690 2059.663 989.045 1815.535 2266.058 1245.958 2024.627 726.503 973.158 946.325 552.852 1484.345 1612.820 1808.566 1055.473 2410.017 4228.004 1603.467 461.044 702.805
1200.512 900.927 889.309 1091.174 1011.054 1247.682 869.655 1715.080 1195.093 1096.596 1292.325 827.077 1137.958 2146.156 918.099 1462.230 1261.530 2188.643 1731.923 1512.740 762.060 1040.814 1139.968 1088.564 1452.742 1444.723 1206.525 994.081 1747.366 1652.259 998.378 1607.268 1205.653 428.996 1791.968 526.012 1251.029 1076.348 2295.481 2521.645 2091.190 1363.933 1384.218 1446.911 1508.767 962.456 535.424 1383.765 1607.344 1555.995 1085.617 1711.323 1724.407 1252.811 1145.880 556.731 1443.514 2256.367 1775.843 1010.010 1521.832 623.946 613.506 988.369 1640.168 767.108 790.306 2300.949 2247.249 344.909 1943.396 1114.637 522.879 1940.918 4355.692 382.441 1069.254 1607.038 1189.252 1943.508 1019.477 580.103 1558.453 1038.578 1651.868 2802.524 831.894 931.101 2031.709 1139.230 1399.002 966.840 1204.018 1252.576 1622.509 414.546 1784.342 1252.950 1000.432 568.901 1109.164 521.835 991.778 564.727 1850.188 504.748 1058.820 1569.531 1664.750 1922.147 2115.118 844.367 2387.193 572.766 1564.806 1163.470 1744.339 521.973 1450.337 1536.449 1842.750 3242.240 4696.519 2401.835 1331.428 1179.418 2594.676 596.224 0.000 1587.554 1003.443 2097.320 284.926 961.778 1130.683 1982.230 1548.748 1743.443 2228.898 2425.910 1749.072 1239.503 1597.805 1240.522 634.220 904.457 3935.970 1438.600 946.229 1063.166 1255.438 1335.484 861.138 899.238 2072.158 2174.487 670.070 1301.953 2089.603 457.185 2029.442 1946.055 944.676 624.598 2365.569 1915.341 916.059 2464.511 945.991 1640.964 1073.286 1363.584 1994.232 738.300 1605.928 580.130 1057.399 527.626 734.667 1042.434 1194.121 1434.171 940.607 2116.229 3745.845 1169.949 548.496 691.677
1005.547 1671.577 1634.346 709.762 870.350 903.825 1033.758 656.458 836.577 808.229 979.418 972.700 620.233 1821.960 1378.656 513.476 622.536 1494.260 753.875 697.299 1371.472 764.006 651.444 706.114 1105.618 632.977 589.013 1112.203 593.829 669.836 1111.283 648.303 669.805 1864.162 1097.586 1233.425 582.790 679.374 1352.296 2076.657 1663.669 750.017 634.418 508.671 580.149 1560.421 1250.261 889.664 678.727 101.709 757.043 1048.561 1386.707 584.572 839.283 1573.370 624.070 1954.122 1470.610 1759.450 1172.543 1143.960 1121.669 1315.849 908.218 1632.615 1916.059 1357.764 1819.728 1575.876 1249.014 1343.462 1922.964 879.802 3444.742 1373.872 1881.991 1276.767 994.064 1638.275 1843.975 1897.851 417.580 1124.155 1189.566 2073.191 993.817 1391.691 2131.315 1927.107 906.002 1837.968 1414.740 554.009 813.901 1532.033 1251.543 1091.429 1771.801 1772.776 1227.286 1286.431 887.805 1864.244 1118.239 1202.285 690.571 1165.810 2475.358 1498.241 1173.771 1668.864 1959.672 1355.778 694.981 1615.940 963.594 1912.731 1096.562 1221.472 1055.014 2210.209 3752.861 1490.885 482.048 1005.831 1562.645 1970.486 1576.817 0.000 967.036 1065.289 1720.092 1786.275 1992.506 1191.731 620.130 738.329 1538.558 1514.960 826.093 2010.152 1579.133 1527.396 1228.043 1736.233 2992.311 1034.879 849.959 1924.990 747.526 2140.643 2065.013 904.305 1700.928 1196.853 1804.770 784.052 1662.082 1661.060 1335.060 968.421 761.612 1515.456 1422.384 854.224 1744.105 1432.480 937.485 513.936 1897.783 845.683 1566.711 1047.529 306.812 1601.854 1398.848 1169.406 1938.542 772.240 544.088 853.695 1823.077 1689.404 2802.186 628.377 1752.372 1817.430
198.197 1301.834 826.996 297.876 185.269 245.367 317.290 1022.363 192.778 199.482 290.011 443.928 344.660 1203.534 662.188 769.513 382.769 1186.328 800.127 610.269 1046.418 276.967 346.670 328.431 450.428 536.080 399.853 903.834 1054.649 1037.182 303.933 1015.649 331.003 1306.896 789.654 635.277 444.357 283.050 1363.685 2345.922 1088.875 361.619 435.434 754.194 727.550 1246.813 519.677 381.451 787.580 848.568 321.770 709.009 722.092 433.317 143.566 1086.051 611.864 1335.697 831.330 952.100 519.518 703.317 834.860 599.382 637.853 916.147 1423.927 1369.153 1244.935 1083.744 941.082 626.995 1206.497 1248.201 3363.948 909.608 1074.642 1431.314 855.581 998.995 1091.760 1405.718 906.022 915.785 649.554 1800.210 742.748 675.223 1410.748 1119.757 396.688 1468.226 676.448 441.633 641.757 1039.901 782.028 1077.226 1402.059 1280.644 1018.916 566.069 181.609 1372.112 847.874 735.816 552.720 567.216 1758.891 919.833 1183.322 952.397 1384.878 898.081 662.335 878.050 742.025 1407.150 496.592 583.384 840.436 2667.271 3764.723 1410.091 537.313 1003.694 2019.707 1478.354 1013.697 880.128 0.000 1522.351 1214.510 1035.629 1208.907 979.916 815.417 811.647 1226.584 1434.166 817.276 1640.410 858.567 806.829 858.301 1366.491 3004.174 436.286 295.281 1157.073 253.124 1420.077 1572.881 349.627 1126.135 1200.973 1312.638 299.639 1087.288 1168.928 1027.128 1009.181 618.331 1145.713 1433.773 1222.623 1374.363 1889.542 754.561 948.247 1157.356 361.269 991.918 327.167 953.497 1114.535 651.983 732.266 1446.410 324.553 450.062 431.856 1453.335 1113.914 2814.049 372.208 1260.239 1325.298
1675.647 1924.228 2293.141 1343.914 1514.186 1621.345 1659.575 1358.660 1534.279 1452.066 1710.202 1594.139 1279.396 2573.599 2004.473 1215.678 1455.244 2224.365 1456.077 1493.126 1551.207 1375.261 1248.893 1322.600 1836.402 1549.074 1366.487 1355.296 1321.439 728.981 1781.259 684.165 1400.590 2367.131 1827.691 1744.568 1419.837 1311.859 2054.498 1192.877 2418.254 1576.025 1551.831 1304.671 1375.976 1740.155 1848.743 1647.003 1474.554 1021.164 1380.706 1939.059 2117.492 1421.619 1493.577 1929.630 1540.166 2705.761 2201.395 2418.246 1903.328 1655.102 1613.732 1941.666 1824.315 2258.432 2200.174 2059.966 2574.313 2084.035 1979.119 1969.279 2466.204 1582.004 4146.944 1882.030 2531.522 1078.635 1212.777 2369.060 2469.791 2362.786 742.563 1303.248 1978.932 2775.393 1398.262 2017.508 2834.126 2585.903 1646.938 2090.619 2103.492 1309.994 1721.582 2040.192 2111.406 1172.566 2024.452 2221.968 1342.730 1904.154 1513.621 2342.704 1986.428 1710.444 1220.931 1896.595 3101.175 2252.826 1875.973 2294.681 2714.257 1847.313 1490.808 2241.757 1739.988 2353.036 1827.346 1952.256 1765.247 1483.456 4455.062 2193.087 1387.731 1086.967 761.445 2427.287 2084.976 1039.560 1618.087 0.000 2228.251 2412.092 2618.323 1893.933 1446.322 1440.530 2275.839 2217.162 1528.295 2262.803 2281.945 2230.207 1719.577 1988.884 3694.513 1765.664 1475.776 2550.806 1478.311 2823.125 2367.744 1530.122 2455.513 1899.055 2088.884 1514.837 2416.667 2169.219 2065.165 1670.623 1360.667 1810.402 2124.586 1556.426 1996.756 576.853 1327.318 1216.138 2523.600 1576.467 2321.296 1673.346 903.447 1910.012 2024.665 1661.469 2387.734 1398.057 1250.423 1696.410 2075.728 2443.293 3504.388 1321.832 2201.564 2101.544
1432.843 953.329 634.826 1327.629 1247.509 1471.066 1094.034 1862.576 1431.548 1333.051 1481.105 974.573 1300.273 1891.674 1170.328 1609.726 1497.985 2254.908 1934.681 1729.898 904.903 1266.626 1287.918 1236.060 1499.280 1661.882 1416.268 1141.577 1894.862 1799.755 1134.970 1754.764 1442.108 174.514 1858.233 673.508 1487.484 1312.803 2504.599 2669.142 2192.774 1600.388 1620.673 1594.408 1656.263 1002.254 797.197 1587.919 1754.841 1703.491 1238.086 1777.588 1473.836 1489.266 1382.335 632.378 1652.974 2001.885 1521.361 755.528 1560.800 771.442 754.832 994.914 1821.007 512.625 772.754 2510.067 2348.834 327.357 2009.661 1112.229 268.397 2088.414 4575.988 524.785 814.772 1754.534 1336.748 1689.026 764.995 463.308 1705.949 1186.074 1710.730 2868.789 977.579 1187.975 1777.226 884.748 1603.156 1030.846 989.569 1401.188 1842.805 440.182 1904.169 1400.446 1053.553 512.723 1256.660 797.386 1228.233 447.931 1953.458 646.074 1206.316 1693.077 1410.268 1817.134 2326.074 589.885 2488.777 714.092 1771.095 908.987 1980.794 390.155 1369.760 1385.111 2020.705 3389.736 4907.475 2622.131 1478.925 1326.914 2742.172 437.884 346.833 1735.051 1239.898 2244.816 0.000 707.296 876.200 2048.495 1696.244 1919.135 2295.163 2646.206 1969.367 1291.905 1343.323 986.040 775.546 968.463 4146.926 1518.421 1093.725 808.683 1491.893 1081.002 804.961 1046.734 1817.676 2378.218 652.518 1538.408 2191.187 439.633 2095.707 2149.786 1092.172 767.441 2574.688 2062.837 980.065 2612.007 1093.487 1788.460 818.804 1600.039 2095.817 974.755 1753.424 605.765 802.917 675.122 678.489 1213.142 1341.617 1638.324 1004.613 2239.776 3956.801 1332.264 492.319 674.125
1038.437 1571.655 249.349 1170.955 1071.590 1060.471 793.941 1904.681 1045.839 1136.255 1101.427 1187.635 1217.739 1339.891 879.325 1649.879 1319.542 1880.715 1736.900 1547.042 1510.319 1120.595 1219.748 1189.409 1125.088 1472.853 1286.306 1596.956 1936.967 1910.261 724.375 1888.728 1267.776 597.355 1484.040 1099.178 1330.810 1156.129 2300.458 3095.512 1818.581 1293.279 1372.207 1634.561 1628.006 1621.288 983.578 1177.324 1724.353 1730.276 1165.398 1403.396 1099.643 1332.591 1080.339 1250.704 1523.295 1406.835 1147.169 287.871 1186.608 1202.620 1308.474 689.243 1433.727 321.780 1392.339 2305.926 1974.641 946.942 1635.469 799.753 496.956 2130.519 4224.857 1144.370 225.774 2180.905 1655.998 1314.834 118.115 939.467 1779.101 1641.452 1336.537 2494.596 1434.768 892.360 1182.177 303.528 1192.561 1649.172 597.233 1332.356 1578.530 1059.767 1529.976 1826.816 1671.879 1093.513 1712.038 1041.537 1067.930 1001.109 1579.266 1199.717 1392.300 1318.885 863.728 1442.942 2120.095 252.246 2022.194 1333.677 1599.108 606.748 1595.085 801.530 995.567 1010.919 1646.512 3540.350 4701.496 2271.000 1427.499 1753.285 2892.786 821.147 966.418 1761.836 936.773 2395.430 654.374 0.000 287.202 1674.302 1703.013 1748.420 1920.970 2303.751 1754.049 1910.231 969.130 593.704 1322.202 1586.789 3940.947 1144.229 1086.093 213.634 1138.083 485.952 1385.750 1095.702 1370.562 2070.558 1272.103 1211.328 1816.995 1059.218 1721.515 1901.674 1418.748 1387.026 2370.546 2104.941 1598.391 2762.621 1540.049 1830.564 183.711 1239.206 1721.624 970.142 1826.576 1224.091 490.441 1196.167 1259.279 1136.004 1300.844 1227.729 1622.938 1865.583 3750.822 1249.730 1073.109 1293.710
1265.553 1800.091 438.434 1399.391 1298.706 1287.587 1022.377 2133.117 1272.955 1363.371 1328.543 1416.071 1446.175 1286.306 1107.761 1878.315 1546.658 2107.160 1964.016 1774.158 1738.755 1349.031 1448.185 1417.846 1351.533 1699.968 1514.742 1825.392 2165.403 2138.697 951.491 2117.164 1494.891 825.791 1710.485 1327.614 1559.246 1384.565 2527.574 3323.948 1915.690 1520.395 1599.323 1862.997 1856.442 1849.724 1212.015 1404.440 1951.469 1958.713 1393.834 1629.841 1326.088 1561.028 1307.454 1479.140 1751.731 1353.249 1373.614 294.561 1413.053 1431.057 1536.911 916.358 1660.842 550.216 1620.776 2533.042 1960.495 1175.378 1861.914 1026.868 725.392 2358.955 4310.730 1372.806 173.380 2409.341 1884.434 1407.814 352.277 1167.903 2007.537 1869.888 1562.982 2721.042 1663.204 1120.796 1128.591 133.769 1419.677 1877.608 823.678 1560.793 1805.646 1288.203 1746.067 2055.253 1900.316 1321.949 1940.474 1269.973 1295.046 1229.545 1805.711 1428.153 1620.736 1545.330 810.142 1551.643 2347.211 480.682 1968.608 1562.113 1826.224 835.184 1822.201 1029.966 1222.012 1237.364 1872.957 3768.787 4928.612 2497.445 1655.936 1981.721 3121.222 1049.583 1194.855 1990.272 1163.889 2623.866 882.810 299.833 0.000 1900.747 1931.450 1975.535 2147.415 2530.866 1981.165 2138.667 1195.575 820.149 1550.638 1815.226 4168.062 1370.674 1314.529 178.431 1365.199 432.366 1614.186 1324.138 1316.976 2297.673 1500.539 1438.443 1914.104 1287.654 1947.960 2128.790 1647.185 1615.463 2597.662 2333.377 1826.827 2991.057 1768.486 2059.001 421.559 1466.321 1764.263 1198.578 2055.012 1452.528 717.556 1424.603 1487.715 1364.441 1529.280 1454.845 1851.375 2074.708 3977.938 1478.166 1301.545 1522.146
962.796 2190.478 1518.397 1058.760 1122.829 798.210 1277.217 878.100 876.444 1012.273 748.698 1394.118 1049.990 1222.631 1578.793 865.606 823.241 436.706 512.396 677.907 1890.373 1112.748 1107.192 1107.076 696.024 657.904 934.403 1631.104 1022.793 1491.228 1123.508 1469.695 897.647 2050.006 206.070 1597.143 850.922 1043.933 1089.627 2898.050 1064.339 733.975 715.446 899.011 795.187 2079.322 1481.544 667.540 775.315 1168.427 1165.182 334.607 955.812 855.631 987.579 2047.917 771.809 1354.793 1091.940 1602.837 740.957 1641.186 1640.570 1488.596 427.461 1751.105 2385.793 1040.132 1220.399 2045.610 110.005 1525.765 1949.607 1006.147 2595.530 1871.474 1725.378 2098.159 1512.965 1224.594 1799.519 2367.585 1262.647 1643.056 656.840 1050.588 1512.718 1591.829 1704.114 1770.494 762.308 2356.869 1271.131 1004.776 711.158 2001.767 652.213 1804.496 2290.702 2242.510 1746.187 1534.739 1173.332 2333.978 364.807 1697.682 1213.844 750.151 2248.461 898.912 909.264 1646.417 1360.343 1859.948 729.973 1763.579 362.906 2254.180 808.966 885.022 251.903 2745.119 3490.665 641.673 893.557 1730.965 2384.037 2273.798 1982.367 1186.824 1046.166 1886.681 2107.025 1743.388 1859.643 0.000 762.911 523.916 488.180 990.604 598.451 2529.053 1263.241 1383.786 1746.944 2255.134 2730.116 615.154 1289.437 1864.832 839.885 1824.751 2534.747 1331.047 1101.599 757.411 2274.504 818.108 1062.753 2130.794 277.506 544.478 1293.585 2034.357 1159.715 1029.986 2263.006 2253.872 1456.386 916.391 1865.115 745.626 967.382 1295.899 1128.204 2076.401 1537.512 1688.307 2408.276 1199.286 1021.229 683.980 2341.978 1086.504 2539.991 1028.276 2222.106 2287.164
852.439 1538.391 1481.237 556.654 717.242 750.717 872.269 468.735 683.469 655.121 818.868 811.212 467.125 1603.834 1217.167 196.716 442.070 1138.763 369.916 245.579 1238.287 610.786 489.956 544.625 945.068 315.377 408.547 979.018 498.052 966.487 958.175 944.954 501.948 1730.977 742.089 1100.240 397.263 526.266 939.834 2373.309 1445.542 550.418 424.668 179.891 128.429 1427.236 1088.772 671.538 196.716 512.703 595.555 830.434 1226.157 404.106 686.175 1440.184 354.170 1735.996 1310.060 1606.342 990.051 1010.774 988.484 1154.361 690.092 1471.127 1782.874 945.302 1601.602 1442.691 893.517 1181.974 1761.476 665.186 3061.341 1240.686 1728.883 1494.250 860.879 1477.725 1682.486 1764.666 737.906 990.969 971.439 1689.791 860.632 1230.202 1978.207 1773.999 687.876 1704.783 1261.632 392.520 474.034 1398.848 1033.416 1152.410 1638.616 1639.591 1094.101 1124.943 726.316 1731.059 809.275 1069.100 561.758 1004.728 2313.870 1280.114 761.309 1507.376 1741.545 1222.593 243.261 1454.451 578.910 1779.546 936.012 1060.922 670.331 2506.860 3342.711 1107.484 301.375 1078.879 1859.296 1837.301 1443.632 544.262 813.928 1361.940 1586.907 1624.787 1831.018 808.331 0.000 354.370 1190.237 1131.559 443.088 1876.967 1426.025 1374.288 1094.858 1603.048 2582.161 844.239 688.470 1763.501 594.418 1987.535 1931.828 742.817 1482.802 813.453 1671.585 623.478 1443.955 1527.875 979.563 585.021 636.578 1382.270 1009.923 639.609 1610.920 1729.131 804.300 391.650 1736.295 685.109 1348.585 886.041 603.463 1468.669 1237.359 1036.221 1805.357 610.751 382.600 635.569 1689.892 1471.278 2392.036 475.269 1619.187 1684.245
939.293 1842.463 1568.092 814.837 863.236 821.897 1066.100 463.052 770.323 752.680 856.406 1115.284 771.197 1504.299 1410.998 450.740 569.640 901.581 49.536 340.932 1542.359 853.155 794.028 842.445 977.692 387.744 669.772 1283.090 607.928 1076.362 1045.029 1054.830 645.473 2035.049 504.907 1384.087 580.762 798.792 686.755 2483.184 1346.007 587.499 445.286 483.963 387.058 1731.308 1268.487 709.076 358.808 753.562 899.627 616.275 1237.480 585.472 766.843 1744.256 501.650 1636.461 1347.598 1693.197 1022.625 1314.846 1292.555 1344.164 699.196 1664.957 2086.946 692.223 1502.067 1746.763 656.335 1375.805 1955.307 603.275 2799.003 1544.758 1815.738 1683.294 1164.951 1506.262 1832.856 2068.737 847.782 1295.041 938.508 1427.453 1164.704 1424.033 1985.782 1860.854 723.953 2008.855 1332.812 696.592 459.518 1702.920 933.881 1456.482 1942.687 1943.663 1398.173 1314.879 913.740 2035.131 663.644 1373.171 865.830 1031.818 2482.426 1180.579 506.393 1701.206 1642.011 1526.665 392.998 1619.146 350.261 2083.618 973.550 1098.460 402.179 2342.247 3087.794 845.146 605.447 1382.951 1969.172 2141.373 1747.704 771.958 900.783 1471.815 1890.978 1776.725 1950.003 571.149 347.863 0.000 953.055 861.649 144.225 2181.039 1497.206 1445.468 1398.930 1907.120 2327.244 881.777 992.542 1898.170 681.273 2058.716 2235.900 1046.888 1383.267 540.995 1975.657 671.108 1344.421 1831.947 742.381 312.564 940.650 1686.342 756.844 614.938 1914.992 1839.006 1108.372 501.526 1898.452 707.233 1249.050 1075.977 713.338 1772.741 1393.079 1340.292 2109.429 914.823 686.672 673.107 1993.964 1371.743 2137.119 763.645 1923.259 1988.317
1193.850 2472.897 1749.452 1291.309 1357.612 1029.264 1508.271 1262.277 1111.227 1247.056 979.752 1625.172 1281.045 1121.496 1809.848 1249.783 1054.295 109.637 896.573 978.487 2172.792 1347.531 1338.246 1338.130 927.078 940.323 1165.457 1913.523 1406.970 1875.404 1354.563 1853.872 1128.701 2281.060 437.124 1828.198 1118.957 1276.483 1473.804 3282.226 733.982 965.029 986.560 1234.961 1095.768 2361.741 1712.598 898.595 1155.798 1491.287 1396.237 552.274 976.900 1104.843 1222.362 2278.971 1054.228 1253.659 1165.872 1833.891 898.533 1872.240 1922.989 1719.651 658.515 1982.160 2616.848 1386.691 890.042 2276.664 365.948 1756.819 2180.661 1390.324 2532.728 2102.528 1956.433 2428.755 1795.384 1123.459 2030.573 2598.639 1646.824 1925.475 762.773 743.223 1795.137 1822.883 1602.979 2001.548 993.362 2639.288 1502.185 1235.830 990.533 2232.821 659.386 2086.915 2573.121 2473.564 2028.606 1765.793 1408.116 2565.032 595.861 1928.737 1496.263 811.460 2432.155 842.751 1293.441 1877.471 1029.985 2091.002 1030.553 1994.634 747.083 2485.235 1040.020 1033.506 636.080 3129.296 3799.528 745.983 1175.577 2013.384 2768.214 2504.852 2213.422 1522.846 1277.221 2270.858 2338.079 1974.442 2090.698 473.206 1147.088 908.093 0.000 1273.418 982.627 2811.472 1494.295 1614.841 2029.363 2537.553 3114.293 846.208 1520.491 2095.886 1073.680 1960.112 2765.802 1562.101 1000.464 1141.588 2505.558 1049.162 732.395 2361.848 239.455 928.655 1574.227 2316.776 1543.892 1414.163 2545.425 2638.049 1738.805 1300.568 2096.169 980.409 648.479 1526.953 1512.380 2307.456 1768.567 1925.186 2639.330 1434.069 1293.704 915.035 2624.397 692.343 2924.168 1259.331 2453.160 2518.218
1444.070 2553.785 2098.853 1429.721 1496.704 1323.978 1676.237 1191.792 1309.305 1386.148 1353.782 1762.954 1418.827 1899.125 1977.813 1209.668 1192.568 1296.407 856.459 1041.215 2253.681 1486.623 1476.028 1475.912 1372.518 1021.211 1303.240 1994.412 1366.856 1835.290 1588.079 1813.758 1266.974 2604.686 899.733 2017.555 1214.229 1414.895 815.447 3242.112 1740.834 1103.842 1078.754 1243.074 1147.627 2442.630 1901.955 1206.452 1119.377 1512.490 1534.019 1011.101 1632.306 1218.939 1384.814 2455.578 1135.117 2031.287 1768.434 2223.635 1417.451 2010.022 2003.878 1887.616 1121.123 2213.937 2798.268 256.483 1896.893 2458.085 1051.161 1924.784 2504.286 958.265 2375.772 2256.080 2346.177 2442.222 1876.273 1901.088 2375.907 2780.059 1606.710 2006.363 1333.334 1080.076 1876.026 1990.849 2380.608 2391.292 1195.207 2720.177 1834.893 1373.612 1074.466 2414.242 1328.708 2167.804 2654.010 2654.985 2109.495 1948.346 1547.207 2746.453 1058.470 2084.494 1577.152 1426.645 2924.956 1575.406 756.693 2232.774 2036.837 2237.987 1093.281 2162.599 779.657 2789.428 1470.926 1561.516 804.916 2510.164 2991.445 741.983 1256.865 2094.273 2728.100 2828.477 2395.975 1530.886 1444.811 2230.743 2596.788 2319.776 2480.442 965.975 1106.974 867.979 1347.881 0.000 942.513 2892.361 1939.735 1947.549 2110.252 2618.442 2142.958 1291.648 1658.273 2441.220 1223.283 2501.245 2947.222 1712.620 1778.093 539.125 2686.979 1187.975 1739.247 2543.269 1137.207 676.493 1656.893 2397.664 562.919 1041.303 2626.314 2597.935 1819.694 1260.454 2441.502 1178.487 1643.876 1709.444 1472.266 2484.063 1936.532 2051.615 2820.751 1573.161 1384.537 1170.483 2705.286 1636.870 1952.834 1397.113 2634.581 2699.639
918.785 1830.098 1547.583 779.751 842.728 801.389 1045.592 472.288 749.815 732.171 835.897 1094.402 750.274 1516.821 1390.490 458.044 534.555 914.103 98.391 286.278 1529.993 832.647 781.662 807.360 962.097 353.000 634.687 1270.725 615.232 1083.666 1024.521 1062.133 610.388 2022.683 517.428 1363.579 545.677 763.707 724.708 2490.488 1358.529 566.991 424.777 471.598 332.404 1718.942 1247.979 688.567 304.155 760.866 865.466 628.797 1243.187 550.386 746.334 1731.891 466.564 1648.983 1327.090 1672.688 1007.080 1302.481 1280.190 1323.655 678.688 1644.449 2074.581 730.176 1514.589 1734.397 668.857 1355.296 1934.798 641.228 2814.275 1532.393 1795.229 1690.598 1152.586 1494.755 1812.348 2056.372 855.086 1282.676 951.030 1442.724 1152.338 1403.525 1998.304 1840.345 703.445 1996.489 1312.304 684.227 439.010 1690.554 946.403 1444.117 1930.322 1931.297 1385.807 1294.370 893.231 2022.765 664.928 1360.806 853.464 1021.758 2461.917 1193.101 544.345 1680.698 1654.532 1514.300 338.344 1598.638 329.752 2071.252 953.041 1077.951 381.671 2380.200 3125.746 860.418 588.312 1370.585 1976.476 2129.008 1735.339 779.262 880.274 1479.119 1878.613 1756.217 1929.494 583.671 357.099 94.064 965.577 876.921 0.000 2168.674 1476.697 1424.960 1386.564 1894.754 2365.196 861.269 980.177 1877.661 660.764 2038.207 2223.534 1034.523 1395.789 556.267 1963.291 650.599 1356.942 1819.581 754.902 327.835 928.284 1673.977 794.796 624.174 1902.627 1846.310 1096.006 508.829 1877.943 686.724 1261.572 1055.468 720.642 1760.375 1372.571 1327.927 2097.063 902.458 674.306 652.598 1981.598 1384.265 2175.072 728.560 1910.893 1975.951
1827.648 429.312 1902.175 1642.460 1638.191 1874.818 1512.736 2135.683 1810.923 1721.765 1919.462 1301.870 1589.028 2790.280 1576.954 1882.833 1793.426 2794.519 2207.788 2003.005 856.644 1593.923 1576.672 1553.836 2079.879 1934.988 1705.023 1413.558 2167.969 1730.139 1641.459 1685.148 1746.177 1349.449 2397.845 1099.648 1779.524 1610.405 2777.706 2647.922 2718.326 1919.585 1911.518 1867.514 1929.370 925.301 1203.823 1992.590 2027.947 1976.598 1565.383 2338.459 2351.543 1781.305 1770.221 826.689 1926.081 2922.443 2419.968 2022.876 2148.969 1166.921 1027.635 1622.763 2208.477 1779.974 728.174 2783.174 2874.386 1104.639 2549.273 1749.031 1535.746 2361.521 4849.094 970.702 2082.120 1733.315 1609.855 2587.633 2032.344 1345.104 1820.489 1460.250 2279.004 3408.401 1247.678 1594.601 2794.111 2152.096 1992.526 452.600 1838.413 1674.295 2115.911 1058.692 2411.478 1391.294 406.785 1175.193 1467.509 1259.234 1618.914 1294.563 2418.498 1001.873 1479.423 2196.667 2677.617 2549.284 2599.181 1857.233 3014.329 864.948 2044.202 2010.292 2265.604 1335.353 2093.418 2179.530 2357.025 3320.120 5180.582 2895.237 1752.031 1305.695 2672.556 1400.988 1197.828 2008.157 1646.524 2175.199 1297.792 1974.644 2143.549 2550.987 1969.351 2192.242 2838.817 2919.313 2242.474 0.000 2241.929 2026.147 845.777 419.216 4420.032 2065.736 1421.022 2076.032 1821.631 2348.350 876.646 1374.031 2716.282 2651.324 932.531 1860.424 2716.739 1131.565 2635.319 2422.893 1365.279 615.800 2847.794 2335.943 446.255 2542.390 1385.185 2061.567 2086.152 1922.055 2621.369 1381.381 1981.372 814.256 1789.192 1011.991 1081.635 1540.440 1614.723 2041.997 486.916 2743.365 4229.908 1621.019 1130.748 902.602
791.210 1880.593 807.573 1117.166 1001.723 773.490 907.521 1727.370 841.288 1018.772 715.866 1165.097 1124.433 1174.872 1004.078 1474.520 1088.725 1489.669 1493.119 1303.261 1625.177 1093.422 1165.960 1144.984 734.041 1229.072 1106.099 1626.105 1759.656 1822.369 733.903 1800.836 1036.010 1339.182 1092.994 1214.036 1150.603 1102.340 2056.677 3072.974 1492.245 1015.770 1120.645 1459.201 1420.542 1825.572 1098.436 829.306 1480.573 1553.575 1138.225 1012.349 820.140 1139.273 978.644 1664.810 1290.278 1241.816 875.029 892.013 795.561 1308.394 1423.332 912.842 1055.768 1040.281 2002.686 2043.695 1648.305 1662.503 1244.422 950.010 1238.783 1953.208 3833.811 1488.367 1014.554 2158.366 1611.573 1002.900 1088.695 1681.294 1691.210 1642.837 988.239 2103.550 1463.917 1017.113 1017.158 1059.670 935.750 2046.985 691.274 1146.640 1322.870 1618.660 1157.235 1804.278 1980.818 1835.340 1741.187 1156.395 998.063 1742.936 1188.219 1314.575 1347.875 970.586 1450.197 1170.802 1876.314 935.593 1788.248 1476.840 1355.328 1187.825 1349.277 1543.356 604.521 662.620 1255.466 3452.459 4457.715 1879.954 1242.320 1730.747 2804.895 1562.974 1602.111 1585.135 863.158 2307.538 1396.201 1032.564 1148.819 1283.256 1508.409 1504.639 1529.924 1994.167 1510.268 2219.169 0.000 803.930 1437.060 1945.250 3697.166 753.182 1066.696 1154.008 906.324 1026.486 2127.577 1073.164 1150.141 1760.974 1891.397 981.604 1490.658 1747.687 1330.468 1548.041 1374.323 1724.472 2126.765 1927.630 1953.122 2674.729 1510.553 1653.254 1154.290 982.395 1395.288 1038.015 1738.685 1693.294 961.758 1311.025 2001.106 1091.579 1155.069 879.711 2032.094 1517.284 3507.041 1098.993 1814.935 1904.057
750.737 1655.829 340.144 1060.001 932.763 833.101 682.987 1734.875 800.815 978.299 775.477 1074.043 1106.785 1186.046 769.418 1482.025 1096.230 1549.280 1513.588 1323.730 1400.412 1009.641 1108.795 1078.456 793.652 1249.541 1113.604 1478.195 1767.161 1799.307 589.263 1777.774 1043.514 898.157 1152.605 989.271 1158.108 1045.175 2077.146 2981.920 1487.146 1056.463 1156.983 1466.706 1441.011 1600.808 873.672 888.917 1501.041 1561.080 1054.444 1071.960 768.207 1146.778 938.172 1440.045 1325.325 1318.208 815.733 464.927 855.172 1083.860 1198.568 549.923 1115.378 578.754 1693.141 2082.614 1643.206 1247.744 1304.033 660.433 797.758 1960.713 3893.422 1263.602 587.468 2067.312 1545.044 983.398 617.480 1240.269 1668.147 1522.692 1005.102 2163.161 1316.008 782.453 1189.877 632.584 972.504 1822.220 307.463 1154.144 1359.624 1360.569 1198.541 1713.224 1756.053 1394.315 1593.278 931.630 929.103 1301.911 1247.830 1089.810 1281.346 987.449 1332.887 1111.506 1896.783 474.066 1783.149 1252.075 1375.796 537.811 1349.613 1102.332 664.132 679.483 1315.077 3429.397 4478.184 1939.565 1249.825 1639.692 2781.832 1121.949 1267.220 1592.639 797.946 2284.476 955.176 561.349 721.733 1342.867 1528.878 1525.108 1589.535 2053.778 1530.737 1994.404 637.695 0.000 1212.295 1720.485 3717.635 812.793 975.139 682.794 893.060 955.112 1686.552 982.110 1112.048 1820.585 1572.905 965.856 1485.559 1360.020 1390.079 1607.651 1307.795 1499.708 2147.234 1935.135 1728.357 2651.667 1426.457 1660.758 683.076 1019.148 1390.189 859.188 1715.622 1468.529 384.834 1086.260 1560.081 1025.051 1162.574 939.322 1807.329 1534.148 3527.510 1098.996 1373.911 1594.512
1040.361 443.534 1240.774 855.173 850.904 1087.531 725.449 1348.396 1023.636 934.478 1132.174 514.583 801.741 2002.993 789.666 1095.545 1006.139 2007.232 1420.501 1215.718 188.117 806.636 789.385 766.549 1292.592 1147.701 917.736 626.270 1380.682 1194.483 854.172 1149.492 958.890 900.093 1610.558 312.361 992.236 823.118 1990.419 2112.267 1931.039 1132.298 1124.231 1080.227 1142.082 388.513 416.535 1205.303 1240.660 1189.310 778.096 1551.172 1564.256 994.018 982.934 345.327 1138.793 2135.156 1632.681 1365.879 1361.681 379.633 240.348 835.476 1421.190 1238.205 738.984 1995.887 2087.098 593.497 1761.986 961.744 993.977 1574.234 4061.807 313.003 1488.420 1197.659 822.568 1800.346 1462.256 934.823 1191.769 672.963 1491.717 2621.114 460.391 807.314 2006.824 1533.536 1205.238 609.925 1051.125 887.007 1328.624 560.208 1624.191 855.638 543.758 794.005 741.353 471.946 831.627 908.956 1631.210 214.586 692.136 1409.380 2093.640 1761.996 1811.894 1287.146 2227.042 127.735 1256.914 1223.005 1478.317 925.073 1306.130 1392.243 1569.738 2784.464 4393.295 2107.950 964.744 770.039 2136.900 999.324 598.181 1220.870 859.237 1639.544 756.023 1404.557 1601.780 1763.699 1182.063 1404.954 2051.530 2132.025 1455.187 782.110 1454.642 1238.860 0.000 508.190 3632.745 1278.449 633.735 1534.263 1034.344 1806.581 906.555 586.744 1928.995 1864.037 627.695 1073.137 1929.452 705.773 1848.032 1635.605 577.992 287.413 2060.507 1548.656 516.062 2006.735 597.898 1274.279 1516.065 1134.767 1834.081 594.094 1239.243 373.811 1001.905 224.704 927.052 753.152 827.436 1254.710 595.034 1956.078 3442.621 833.732 773.601 640.355
1577.242 89.771 1611.510 1392.054 1387.785 1624.412 1262.330 1885.277 1560.517 1471.359 1669.056 1051.464 1338.622 2539.874 1326.548 1632.427 1543.020 2544.113 1957.382 1752.599 606.238 1343.517 1326.266 1303.430 1829.473 1684.582 1454.617 1163.152 1917.563 1479.733 1391.053 1434.742 1495.771 1058.784 2147.439 849.242 1529.118 1359.999 2527.300 2397.516 2467.920 1669.179 1661.112 1617.108 1678.964 674.895 953.417 1742.184 1777.541 1726.192 1314.977 2088.053 2101.137 1530.899 1519.815 507.278 1675.675 2672.037 2169.562 1732.211 1898.563 916.515 777.229 1372.357 1958.071 1489.309 420.839 2532.768 2623.980 795.200 2298.867 1498.625 1245.081 2111.115 4598.688 651.292 1791.456 1482.909 1359.449 2337.227 1741.679 1054.439 1570.083 1209.844 2028.598 3157.995 997.272 1344.195 2543.705 1861.432 1742.120 143.128 1588.007 1423.889 1865.505 768.027 2161.072 1140.888 95.975 865.754 1217.104 957.868 1368.508 987.228 2168.092 751.467 1229.017 1946.261 2386.952 2298.878 2348.775 1566.569 2763.923 614.542 1793.796 1759.886 2015.199 1044.689 1843.012 1929.124 2106.619 3069.714 4930.176 2644.831 1501.625 1055.289 2422.150 1093.652 878.418 1757.751 1396.118 1924.793 1007.127 1683.980 1852.884 2300.581 1718.945 1941.836 2588.411 2668.907 1992.068 421.949 1991.523 1775.741 595.371 0.000 4169.627 1815.330 1170.616 1785.367 1571.225 2057.685 569.310 1123.625 2465.876 2400.918 625.196 1610.018 2466.333 822.126 2384.913 2172.487 1114.873 296.390 2597.388 2085.537 29.940 2291.984 1134.779 1811.161 1795.488 1671.649 2370.963 1130.975 1730.966 494.846 1538.786 761.585 774.300 1290.034 1364.317 1791.591 116.895 2492.959 3979.502 1370.613 821.309 595.267
3129.222 4079.990 3758.021 3004.765 3053.165 3011.826 3256.029 2608.596 2960.252 2942.609 3046.334 3319.415 2975.288 3688.393 3600.927 2702.212 2759.569 3085.675 2311.572 2579.386 3779.886 3043.084 3031.555 3032.373 3161.786 2577.672 2859.701 3520.617 2859.399 3327.834 3234.958 3306.301 2835.401 4245.634 2689.001 3574.016 2770.690 2988.721 2178.747 4734.656 3530.101 2777.428 2635.215 2721.490 2670.936 3968.835 3458.416 2899.005 2642.686 3005.033 3090.480 2800.369 3421.574 2775.400 2956.771 3981.783 2691.578 3820.555 3537.527 3883.125 3206.719 3552.373 3530.082 3534.092 2895.184 3854.886 4324.473 1915.102 3686.161 3984.290 2840.429 3565.733 4145.235 2375.069 2697.992 3782.285 4005.666 3934.765 3402.478 3690.356 4022.785 4306.264 3099.253 3532.568 3122.602 3180.002 3402.231 3613.962 4169.876 4050.782 2915.342 4246.382 3522.741 2930.073 2649.447 3940.447 3117.976 3694.009 4180.215 4181.190 3635.700 3504.807 3103.668 4272.658 2847.738 3610.698 3103.357 3215.913 4672.355 3364.674 2146.549 3891.135 3826.105 3764.192 2631.452 3809.075 2567.650 4321.145 3163.478 3288.388 2606.553 3037.566 1344.458 2718.018 2813.326 3620.478 3855.943 4378.900 3952.436 3023.430 3090.711 3723.287 4128.506 3966.654 4139.931 2755.243 2585.390 2352.408 3137.149 2146.043 2440.372 4418.566 3687.134 3635.397 3636.457 4144.647 0.000 3071.706 3214.735 4088.098 2871.201 4248.644 4473.427 3269.081 3567.361 2297.447 4213.184 2861.037 3528.515 4069.474 2926.475 2430.942 3178.177 3923.869 1771.433 2458.107 4152.519 3996.635 3345.899 2752.997 4088.380 2902.098 3433.144 3265.905 2964.810 4010.268 3583.008 3577.819 4346.956 3129.622 2924.199 2863.035 4231.491 3555.837 326.455 2953.574 4160.786 4225.844
472.951 1745.478 1012.486 615.951 673.717 296.725 764.108 1171.723 440.139 563.499 230.475 904.757 611.822 957.659 1067.778 915.267 484.276 807.024 833.315 682.648 1490.061 663.974 672.003 665.182 190.113 608.458 593.488 1240.585 1204.009 1309.758 605.286 1288.225 523.398 1544.095 410.350 1078.921 567.445 601.125 1410.546 2682.673 799.367 394.840 500.031 883.437 799.928 1690.457 963.321 213.769 859.959 1022.231 721.294 329.705 518.427 534.823 538.805 1529.694 669.664 1089.821 627.664 1096.926 244.901 1156.911 1250.050 977.581 366.497 1245.194 1867.571 1361.051 955.427 1527.387 561.778 1014.750 1443.696 1327.066 3151.167 1353.252 1219.467 1768.065 1154.095 795.329 1293.608 1849.362 1178.598 1252.536 351.916 1420.906 1122.199 1080.814 1309.512 1264.583 341.196 1911.870 765.220 634.028 702.257 1483.545 474.590 1413.977 1845.702 1724.288 1355.667 1016.516 670.057 1815.755 505.575 1179.460 854.974 277.708 1742.550 633.939 1230.183 1140.506 1095.370 1341.725 734.714 1252.564 668.074 1748.269 303.055 381.228 572.821 2939.847 3811.584 1197.310 682.784 1340.445 2292.283 1767.887 1464.145 1053.791 535.151 1794.927 1601.114 1237.477 1353.733 600.612 887.795 844.835 847.280 1311.523 889.655 2084.054 757.330 877.875 1301.944 1810.135 3051.034 0.000 783.729 1358.921 388.855 1318.840 2016.525 812.824 836.627 1078.329 1756.281 468.992 797.780 1612.572 647.824 865.396 929.799 1589.357 1480.634 1347.285 1818.007 2162.118 1091.312 1097.606 1359.204 396.434 702.410 777.676 1198.425 1558.179 1026.497 1175.909 1890.053 750.512 642.458 269.721 1896.979 824.406 2860.910 586.382 1703.883 1768.942
443.929 1080.100 993.307 332.351 254.472 491.099 359.741 929.979 438.510 340.013 535.743 171.788 278.919 1449.266 704.639 675.177 483.317 1432.060 953.302 729.931 824.683 255.261 266.564 214.708 696.160 661.914 394.914 632.796 962.265 949.166 481.424 927.633 436.068 1218.776 1035.385 516.816 469.415 300.296 1516.860 2079.452 1334.607 607.350 601.409 659.859 688.331 1025.079 507.267 627.182 786.908 755.575 226.721 954.740 967.824 471.197 389.297 932.797 660.705 1581.428 1077.062 1118.412 765.250 431.176 562.719 641.832 883.585 958.598 1270.673 1522.328 1490.667 930.490 1186.814 669.445 1248.947 1155.817 3577.071 720.610 1231.688 1164.844 648.443 1244.727 1169.957 1252.464 818.007 649.315 895.285 2045.941 470.608 717.674 1608.926 1286.069 642.419 1246.491 803.658 409.291 843.888 886.647 1027.759 810.756 1180.324 1127.390 747.878 543.437 235.195 1218.858 1093.605 557.604 417.598 812.948 1801.341 1165.565 1336.497 994.847 1630.610 709.084 781.997 941.923 987.757 1267.345 742.324 829.116 1085.002 2579.256 3917.898 1623.214 488.207 737.224 1931.692 1325.100 920.505 787.134 332.282 1434.335 1074.705 1112.258 1318.489 1225.647 728.312 951.203 1472.315 1647.289 970.451 1418.676 1056.744 991.393 636.566 1144.756 3157.348 682.017 0.000 1250.972 498.856 1523.290 1419.627 77.487 1371.866 1395.866 1159.384 545.371 1333.020 1015.674 1272.860 1167.434 403.867 923.979 1586.948 1130.239 1152.629 1801.526 523.989 855.863 1223.766 607.001 1237.650 304.535 865.482 961.281 724.830 531.875 1293.156 161.303 326.142 677.588 1231.600 1359.646 2967.223 310.910 1106.985 1172.044
1170.728 1689.571 381.640 1288.870 1203.881 1192.762 911.856 2022.596 1178.130 1268.546 1233.718 1305.550 1335.654 1388.327 997.240 1767.795 1451.833 2013.006 1869.191 1679.333 1628.234 1238.511 1337.664 1307.325 1257.379 1605.144 1404.221 1714.871 2054.882 2028.176 856.666 2006.643 1400.067 715.270 1616.331 1217.094 1448.725 1274.044 2432.749 3213.428 1950.872 1425.570 1504.498 1752.476 1745.921 1739.203 1101.494 1309.615 1850.911 1848.192 1283.313 1535.686 1231.934 1450.507 1212.629 1368.619 1641.210 1455.271 1279.460 406.656 1318.898 1320.536 1426.390 812.735 1566.017 439.696 1510.255 2438.217 2062.516 1064.857 1767.759 927.905 614.871 2248.434 4357.148 1262.285 315.212 2298.820 1773.914 1447.124 226.026 1057.382 1897.017 1759.368 1468.828 2626.887 1552.683 1010.275 1230.613 392.966 1324.852 1767.087 729.524 1450.272 1710.821 1177.682 1662.267 1944.732 1789.795 1211.428 1829.953 1159.452 1189.474 1119.025 1711.557 1317.632 1510.215 1451.176 912.163 1575.232 2252.386 370.161 2070.629 1451.593 1731.399 724.664 1727.376 919.445 1127.858 1143.210 1778.803 3658.266 4833.787 2403.291 1545.415 1871.200 3010.702 939.062 1084.334 1879.751 1069.064 2513.345 772.289 180.490 339.270 1806.593 1820.929 1880.711 2053.261 2436.042 1886.340 2028.146 1101.421 725.995 1440.117 1704.705 4073.237 1276.519 1204.008 0.000 1270.374 534.388 1503.666 1213.617 1418.998 2202.848 1390.018 1343.618 1949.286 1177.134 1853.805 2033.965 1536.664 1504.942 2502.837 2222.857 1716.306 2880.536 1657.965 1948.480 302.216 1371.496 1853.915 1088.057 1944.492 1342.007 618.593 1314.082 1377.194 1253.920 1418.759 1360.020 1740.854 1997.874 3883.113 1367.645 1191.024 1411.626
259.061 1456.113 887.860 271.492 296.951 198.483 452.954 894.670 89.637 186.394 290.134 602.385 269.954 1187.146 754.531 641.819 256.025 1081.230 673.383 483.525 1155.927 286.870 330.136 315.343 449.949 409.336 272.160 890.747 926.956 989.669 364.797 968.136 203.309 1381.403 684.555 808.547 316.664 256.665 1236.941 2332.834 1031.800 233.925 307.741 626.501 600.806 1344.876 694.503 295.806 660.836 720.875 344.190 651.934 722.216 306.573 161.700 1254.892 485.120 1319.308 814.942 1012.964 516.874 849.453 900.212 664.334 527.043 990.654 1592.769 1242.409 1187.860 1252.585 835.983 701.502 1281.004 1120.508 3222.908 1080.602 1135.505 1418.227 832.990 982.607 1152.624 1574.560 858.509 902.698 592.479 1695.111 772.360 767.566 1413.276 1180.621 292.710 1622.504 696.701 313.939 514.064 1208.743 724.953 1064.139 1556.337 1449.486 1005.829 734.658 347.454 1540.953 732.872 909.086 529.497 510.141 1833.398 866.372 1056.578 1021.781 1327.804 1071.351 535.591 939.316 584.460 1580.420 440.893 565.803 682.871 2619.759 3637.979 1269.051 409.620 990.607 1972.194 1605.195 1182.287 752.434 221.528 1474.838 1387.780 1096.493 1269.771 861.248 688.673 684.903 1132.704 1293.126 690.532 1794.689 861.094 809.357 1012.579 1520.770 2877.430 379.211 470.106 1217.937 0.000 1422.604 1741.723 524.453 1069.060 1059.933 1481.479 171.946 1030.214 1337.770 922.029 881.488 600.538 1299.992 1307.029 1094.930 1528.642 1842.029 741.474 820.553 1218.219 233.576 934.843 495.756 905.984 1283.377 713.250 905.535 1615.251 373.408 322.369 346.211 1607.613 1056.840 2687.305 244.514 1429.081 1494.140
1350.248 2014.879 706.948 1614.179 1529.190 1332.529 1237.165 2286.409 1400.327 1577.811 1274.905 1630.859 1660.963 910.724 1322.549 2033.559 1647.764 1882.227 2052.158 1862.300 1953.543 1563.819 1662.973 1632.634 1293.080 1788.111 1665.138 2040.180 2318.695 2353.485 1181.975 2331.952 1595.048 1040.579 1652.033 1542.403 1709.642 1599.353 2615.716 3538.736 1540.109 1574.809 1679.684 2018.240 1979.581 2064.512 1426.803 1388.345 2039.611 2112.614 1608.622 1571.388 1378.151 1698.312 1537.683 1693.928 1849.316 977.668 1156.865 673.923 1354.600 1645.845 1751.699 1138.044 1614.806 765.004 1835.564 2602.734 1584.914 1390.166 1803.461 1253.214 940.180 2512.247 3935.149 1587.594 584.963 2624.129 2099.222 1032.232 551.335 1382.691 2222.325 2084.676 1563.548 2420.305 1877.992 1335.584 753.010 536.047 1494.789 2092.396 1054.833 1705.678 1881.909 1502.991 1370.486 2270.041 2115.104 1536.737 2155.262 1484.761 1514.783 1444.333 1747.258 1642.941 1835.524 1534.965 700.185 1176.062 2435.353 695.470 1593.026 1776.901 1914.366 1049.972 1908.316 1244.754 1163.560 1257.410 1814.504 3983.575 5016.754 2423.065 1801.359 2196.509 3336.010 1264.371 1409.643 2144.173 1394.373 2838.654 1097.598 505.799 477.228 1842.295 2067.448 2063.678 1901.046 2553.206 2069.307 2353.455 1079.668 1051.304 1765.426 2030.014 4256.205 1312.221 1529.317 411.458 1465.363 0.000 1828.974 1538.926 941.395 2320.013 1715.327 1540.643 1538.522 1502.442 1889.507 2107.079 1861.973 1830.251 2685.804 2486.669 2041.615 3205.845 1983.274 2212.292 627.525 1541.434 1388.681 1413.366 2269.800 1667.316 943.902 1639.391 1702.503 1579.229 1714.108 1438.750 2066.163 1699.127 4066.080 1658.032 1516.333 1736.934
1805.153 649.779 1402.093 1695.816 1615.696 1852.323 1474.297 2221.783 1799.734 1701.237 1896.967 1353.574 1675.127 2658.940 1544.886 1968.932 1866.171 2793.284 2293.887 2089.104 956.425 1645.456 1662.772 1615.061 2057.384 2021.088 1791.122 1486.888 2254.068 1829.920 1603.019 1784.929 1810.294 863.999 2396.609 1054.161 1855.670 1680.989 2863.805 2747.704 2695.831 1968.574 1988.859 1953.614 2015.469 1025.082 1153.386 1988.406 2114.047 2062.697 1617.087 2315.965 2241.102 1857.452 1750.521 647.771 2012.180 2769.151 2288.627 1522.794 2126.474 1150.443 1098.260 1590.695 2244.809 1279.892 236.543 2869.273 2851.891 606.168 2548.038 1716.964 1035.663 2447.621 4935.194 833.221 1582.038 1833.096 1695.954 2456.292 1532.261 572.875 1920.270 1533.580 2256.509 3407.166 1321.008 1562.534 2544.493 1652.014 2003.644 518.621 1756.835 1760.394 2202.011 785.563 2388.983 1491.075 593.389 443.011 1567.291 1139.797 1596.419 493.236 2454.829 989.503 1565.523 2174.172 2177.534 2526.789 2685.281 1357.151 2991.834 888.744 2130.301 1676.254 2348.981 791.721 2054.978 2141.090 2443.125 3419.901 5266.682 2981.337 1838.131 1405.476 2772.337 599.660 850.956 2094.257 1608.084 2274.981 834.697 1474.562 1643.467 2586.871 2055.450 2278.341 2833.539 3005.412 2328.574 877.356 2110.589 1753.306 974.984 572.242 4506.132 2043.241 1472.726 1575.950 1860.080 1848.268 0.000 1425.735 2584.942 2737.424 397.489 1906.595 2694.244 543.511 2634.084 2508.992 1451.379 769.187 2933.894 2422.043 595.625 2642.172 1458.515 2147.666 1586.070 1968.225 2598.874 1342.942 2081.153 610.153 1570.183 1054.124 272.774 1592.144 1700.823 2038.812 490.663 2720.870 4316.007 1707.119 394.434 367.560
515.219 1054.277 946.373 403.642 325.762 562.389 319.699 1001.270 509.801 411.304 607.033 145.965 350.210 1485.168 664.597 746.468 554.608 1503.351 1024.592 801.222 798.861 326.552 337.854 285.998 767.450 733.205 466.205 606.973 1033.555 1020.457 423.310 998.924 507.359 1192.953 1106.676 490.994 540.705 371.587 1588.150 2053.843 1405.897 678.641 672.700 731.149 759.621 999.256 445.955 698.473 858.199 826.865 298.012 1026.031 1039.115 542.487 460.588 906.974 731.996 1617.330 1112.963 1071.477 836.540 405.354 536.897 601.790 954.876 918.556 1244.851 1593.618 1561.957 904.667 1258.104 629.404 1208.906 1227.108 3648.362 694.788 1191.646 1139.235 651.721 1280.628 1129.916 1226.642 889.297 623.706 966.576 2117.232 444.786 677.632 1547.614 1239.134 713.710 1220.669 763.617 480.581 915.179 860.825 1099.050 785.147 1154.502 1101.568 722.056 482.125 306.486 1193.035 1164.896 531.781 452.960 884.238 1761.300 1236.855 1407.787 954.805 1701.901 683.261 853.288 901.881 1059.047 1241.523 777.713 863.825 1156.292 2650.546 3989.188 1694.505 559.498 711.615 2002.982 1299.278 894.683 858.425 330.819 1505.626 1048.883 1072.217 1278.448 1296.938 799.602 1022.493 1543.606 1718.580 1041.741 1392.853 995.432 951.351 610.744 1118.934 3228.639 753.308 108.594 1210.931 570.146 1483.249 1393.805 0.000 1409.278 1467.156 1133.561 616.661 1404.311 989.852 1344.150 1238.724 407.145 898.156 1658.238 1201.530 1126.806 1872.817 498.380 927.153 1183.724 678.292 1308.940 243.223 936.772 935.459 684.789 506.052 1267.333 232.593 397.432 748.878 1205.778 1430.937 3038.514 382.201 1081.163 1146.222
1074.070 2279.018 1205.998 1238.655 1263.180 890.112 1305.853 1708.870 1052.468 1152.624 857.557 1531.839 1234.526 220.754 1402.502 1583.665 1152.673 1019.552 1343.167 1328.241 2023.601 1253.099 1294.708 1281.573 769.609 1276.856 1216.192 1856.976 1853.564 1932.462 1129.569 1910.929 1146.102 1737.606 920.202 1612.461 1235.843 1223.829 1920.397 3299.064 677.434 1063.238 1168.429 1551.835 1445.522 2223.997 1496.861 937.251 1505.552 1663.668 1310.419 839.557 482.478 1203.221 1127.930 2063.234 1338.062 352.917 361.622 1290.438 722.942 1706.819 1821.757 1311.267 886.655 1438.706 2401.111 1870.903 833.494 2060.927 1071.630 1348.435 1637.207 1836.917 3344.157 1886.791 1412.979 2384.456 1776.799 220.967 1437.543 2079.718 1801.302 1868.927 728.474 1557.630 1738.590 1415.537 702.237 1458.095 1045.843 2445.409 1089.698 1256.732 1339.092 2017.084 507.811 2030.368 2379.242 2233.764 1972.058 1554.820 1292.346 2141.360 1015.427 1712.999 1477.678 730.044 1531.413 313.387 1740.034 1334.017 973.437 1875.265 1380.307 1586.249 1193.676 1941.781 748.622 558.997 1082.673 3562.552 4321.436 1560.390 1351.182 1956.836 2914.987 1961.398 2000.535 1695.227 1157.440 2417.631 1794.625 1392.007 1397.337 1110.463 1533.389 1354.686 1038.371 1821.374 1429.221 2617.594 930.336 1202.354 1835.484 2343.675 3560.886 884.864 1406.018 1297.667 1016.417 1059.370 2526.001 1439.906 0.000 1588.181 2289.821 1091.697 675.847 2146.111 1042.537 1375.248 1552.503 2122.897 1990.486 1860.757 2351.547 2784.822 1707.703 1747.161 1513.734 1076.400 526.007 1404.758 1848.777 2091.719 1360.183 1709.449 2399.530 1339.637 1265.162 968.357 2430.518 836.452 3370.761 1209.086 2213.360 2302.481
1189.769 2258.703 1844.552 1153.222 1201.622 1069.677 1404.486 899.603 1055.004 1091.066 1099.482 1467.872 1123.745 1644.824 1723.206 887.291 908.026 1042.107 509.222 727.843 1958.599 1191.541 1180.946 1180.830 1118.217 726.129 1008.158 1699.330 1044.479 1512.913 1333.472 1491.381 983.858 2350.078 645.432 1722.473 919.147 1137.178 977.079 2919.735 1486.533 849.234 783.672 920.514 825.067 2147.548 1606.873 952.152 796.818 1190.113 1238.937 756.801 1378.005 923.857 1105.228 2160.496 840.035 1776.987 1514.134 1969.335 1163.150 1714.940 1708.796 1633.009 866.823 1959.330 2503.186 418.116 1642.593 2163.003 796.860 1670.177 2249.679 941.652 2615.589 1960.998 2091.876 2119.845 1581.191 1646.787 2121.299 2484.977 1284.333 1711.281 1079.033 1244.039 1580.944 1736.241 2126.307 2136.992 940.907 2425.095 1580.592 1078.530 797.904 2119.160 1074.407 1872.722 2358.928 2359.903 1814.413 1653.264 1252.125 2451.371 804.169 1789.412 1282.070 1172.344 2670.655 1321.105 342.330 1978.473 1782.536 1942.905 779.909 1907.992 525.356 2494.346 1216.626 1307.216 550.615 2667.566 3153.078 645.115 961.783 1799.191 2405.723 2557.613 2100.893 1208.509 1190.204 1908.366 2301.706 2065.168 2226.141 711.675 784.414 520.742 1093.580 532.164 608.706 2597.279 1685.434 1693.248 1815.170 2323.360 2304.591 1037.347 1363.191 2186.612 968.675 2246.945 2652.140 1417.538 1523.792 0.000 2391.897 933.367 1484.946 2248.187 882.906 300.978 1361.811 2102.582 724.551 1024.690 2331.232 2275.557 1524.612 938.077 2186.895 924.186 1389.576 1414.362 1149.889 2188.981 1681.925 1756.533 2525.669 1278.079 1089.455 916.182 2410.204 1512.269 2114.466 1102.031 2339.499 2404.557
1565.127 686.143 1287.813 1455.789 1375.670 1612.297 1234.271 1981.757 1559.708 1461.211 1656.941 1113.548 1435.101 2518.187 1304.860 1728.906 1626.145 2553.258 2053.861 1849.078 716.399 1405.430 1422.746 1375.035 1817.358 1781.062 1551.096 1246.861 2014.042 1589.894 1362.993 1544.903 1570.268 767.967 2156.583 814.135 1615.644 1440.963 2623.779 2507.678 2455.805 1728.548 1748.833 1713.588 1775.443 785.056 913.360 1748.380 1874.021 1822.671 1377.061 2075.938 2089.022 1617.426 1510.495 407.745 1772.154 2650.349 2147.874 1408.514 1886.448 910.417 858.234 1350.669 2004.783 1165.612 224.708 2629.247 2611.865 454.902 2308.012 1476.938 921.384 2207.594 4695.168 593.195 1467.759 1593.070 1455.928 2315.539 1417.982 609.961 1680.244 1293.554 2016.483 3167.139 1080.982 1322.507 2430.213 1537.735 1763.617 575.750 1566.319 1520.368 1961.985 587.715 2148.957 1251.049 650.518 379.170 1327.265 899.771 1356.393 589.878 2214.803 749.476 1325.496 1934.146 2063.255 2286.763 2445.254 1242.872 2751.808 648.718 1890.275 1561.974 2108.954 753.872 1814.952 1901.064 2203.099 3179.875 5026.656 2741.311 1598.105 1165.450 2532.311 682.596 699.689 1854.231 1368.058 2034.954 683.430 1360.283 1529.187 2346.845 1815.424 2038.315 2593.513 2765.386 2088.548 934.485 1969.836 1639.027 734.958 629.371 4266.106 1803.215 1232.700 1461.670 1620.053 1733.988 392.278 1185.709 2444.189 2497.398 0.000 1666.568 2454.218 412.496 2394.057 2268.966 1211.353 529.161 2693.868 2182.017 652.754 2402.146 1218.489 1907.640 1471.791 1728.199 2358.848 1102.916 1841.127 370.126 1455.904 814.098 356.016 1352.118 1460.797 1798.786 547.792 2480.844 4075.981 1467.092 340.948 67.857
376.599 1519.427 1009.856 329.427 418.778 256.507 574.951 928.234 211.633 308.222 315.239 665.699 325.298 1178.635 876.527 675.384 238.087 1001.284 677.795 484.611 1219.241 408.697 385.479 378.657 441.439 419.253 306.963 954.061 960.520 1023.233 486.793 1001.701 236.874 1503.399 604.609 930.543 321.256 314.601 1241.353 2396.149 1022.758 190.300 289.139 660.066 601.891 1408.190 816.499 167.909 661.922 754.439 436.764 523.964 722.528 288.635 283.528 1376.889 480.459 1310.798 806.431 1134.961 492.090 912.767 963.526 786.330 423.313 1112.651 1714.765 1246.821 1178.818 1374.582 756.038 823.498 1403.000 1154.072 3148.330 1202.201 1257.502 1481.541 867.571 974.096 1274.620 1696.557 892.074 966.012 575.018 1615.165 835.674 889.562 1483.997 1302.618 167.844 1685.819 767.422 347.504 495.462 1330.739 654.948 1127.453 1619.651 1571.482 1069.143 856.654 469.282 1662.950 633.333 1031.082 568.449 501.099 1917.036 857.330 1060.990 1143.777 1318.761 1190.674 536.677 1061.313 509.882 1702.416 432.383 557.292 608.294 2653.323 3642.391 1194.473 436.595 1053.921 2005.759 1727.191 1304.283 785.999 343.525 1508.403 1509.777 1218.490 1391.767 786.670 689.758 689.315 1041.539 1218.548 694.944 1858.003 931.815 880.078 1075.893 1584.084 2881.842 344.727 561.018 1339.934 121.997 1493.326 1863.719 615.365 1060.018 985.355 1603.476 0.000 1021.171 1459.766 842.083 816.471 643.275 1363.306 1311.441 1128.495 1591.956 1875.594 804.788 854.118 1340.216 97.373 925.801 617.752 939.549 1405.373 835.246 1011.263 1737.248 483.299 355.934 217.316 1670.928 1047.797 2691.717 299.858 1551.078 1616.136
1030.560 2339.266 1562.942 1195.146 1219.671 846.603 1344.982 1665.361 1008.958 1109.114 849.275 1498.546 1191.017 719.082 1646.558 1540.156 1109.164 701.085 1299.657 1284.732 2078.647 1209.590 1251.199 1238.063 726.099 1233.347 1172.683 1813.467 1810.054 1888.953 1202.787 1867.420 1102.593 2094.551 876.692 1672.709 1192.333 1180.320 1876.888 3255.555 63.891 1019.729 1124.920 1508.326 1402.013 2267.596 1557.109 893.742 1462.043 1620.159 1266.910 796.047 723.499 1159.712 1084.420 2123.483 1294.553 851.245 765.535 1647.382 679.433 1750.699 1822.932 1556.361 843.146 1795.650 2461.359 1827.393 219.950 2121.176 990.504 1593.529 1994.151 1793.408 2730.614 1947.040 1769.923 2340.947 1733.290 721.045 1844.064 2436.663 1757.793 1825.418 684.964 1239.163 1695.080 1659.593 1200.566 1815.039 1002.334 2505.658 1406.085 1213.223 1295.583 2077.333 454.690 1986.859 2439.491 2318.076 1928.549 1610.304 1248.836 2409.544 971.918 1773.248 1434.169 686.535 2029.741 440.337 1696.525 1690.961 359.894 1935.513 1336.798 1831.344 1150.167 2298.725 943.920 821.029 1039.164 3519.042 3997.413 1241.924 1307.672 1913.327 2871.478 2318.342 2057.933 1651.718 1113.931 2374.122 2151.570 1787.933 1895.665 1066.954 1489.879 1311.177 719.905 1769.358 1385.712 2677.842 1287.281 1518.740 1895.733 2403.923 3517.377 841.355 1362.509 1795.995 972.908 1557.699 2610.313 1406.613 598.051 1544.672 2350.070 1048.187 0.000 2206.360 864.010 1331.739 1508.994 2183.145 1946.976 1817.247 2411.795 2741.313 1664.194 1703.652 1909.659 1032.890 208.864 1371.464 1805.268 2151.967 1605.277 1769.698 2483.842 1296.128 1221.653 924.848 2490.767 480.882 3327.252 1165.577 2297.671 2362.730
1415.816 815.562 1046.772 1306.479 1226.359 1462.986 1084.960 1831.429 1410.398 1311.900 1507.630 964.238 1284.773 2303.620 1155.550 1578.578 1476.835 2403.948 1903.534 1698.751 796.537 1256.119 1272.418 1225.724 1668.047 1630.734 1400.768 1096.534 1863.715 1670.032 1213.683 1625.041 1420.958 558.554 2007.273 664.824 1466.334 1291.653 2473.452 2587.816 2306.494 1579.238 1599.523 1563.260 1625.115 865.195 764.050 1599.070 1723.693 1672.343 1227.751 1926.628 1885.782 1468.116 1361.185 494.610 1621.826 2413.831 1933.307 1167.474 1737.137 761.107 707.906 1201.359 1855.473 924.571 570.184 2478.920 2462.554 213.861 2158.701 1327.627 680.343 2057.267 4544.840 477.859 1226.718 1673.209 1305.600 2100.972 1176.941 433.820 1674.801 1143.226 1867.173 3017.829 930.654 1173.197 2189.172 1296.694 1614.307 893.079 1401.515 1370.040 1811.657 393.256 1999.647 1331.187 915.786 231.363 1211.616 750.461 1207.083 413.738 2065.493 599.149 1175.169 1784.835 1822.214 2137.452 2294.927 1001.831 2602.498 667.167 1739.947 1320.934 1959.644 544.458 1665.642 1751.754 2052.771 3260.013 4876.328 2590.983 1447.777 1245.589 2612.449 506.456 458.649 1703.903 1218.748 2115.093 442.390 1119.242 1288.146 2197.535 1665.096 1887.987 2444.203 2615.058 1938.220 1154.138 1755.269 1397.986 728.620 830.696 4115.778 1653.905 1083.390 1220.629 1470.743 1492.948 585.239 1036.398 2229.622 2347.070 449.947 1517.258 2304.908 0.000 2244.747 2118.638 1061.025 636.434 2543.540 2031.689 842.297 2482.284 1068.161 1757.312 1230.750 1578.889 2209.537 953.605 1722.276 467.998 1214.863 664.787 431.037 1202.807 1310.469 1649.475 866.845 2331.534 3925.653 1316.765 210.958 471.555
1000.165 2279.212 1555.767 1097.624 1163.928 835.580 1314.587 1068.593 917.543 1053.372 786.068 1431.488 1087.360 1177.993 1616.163 1056.098 860.611 206.374 702.889 784.803 1979.108 1153.847 1144.562 1144.446 733.394 746.638 971.773 1719.839 1213.286 1681.720 1160.878 1660.187 935.017 2087.375 243.440 1634.513 925.272 1082.798 1280.119 3088.542 897.810 771.344 792.875 1041.276 902.083 2168.056 1518.913 704.910 962.114 1297.602 1202.552 371.977 925.089 911.158 1028.678 2085.287 860.544 1310.155 1104.597 1640.207 762.706 1678.555 1729.304 1525.966 464.830 1788.475 2423.163 1230.625 1053.870 2082.980 172.264 1563.134 1986.976 1196.639 2609.760 1908.844 1762.748 2235.070 1601.700 1179.956 1836.889 2404.954 1453.140 1731.790 669.496 820.255 1601.453 1629.198 1659.476 1807.864 799.678 2445.603 1308.500 1042.145 796.849 2039.137 607.575 1893.231 2379.436 2279.880 1834.921 1572.108 1214.431 2371.348 402.177 1735.052 1302.578 759.650 2285.831 854.273 1099.757 1683.786 1193.813 1897.317 836.869 1800.949 553.398 2291.550 846.336 897.679 442.395 2935.611 3681.158 812.439 981.893 1819.699 2574.529 2311.167 2019.737 1329.162 1083.536 2077.173 2144.395 1780.758 1897.013 279.521 953.403 714.408 257.847 1181.096 788.943 2617.788 1300.611 1421.156 1835.678 2343.869 2920.608 652.524 1326.807 1902.202 879.996 1862.121 2572.117 1368.417 1056.961 947.903 2311.874 855.478 896.223 2168.164 0.000 734.970 1380.543 2123.091 1350.208 1220.479 2351.741 2444.364 1545.120 1106.883 1902.484 786.725 812.307 1333.268 1318.696 2113.771 1574.882 1731.502 2445.646 1240.385 1100.019 721.350 2430.712 856.171 2730.483 1065.646 2259.475 2324.534
1037.273 2106.207 1692.056 1000.726 1049.125 917.181 1251.989 747.106 902.508 938.569 946.985 1315.376 971.248 1492.328 1570.709 734.795 755.529 889.610 356.725 575.347 1806.102 1039.044 1028.450 1028.334 965.721 573.633 855.661 1546.834 891.982 1360.417 1180.975 1338.884 831.362 2197.582 492.936 1569.976 766.651 984.681 866.068 2767.239 1334.036 696.738 631.175 768.018 672.571 1995.051 1454.376 799.655 644.321 1037.616 1086.440 604.304 1225.509 771.361 952.732 2008.000 687.539 1624.490 1361.637 1816.838 1010.654 1562.444 1556.299 1480.512 714.326 1806.833 2350.690 596.789 1490.096 2010.506 644.364 1517.680 2097.182 782.588 2610.197 1808.502 1939.379 1967.348 1428.695 1494.291 1968.803 2332.481 1131.836 1558.785 926.537 1238.647 1428.447 1583.744 1973.811 1984.495 788.410 2272.598 1428.096 926.034 645.408 1966.663 921.910 1720.226 2206.431 2207.407 1661.916 1500.768 1099.629 2298.874 651.673 1636.915 1129.573 1019.847 2518.158 1168.608 476.488 1825.977 1630.040 1790.409 627.413 1755.495 372.859 2341.849 1064.129 1154.719 398.118 2521.560 3213.145 656.340 809.286 1646.694 2253.226 2405.117 1948.396 1056.013 1037.707 1755.870 2149.209 1912.672 2073.644 559.178 631.917 368.245 941.084 672.843 456.209 2444.783 1532.938 1540.752 1662.673 2170.863 2452.596 884.851 1210.695 2034.116 816.179 2094.448 2499.644 1265.041 1371.296 313.793 2239.400 780.871 1332.450 2095.691 730.410 0.000 1209.315 1950.086 903.224 865.626 2178.736 2123.061 1372.115 785.580 2034.398 771.690 1237.079 1261.866 997.393 2036.484 1529.428 1604.036 2373.172 1125.582 936.959 763.686 2257.707 1359.772 2262.471 949.534 2187.002 2252.060
688.179 1004.244 1258.965 390.588 498.722 646.117 625.399 844.857 559.051 476.838 737.768 337.797 337.156 1634.780 970.297 592.007 528.719 1503.694 916.962 712.179 704.058 369.737 324.801 301.965 897.583 644.162 439.961 440.855 877.143 808.873 747.083 795.754 474.064 1196.830 1107.019 566.012 493.312 358.533 1486.880 1858.981 1479.434 649.500 625.306 576.689 638.544 893.007 670.186 720.478 737.122 685.772 341.828 1057.994 1169.849 495.093 518.349 906.037 635.255 1766.942 1262.576 1384.070 964.508 476.546 450.320 907.490 917.652 1224.256 1248.727 1492.348 1635.494 908.544 1258.447 935.104 1290.713 1070.695 3558.269 706.539 1497.346 956.086 322.553 1430.241 1435.616 1230.518 688.230 452.806 1040.113 2117.575 322.469 983.332 1858.898 1551.727 720.413 1170.636 1069.317 383.469 825.086 864.701 1172.587 614.247 1104.469 1105.444 555.937 725.597 479.446 1196.912 1127.672 534.952 187.575 957.775 2067.000 1314.006 1308.355 1260.505 1775.437 688.446 753.376 1207.581 974.779 1245.399 888.527 1013.437 1066.199 2449.479 3889.756 1604.412 461.205 540.715 1801.915 1303.154 909.485 717.332 595.199 1304.559 1052.760 1377.917 1584.148 1260.161 678.525 901.416 1547.991 1628.487 951.648 1342.820 1306.717 1254.979 560.711 1068.901 3129.207 826.845 391.418 1516.631 551.785 1788.949 1397.681 380.116 1516.694 1360.499 1137.438 588.311 1477.848 993.728 1344.493 1132.067 0.000 848.123 1556.969 1045.118 1076.773 1671.750 266.137 770.741 1489.424 649.942 1382.477 589.185 735.705 934.522 990.489 498.057 1271.210 363.881 323.898 769.885 1155.745 1504.473 2939.082 369.147 1085.040 1150.098
1349.251 276.329 1366.670 1168.315 1159.794 1396.421 1018.394 1661.539 1336.779 1245.335 1441.065 827.726 1114.883 2302.311 1088.984 1408.688 1319.282 2320.375 1733.643 1528.860 422.624 1119.779 1102.528 1079.692 1601.482 1460.844 1230.878 939.413 1693.824 1296.119 1147.117 1251.128 1272.033 877.252 1923.700 598.258 1305.379 1136.261 2303.562 2213.902 2239.929 1445.441 1437.374 1393.370 1455.225 491.281 697.484 1518.446 1553.803 1502.453 1091.239 1860.062 1873.146 1307.161 1294.619 233.306 1451.936 2434.473 1931.998 1487.371 1670.572 692.776 553.491 1134.793 1734.333 1244.469 608.190 2309.030 2395.988 599.761 2075.129 1261.062 1000.241 1887.377 4374.950 377.319 1546.616 1299.295 1135.710 2099.663 1496.839 872.907 1386.469 986.106 1800.607 2934.256 773.533 1106.631 2306.142 1616.592 1518.381 342.242 1350.443 1200.150 1641.767 566.472 1933.081 957.274 375.835 704.701 1033.489 683.895 1140.517 852.824 1944.353 527.729 1005.279 1718.270 2142.112 2070.886 2125.037 1321.728 2535.932 390.608 1570.057 1522.322 1791.460 863.156 1599.076 1685.188 1882.881 2886.100 4706.438 2421.093 1277.887 871.675 2238.536 937.407 604.445 1534.013 1152.182 1741.179 762.287 1439.140 1608.044 2076.842 1495.206 1718.097 2364.673 2445.168 1768.330 614.905 1753.960 1538.178 371.632 279.860 3945.888 1587.339 946.878 1540.527 1347.487 1812.845 766.489 899.886 2228.313 2177.180 496.900 1386.280 2238.342 661.073 2161.174 1948.748 891.135 0.000 2373.650 1861.799 291.461 2108.370 911.041 1587.422 1550.647 1447.910 2142.972 887.040 1547.352 220.873 1301.223 537.846 796.257 1066.295 1140.579 1567.853 316.009 2264.968 3755.763 1146.875 660.255 509.561
1557.085 2507.853 2185.883 1432.628 1481.027 1439.688 1683.891 1025.472 1388.114 1370.471 1474.197 1747.278 1403.150 2116.255 2028.789 1130.074 1187.431 1513.538 739.435 1007.249 2207.748 1470.946 1459.417 1460.236 1589.649 1005.535 1287.563 1948.480 1287.262 1755.696 1662.820 1734.164 1263.264 2673.497 1116.863 2001.878 1198.553 1416.583 595.622 3162.518 1957.964 1205.291 1063.077 1149.353 1098.798 2396.697 1886.278 1326.867 1070.549 1432.896 1518.342 1228.232 1849.436 1203.263 1384.634 2409.646 1119.441 2248.418 1965.389 2310.988 1634.582 1980.236 1957.945 1961.955 1323.046 2282.748 2752.336 331.977 2114.024 2412.152 1268.291 1993.596 2573.098 791.944 2892.574 2210.148 2433.529 2362.628 1830.341 2118.218 2450.647 2734.127 1527.116 1960.431 1550.465 1596.878 1830.093 2041.824 2597.738 2478.645 1343.205 2674.244 1950.603 1357.936 1077.310 2368.310 1545.838 2121.872 2608.077 2609.053 2063.562 1932.670 1531.531 2700.520 1275.600 2038.561 1531.219 1643.775 3100.217 1792.536 590.373 2318.998 2253.967 2192.055 1059.315 2236.937 995.513 2749.008 1591.341 1716.251 1034.416 2295.921 2616.835 1134.893 1241.188 2048.340 2648.506 2806.763 2380.298 1451.292 1518.574 2151.149 2556.368 2394.517 2567.794 1183.106 1013.252 780.270 1565.012 562.919 868.235 2846.429 2114.997 2063.259 2064.319 2572.510 1768.349 1499.568 1642.597 2515.961 1299.064 2676.507 2901.290 1696.943 1995.224 719.604 2641.046 1288.899 1956.377 2497.337 1354.337 874.765 1606.040 2351.732 0.000 874.982 2580.382 2518.340 1773.761 1180.860 2516.243 1329.960 1861.007 1693.768 1392.672 2438.130 2010.871 2005.682 2774.818 1557.484 1352.061 1290.898 2659.353 1983.700 1578.224 1381.436 2588.648 2653.706
1324.543 1974.860 1953.342 1028.758 1189.346 1222.821 1346.399 257.489 1155.573 1127.225 1269.653 1285.342 939.229 1921.213 1691.297 538.583 908.501 1318.495 549.648 660.224 1674.756 1083.002 964.085 1018.755 1394.606 726.946 885.001 1415.487 670.319 1164.205 1430.279 1142.672 978.402 2167.445 921.821 1536.709 873.717 998.370 585.810 2571.027 1762.921 996.668 879.893 585.512 604.883 1863.704 1562.902 1122.323 678.101 841.404 1069.684 1033.189 1654.394 880.561 1158.279 1876.653 830.624 2053.375 1760.845 2078.446 1439.539 1447.243 1424.952 1628.490 1114.424 1945.256 2219.343 810.362 1918.981 1879.160 1073.249 1656.104 2235.606 198.025 3241.073 1677.155 2200.988 1771.136 1297.348 1923.176 2156.616 2201.134 935.624 1427.438 1355.422 1869.523 1297.101 1704.332 2402.696 2246.103 1138.059 2141.252 1733.736 870.658 885.603 1835.317 1350.795 1585.798 2075.084 2076.060 1530.569 1599.073 1200.446 2167.528 1080.558 1505.568 998.226 1448.732 2788.000 1597.493 804.821 1981.505 2058.925 1659.062 712.290 1928.581 834.118 2216.015 1386.797 1511.707 859.377 2007.544 3303.509 1287.216 779.229 1500.200 2057.014 2273.770 1880.101 859.801 1286.033 1559.658 2023.375 2098.916 2305.148 988.063 607.132 534.102 1369.969 1041.303 622.820 2313.436 1898.129 1846.392 1531.327 2039.517 2455.022 1295.024 1162.600 2237.631 1066.522 2459.640 2368.297 1216.946 1800.181 955.718 2108.054 1080.277 1761.335 1964.344 1159.295 764.753 1073.136 1818.739 874.982 0.000 2047.389 1926.849 1240.769 589.368 2210.424 1121.338 1665.964 1360.171 801.181 1905.138 1711.489 1472.689 2241.826 1084.881 860.737 1086.354 2126.361 1788.657 2264.897 947.373 2055.655 2120.714
1604.280 92.608 1623.112 1419.092 1414.823 1651.450 1289.368 1912.315 1587.555 1498.398 1696.094 1078.503 1365.660 2566.913 1353.586 1659.465 1570.058 2571.152 1984.420 1779.637 633.276 1370.556 1353.305 1330.469 1856.511 1711.620 1481.655 1190.190 1944.601 1506.771 1418.091 1461.780 1522.809 1070.386 2174.477 876.280 1556.156 1387.038 2554.338 2424.555 2494.958 1696.217 1688.150 1644.147 1706.002 701.933 980.455 1769.222 1804.580 1753.230 1342.015 2115.092 2128.175 1557.938 1546.854 518.880 1702.713 2699.075 2196.600 1743.813 1925.601 943.553 804.267 1399.395 1985.110 1500.910 441.814 2559.806 2651.018 806.802 2325.905 1525.663 1256.682 2138.153 4625.727 662.893 1803.057 1509.947 1386.487 2364.265 1753.280 1066.041 1597.121 1236.882 2055.637 3185.033 1024.310 1371.233 2570.743 1873.033 1769.158 166.039 1615.045 1450.927 1892.544 779.628 2188.111 1167.926 123.013 877.355 1244.142 969.469 1395.547 1010.138 2195.130 778.506 1256.055 1973.299 2398.553 2325.916 2375.813 1578.170 2790.961 641.580 1820.834 1786.924 2042.237 1056.290 1870.050 1956.162 2133.657 3096.752 4957.214 2671.870 1528.663 1082.327 2449.188 1116.563 890.019 1784.789 1423.156 1951.832 1018.729 1695.581 1864.485 2327.619 1745.983 1968.874 2615.449 2695.945 2019.106 448.987 2018.562 1802.780 622.409 29.940 4196.665 1842.369 1197.654 1796.969 1598.264 2069.287 590.285 1150.663 2492.914 2427.957 646.171 1637.056 2493.371 833.728 2411.951 2199.525 1141.911 307.991 2624.427 2112.576 0.000 2319.023 1161.817 1838.199 1807.089 1698.687 2398.001 1158.014 1758.004 506.447 1565.824 788.623 795.275 1317.072 1391.356 1818.629 139.805 2519.997 4006.540 1397.651 832.910 616.242
1965.115 2213.695 2582.609 1633.382 1803.654 1910.813 1949.043 1648.128 1823.747 1741.533 1999.670 1883.607 1568.863 2863.067 2293.941 1505.146 1744.712 2513.833 1745.545 1782.594 1840.674 1664.729 1538.361 1612.068 2125.870 1838.542 1655.955 1644.764 1610.907 1018.449 2070.726 973.633 1690.058 2656.599 2117.159 2034.036 1709.305 1601.327 2343.966 1628.582 2707.721 1865.493 1841.299 1594.139 1665.444 2029.623 2138.211 1936.471 1764.022 1310.632 1670.174 2228.527 2406.960 1711.087 1783.045 2219.098 1829.634 2995.229 2490.863 2707.714 2192.796 1944.570 1903.200 2231.134 2113.783 2547.900 2489.642 2349.434 2863.781 2373.503 2268.587 2258.747 2755.672 1871.472 4436.411 2171.498 2820.990 1368.103 1502.245 2658.528 2759.259 2652.254 1032.031 1592.716 2268.400 3064.861 1687.730 2306.976 3123.594 2875.371 1936.406 2380.087 2392.960 1599.462 2011.049 2329.660 2400.874 1462.034 2313.920 2511.436 1632.198 2193.622 1803.089 2632.172 2275.896 1999.911 1510.399 2186.062 3390.643 2542.294 2165.441 2584.149 3003.725 2136.781 1780.276 2531.225 2029.456 2642.504 2116.814 2241.724 2054.715 1527.528 4744.530 2482.554 1677.199 1376.435 297.182 2716.755 2374.444 1329.028 1907.555 509.699 2517.719 2701.560 2907.791 2183.401 1735.790 1729.998 2565.307 2506.630 1817.763 2552.271 2571.413 2519.675 2009.045 2278.352 3983.981 2055.132 1765.244 2840.274 1767.779 3112.592 2657.212 1819.590 2744.981 2188.523 2378.352 1804.305 2706.135 2458.687 2354.633 1960.091 1650.135 2099.870 2414.054 1845.894 2286.224 0.000 1616.786 1505.606 2813.068 1865.935 2610.764 1962.814 1192.914 2199.480 2314.133 1950.937 2677.202 1687.525 1539.891 1985.878 2365.196 2732.761 3793.856 1611.300 2491.032 2391.012
830.382 1000.785 1391.498 540.377 640.925 795.905 767.602 1019.727 708.840 626.626 887.557 450.081 486.945 1784.569 1042.924 766.877 691.343 1678.563 1091.832 887.049 700.599 519.526 474.589 451.753 1047.372 819.032 602.940 328.060 1052.013 806.794 888.330 772.851 644.094 1193.370 1281.889 565.618 668.181 508.322 1661.750 1714.804 1629.223 817.502 800.176 751.558 813.414 889.548 669.793 890.507 911.991 860.642 484.031 1232.864 1319.638 669.963 668.138 902.578 810.125 1916.731 1412.364 1516.603 1114.297 476.152 434.782 1049.693 1092.521 1366.459 1245.268 1667.218 1785.283 905.085 1433.317 1077.306 1287.254 1245.565 3733.139 703.080 1639.144 808.737 431.966 1580.029 1577.818 1227.059 863.100 293.208 1189.902 2292.445 219.312 1060.571 2008.687 1684.260 890.443 1167.177 1201.849 558.339 999.956 861.242 1322.376 418.201 1101.009 1101.985 438.887 725.204 621.648 1193.453 1302.542 531.493 363.467 1107.564 2209.202 1463.795 1483.225 1402.708 1925.226 684.987 928.246 1349.784 1149.649 1241.940 1038.316 1163.226 1241.069 2387.452 4064.626 1779.282 636.075 381.117 1739.888 1299.695 906.026 892.201 737.401 1248.740 1049.300 1520.119 1726.350 1435.031 853.395 1076.286 1722.861 1803.357 1126.518 1339.361 1456.506 1389.584 557.252 1065.442 3304.077 976.634 512.521 1658.833 719.548 1931.151 1394.222 499.175 1666.483 1535.369 1133.979 758.341 1627.636 990.269 1519.363 1306.937 248.718 844.664 1731.838 1219.988 1073.314 1615.931 0.000 945.611 1631.627 819.972 1532.266 668.240 910.575 931.063 1132.692 482.519 1267.751 506.084 498.768 939.914 1152.286 1654.262 3113.952 518.936 1081.580 1146.639
1031.214 1681.531 1660.013 735.429 896.017 929.492 1052.982 440.186 862.244 833.897 1005.085 991.924 645.900 1833.161 1397.879 297.204 648.204 1305.891 537.602 574.652 1375.071 789.673 670.668 725.337 1131.285 644.179 614.680 1122.158 402.964 574.837 1136.950 553.304 695.473 1874.117 909.216 1243.380 608.458 705.041 1136.023 1981.659 1674.870 775.684 653.996 386.196 457.502 1564.020 1269.484 900.866 556.080 252.036 776.267 1020.585 1412.375 610.239 864.950 1583.324 635.271 1965.324 1496.278 1785.117 1198.210 1153.914 1131.623 1335.073 919.420 1651.839 1926.014 1141.491 1830.930 1585.831 1060.645 1362.686 1942.188 663.529 3228.469 1383.826 1907.659 1181.768 919.889 1663.942 1863.198 1907.805 346.256 1127.113 1200.767 1856.918 1003.772 1410.915 2156.982 1952.774 917.204 1847.923 1440.407 579.510 803.107 1541.988 1262.744 996.430 1781.756 1782.731 1166.594 1305.655 907.028 1874.199 1067.954 1212.239 704.898 1191.477 2494.582 1509.442 957.499 1688.088 1970.873 1365.733 572.334 1635.164 821.514 1922.686 1122.229 1247.139 846.773 2115.210 3536.588 1274.612 500.812 910.832 1467.646 1980.441 1586.772 270.433 992.704 970.290 1730.047 1805.499 2011.730 975.459 527.848 522.056 1357.365 1298.687 609.820 2020.107 1604.800 1553.063 1237.998 1746.188 2776.039 1060.547 869.182 1944.213 773.194 2166.311 2074.968 923.529 1712.130 980.581 1814.725 809.720 1673.283 1671.015 1146.690 752.149 779.718 1525.410 1206.112 637.952 1754.060 1337.481 947.440 0.000 1917.007 871.350 1577.913 1066.753 211.813 1611.809 1418.071 1179.360 1948.497 791.463 569.590 864.897 1833.032 1700.606 2585.914 654.044 1762.327 1827.385
1188.881 1703.750 399.793 1293.310 1213.191 1210.915 916.296 2027.036 1196.283 1286.699 1251.872 1309.990 1340.094 1474.534 1001.680 1772.235 1463.666 2031.159 1887.344 1697.486 1632.674 1242.951 1342.104 1311.765 1275.532 1623.297 1408.661 1719.311 2059.322 2032.616 874.819 2011.083 1407.789 729.450 1634.484 1221.534 1453.165 1278.484 2450.902 3217.868 1969.025 1443.723 1522.651 1756.916 1750.361 1753.383 1105.934 1327.768 1855.351 1852.632 1287.753 1553.840 1250.087 1454.947 1230.783 1382.799 1645.650 1541.478 1297.613 438.315 1337.052 1324.976 1430.830 817.175 1584.171 444.136 1524.434 2456.370 2125.085 1079.037 1785.913 932.345 629.051 2252.874 4375.301 1276.465 364.398 2303.260 1778.354 1465.278 191.990 1071.562 1901.457 1763.808 1486.981 2645.041 1557.123 1014.715 1316.819 442.152 1343.005 1781.267 747.677 1454.712 1728.974 1191.862 1680.420 1949.172 1803.974 1225.608 1834.393 1163.892 1193.914 1133.204 1729.710 1322.072 1514.655 1469.329 998.370 1593.386 2270.539 374.601 2156.836 1465.772 1749.552 729.104 1745.529 933.625 1146.011 1161.363 1796.956 3662.706 4851.940 2421.444 1549.855 1875.640 3015.142 953.242 1098.513 1884.191 1087.217 2517.785 786.469 195.059 425.477 1824.746 1825.369 1898.864 2071.414 2454.195 1904.493 2042.326 1119.574 744.148 1444.557 1718.884 4091.391 1294.673 1208.448 348.277 1288.527 620.595 1517.845 1218.057 1505.205 2221.002 1404.198 1361.772 1967.439 1191.313 1871.959 2052.118 1541.104 1519.121 2520.990 2227.297 1730.486 2884.976 1662.405 1952.920 0.000 1389.650 1872.068 1092.497 1948.932 1356.186 623.033 1318.522 1391.374 1258.360 1423.199 1378.173 1755.034 2016.027 3901.266 1372.085 1205.204 1425.805
295.109 1522.400 952.194 332.399 396.468 208.788 551.778 931.207 150.083 285.912 284.381 668.672 328.270 1147.777 853.355 678.356 292.562 1010.155 709.920 520.062 1222.213 386.387 388.452 381.630 410.581 445.873 309.936 957.033 963.493 1026.206 429.131 1004.673 239.846 1480.227 613.480 879.506 354.440 317.573 1273.478 2399.121 992.432 255.098 353.315 663.038 637.343 1411.162 763.906 176.780 697.373 757.412 439.736 532.836 691.670 343.110 261.218 1330.279 521.657 1279.940 775.573 1077.299 477.506 915.739 966.498 763.158 432.184 1089.479 1668.156 1278.946 1148.492 1327.972 764.909 800.326 1379.828 1157.045 3186.695 1153.837 1199.840 1484.513 870.543 943.238 1216.958 1649.947 895.046 968.984 553.111 1624.036 838.647 866.390 1436.278 1244.956 156.065 1688.791 719.703 350.476 559.638 1284.130 663.819 1130.425 1622.624 1524.873 1072.116 817.101 446.972 1616.340 642.205 980.045 571.422 470.773 1869.317 827.004 1093.115 1086.115 1288.435 1142.310 572.128 1038.141 548.248 1651.379 401.525 526.435 646.659 2656.296 3674.516 1232.838 446.157 1056.894 2008.731 1704.019 1264.730 788.971 320.728 1511.375 1458.739 1160.827 1334.105 803.742 725.210 721.440 1050.410 1256.914 727.069 1860.975 884.096 832.359 1078.866 1587.056 2913.967 339.842 563.991 1282.272 113.524 1445.606 1817.110 613.409 1029.691 1023.720 1556.866 164.490 990.845 1413.157 850.955 854.837 646.247 1366.279 1343.566 1131.467 1594.928 1878.566 807.761 857.090 1282.554 0.000 895.475 578.261 942.521 1358.764 812.074 976.494 1690.638 472.925 358.906 226.187 1673.900 1017.471 2723.842 302.830 1504.468 1569.527
927.060 2235.766 1459.442 1091.646 1116.171 743.103 1241.482 1561.861 905.458 1005.614 745.775 1395.046 1087.517 611.076 1543.058 1436.655 1005.664 626.622 1196.157 1181.232 1975.147 1106.090 1147.698 1134.563 622.599 1129.847 1069.183 1709.967 1706.554 1785.453 1099.286 1763.920 999.093 1991.051 773.192 1569.209 1088.833 1076.820 1773.388 3152.054 221.191 916.228 1021.420 1404.826 1298.512 2164.096 1453.609 790.242 1358.543 1516.659 1163.410 692.547 619.999 1056.212 980.920 2019.982 1191.053 743.238 657.528 1543.882 575.933 1647.199 1719.432 1452.861 739.646 1692.150 2357.859 1723.893 377.251 2017.676 916.041 1490.029 1890.651 1689.908 2887.915 1843.540 1666.423 2237.447 1629.790 613.038 1740.564 2333.163 1654.293 1721.918 581.464 1164.701 1591.580 1556.093 1092.559 1711.539 898.834 2402.158 1302.585 1109.723 1192.083 1973.833 365.326 1883.359 2335.991 2214.576 1825.049 1506.804 1145.336 2306.044 868.418 1669.748 1330.668 583.035 1921.734 332.330 1593.025 1587.461 517.195 1832.013 1233.298 1727.844 1046.667 2195.225 840.420 717.529 935.664 3415.542 4154.714 1167.461 1204.172 1809.827 2767.978 2214.842 1954.433 1548.218 1010.431 2270.622 2048.070 1684.433 1787.658 963.454 1386.379 1207.677 645.442 1674.365 1282.212 2574.342 1183.781 1415.240 1792.233 2300.423 3413.877 737.855 1259.009 1687.988 869.408 1449.692 2506.813 1303.113 490.044 1441.172 2246.570 944.687 219.605 2102.860 789.547 1228.239 1405.494 2079.645 1843.476 1713.747 2308.295 2637.813 1560.694 1600.152 1806.159 929.390 0.000 1267.964 1701.768 2048.467 1501.777 1666.197 2380.342 1192.628 1118.153 821.348 2387.267 473.046 3223.752 1062.077 2194.171 2259.230
521.668 1032.787 846.671 412.331 332.211 568.838 203.285 1132.268 516.250 417.752 613.482 343.473 459.115 1478.948 510.837 877.466 582.687 1509.799 1053.080 833.896 777.370 361.971 461.124 416.996 773.899 765.879 527.682 798.650 1164.553 1151.455 332.007 1129.922 526.810 1089.533 1113.125 366.229 572.186 397.505 1616.637 2264.921 1412.346 685.090 705.374 862.147 869.382 977.766 256.170 704.922 974.372 957.863 406.774 1032.480 1045.563 573.967 467.037 812.575 764.670 1611.111 1106.744 971.776 842.989 432.735 575.526 495.196 961.324 811.962 1150.451 1622.105 1568.406 810.268 1264.553 522.809 1102.311 1358.106 3676.849 638.285 1085.052 1350.314 862.799 1274.409 1023.321 1132.242 1020.295 834.785 973.025 2123.681 636.463 528.485 1541.395 1139.433 720.159 1199.178 657.022 573.732 943.666 766.425 1105.499 996.225 1133.011 1007.168 913.733 292.340 312.935 1098.636 1171.345 466.768 619.887 890.687 1654.705 1243.304 1436.275 848.211 1708.349 629.033 885.962 795.287 1065.496 1138.102 771.494 857.606 1163.907 2781.544 4017.676 1722.992 668.875 922.694 2133.980 1204.878 739.969 989.423 324.600 1636.624 945.463 965.622 1171.853 1303.387 930.600 1064.599 1550.055 1747.067 1070.229 1371.362 989.213 844.757 589.253 1097.443 3257.126 759.757 315.207 1104.336 576.595 1376.654 1299.405 265.111 1403.059 1495.644 1039.162 623.110 1410.760 895.452 1350.599 1267.212 618.224 876.666 1686.726 1332.528 1105.315 2003.815 709.459 1058.151 1077.130 684.741 1315.389 0.000 1067.770 841.059 578.195 463.218 1172.934 363.591 528.430 755.327 1184.287 1437.385 3067.001 491.106 986.764 1051.822
1115.590 1699.668 1733.084 783.856 954.129 1050.590 1099.517 577.991 974.222 892.008 1126.183 1034.081 719.338 1957.387 1444.415 435.009 769.302 1443.696 675.407 712.457 1326.647 815.204 688.836 762.543 1252.383 768.405 735.778 1130.737 540.769 526.413 1221.201 504.880 816.571 1895.645 1047.021 1264.909 729.555 751.802 1273.828 1933.235 1799.096 896.782 778.222 524.001 595.307 1515.596 1316.020 1025.092 693.885 240.495 820.649 1158.390 1533.473 731.337 933.520 1604.853 759.497 2089.550 1617.375 1858.188 1319.308 1175.443 1153.152 1381.609 1043.646 1698.374 1947.543 1279.296 1955.156 1607.360 1198.450 1409.222 1988.724 801.334 3366.274 1405.355 1971.464 1133.344 871.465 1785.040 1909.734 1929.334 297.832 1078.689 1324.993 1994.723 1025.301 1457.450 2274.069 2025.845 1041.430 1866.060 1543.435 700.774 940.912 1563.517 1386.970 948.006 1799.892 1804.260 1118.170 1352.191 953.564 1895.728 1205.759 1233.768 660.874 1312.575 2541.118 1633.668 1095.304 1734.624 2095.099 1387.262 710.139 1681.699 959.319 1944.215 1243.327 1368.237 984.578 2066.786 3674.393 1412.417 625.038 862.408 1419.222 2001.970 1608.301 258.891 1058.030 921.866 1751.575 1852.035 2058.266 1113.264 665.653 659.861 1495.170 1436.492 747.625 2038.244 1721.887 1670.150 1259.527 1764.325 2913.844 1181.645 915.718 1990.749 894.292 2263.067 2096.497 970.064 1836.355 1118.386 1836.254 930.817 1797.509 1692.544 1284.495 889.954 800.609 1546.939 1343.917 775.757 1772.197 1289.057 968.969 435.468 1963.543 992.448 1702.139 1113.289 0.000 1633.338 1464.607 1200.889 1970.026 837.999 690.366 989.122 1851.169 1824.832 2723.719 761.774 1783.855 1848.914
1297.497 485.049 1220.944 1188.159 1108.040 1344.667 966.640 1714.127 1292.078 1193.581 1389.311 845.918 1167.471 2250.557 1037.230 1461.276 1358.515 2285.628 1786.231 1581.448 517.080 1137.799 1155.116 1107.405 1549.728 1513.432 1283.466 979.231 1746.412 1410.699 1095.363 1365.708 1302.638 668.218 1888.953 546.505 1348.014 1173.333 2356.149 2328.483 2188.175 1460.918 1481.203 1445.958 1507.813 605.862 645.730 1480.750 1606.391 1555.041 1109.431 1808.308 1821.392 1349.796 1242.865 72.062 1504.524 2382.719 1880.244 1341.645 1618.818 642.787 590.604 1083.039 1737.153 1098.743 434.325 2361.617 2344.234 446.946 2040.382 1209.308 854.515 1939.964 4427.538 325.565 1400.890 1413.876 1188.298 2047.909 1351.113 663.873 1501.050 1025.924 1748.853 2899.509 813.352 1054.877 2254.388 1470.866 1495.987 550.962 1298.689 1252.738 1694.355 377.461 1881.327 1071.854 584.554 523.055 1094.314 632.141 1088.763 643.791 1947.173 481.846 1057.866 1666.516 1996.386 2019.133 2177.624 1176.002 2484.178 338.854 1622.645 1470.568 1841.324 654.123 1547.322 1633.434 1935.468 3000.681 4759.026 2473.681 1330.475 986.256 2353.116 728.374 552.691 1586.601 1100.428 1855.760 616.561 1293.414 1462.318 2079.215 1547.794 1770.685 2325.883 2497.756 1820.917 823.624 1702.206 1486.424 425.095 488.579 3998.476 1535.585 965.070 1394.801 1352.423 1667.119 601.896 918.079 2176.559 2229.768 323.036 1398.938 2186.588 487.208 2126.427 2001.336 943.723 208.719 2426.238 1914.387 500.181 2222.951 950.859 1640.010 1404.921 1460.569 2091.218 835.286 1604.974 0.000 1249.469 546.468 622.393 1084.488 1193.167 1531.156 524.729 2213.214 3808.351 1199.462 486.391 335.696
712.061 1360.014 404.937 765.234 685.114 759.231 388.219 1498.960 706.642 750.880 803.874 781.914 812.018 1493.666 473.603 1244.158 934.167 1700.192 1351.525 1161.667 1104.597 714.874 814.027 783.688 964.291 1087.477 880.585 1191.234 1531.245 1504.540 429.830 1483.007 879.712 777.122 1303.517 693.457 925.089 750.408 1915.083 2689.791 1602.739 913.016 986.832 1228.840 1222.285 1304.993 577.857 891.247 1327.275 1324.555 759.677 1222.872 1075.828 926.870 694.963 1144.230 1117.573 1625.829 1123.354 530.042 1026.911 796.899 902.753 254.109 1147.649 396.630 1482.107 1920.551 1758.798 1126.709 1454.945 364.619 676.723 1724.798 3894.336 967.788 652.583 1775.183 1250.277 1291.019 597.733 1119.234 1373.380 1235.731 1163.417 2314.073 1029.047 486.639 1497.497 697.699 906.484 1526.406 384.856 926.635 1193.155 1098.081 1295.891 1421.095 1460.238 1273.280 1306.317 635.816 665.838 1180.876 1357.669 793.996 986.579 1081.080 1239.373 1419.127 1734.720 422.622 1898.742 956.261 1213.733 316.631 1255.888 981.296 835.871 929.722 1354.299 3134.629 4316.121 1940.479 1021.778 1347.564 2487.065 1000.914 1081.532 1356.115 551.398 1989.709 834.141 540.034 746.265 1493.779 1297.292 1363.044 1740.447 1964.554 1368.674 1698.590 945.316 386.081 916.481 1424.671 3555.571 950.149 680.372 678.748 798.886 951.066 1565.517 689.981 1419.668 1731.361 1370.817 851.037 1601.152 1227.108 1540.991 1560.579 1013.027 1203.893 1985.171 1699.220 1432.543 2356.900 1134.328 1424.843 651.541 912.667 1505.781 564.420 1420.855 1172.715 0.000 790.445 1439.046 730.283 895.122 941.652 1511.515 1627.778 3365.446 844.009 1252.875 1383.478
897.583 671.752 1082.052 771.075 708.126 944.753 566.727 1279.946 892.165 793.667 989.397 391.943 717.643 1844.271 630.944 1027.096 922.041 1885.714 1352.051 1147.268 416.336 683.996 705.288 653.430 1149.814 1079.251 833.638 558.947 1312.232 1217.125 695.450 1172.134 874.792 773.153 1489.040 153.639 908.139 739.020 1921.969 2086.511 1788.261 1048.200 1040.133 1011.777 1073.633 616.731 257.813 1080.837 1172.210 1120.861 655.456 1408.395 1421.479 909.921 842.952 487.174 1070.344 1976.434 1473.959 1207.157 1218.904 188.812 198.018 676.754 1337.239 1092.175 825.051 1927.437 1944.321 484.867 1640.468 803.022 867.037 1505.784 3993.358 281.446 1329.698 1171.904 754.118 1641.624 1303.534 806.842 1123.319 603.444 1348.940 2499.596 396.760 648.592 1848.102 1374.814 1096.074 838.144 892.403 818.558 1260.175 441.024 1481.414 817.816 771.976 681.768 674.030 313.224 688.850 773.235 1547.260 105.734 623.686 1266.602 1934.918 1619.219 1743.444 1128.424 2084.264 269.920 1188.465 1064.283 1409.868 821.723 1147.409 1233.521 1501.288 2807.106 4324.845 2039.501 896.294 744.284 2159.542 879.478 485.329 1152.420 700.515 1662.186 629.083 1245.835 1452.066 1679.302 1113.614 1336.505 1925.970 2063.576 1386.737 1010.328 1295.920 1080.138 228.219 736.409 3564.296 1135.672 511.095 1384.549 950.247 1656.867 974.005 464.104 1770.273 1795.588 713.761 989.039 1786.675 570.052 1726.514 1567.156 509.542 515.631 1992.057 1480.207 744.281 2029.377 510.857 1205.830 1357.343 1050.670 1691.304 435.372 1170.794 515.659 843.183 0.000 847.533 630.512 758.987 1131.242 823.253 1813.301 3374.171 749.634 661.363 726.421
1697.047 858.545 1298.424 1587.710 1507.590 1744.217 1366.191 2112.660 1691.629 1593.131 1788.861 1245.469 1566.004 2555.272 1436.781 1859.809 1758.065 2685.178 2184.764 1979.981 930.581 1537.350 1553.649 1506.955 1949.278 1911.965 1681.999 1377.764 2144.945 1804.076 1494.914 1759.085 1702.188 752.922 2288.504 946.055 1747.565 1572.884 2754.682 2721.860 2587.725 1860.469 1880.753 1844.491 1906.346 999.239 1045.281 1880.301 2004.924 1953.574 1508.982 2207.859 2137.434 1749.346 1642.416 621.927 1903.057 2665.483 2184.959 1419.126 2018.368 1042.337 989.137 1482.590 2136.703 1176.223 445.310 2760.150 2743.785 495.092 2439.932 1608.858 931.995 2338.498 4826.071 759.090 1478.370 1807.253 1586.831 2352.624 1428.593 469.207 1894.426 1424.457 2148.404 3299.060 1211.885 1454.428 2440.824 1548.346 1895.538 727.387 1653.167 1651.271 2092.888 674.487 2280.878 1465.231 802.155 319.966 1492.847 1031.692 1488.314 389.568 2346.724 880.380 1456.400 2066.066 2073.866 2418.683 2576.158 1253.483 2883.728 862.900 2021.178 1572.586 2240.875 688.053 1946.872 2032.985 2334.002 3394.057 5157.559 2872.214 1729.008 1379.633 2746.493 495.992 739.879 1985.134 1499.979 2249.137 723.620 1370.894 1539.798 2478.766 1946.327 2169.218 2725.434 2896.289 2219.451 1086.123 2006.921 1649.638 949.141 781.009 4397.009 1935.136 1364.621 1472.281 1751.974 1744.600 274.735 1317.629 2481.274 2628.301 354.026 1798.489 2586.138 420.466 2525.978 2399.869 1342.256 743.344 2824.771 2312.920 804.392 2616.328 1349.392 2038.543 1482.402 1860.119 2490.768 1234.836 2003.507 584.309 1466.515 946.018 0.000 1484.038 1591.700 1930.706 699.429 2612.764 4206.884 1597.995 271.389 388.862
375.713 1209.678 971.557 204.656 186.255 422.882 337.991 844.742 344.806 210.078 467.526 302.839 193.682 1381.050 682.889 589.940 375.012 1362.642 845.405 626.221 909.492 124.521 181.326 129.471 627.943 558.205 309.677 644.312 877.028 863.929 459.675 842.396 319.135 1327.597 965.967 647.867 364.511 189.830 1408.963 2086.400 1265.189 490.120 497.700 574.622 603.094 1098.441 554.494 534.571 701.671 670.338 140.178 885.322 899.608 366.293 269.031 1063.848 556.996 1513.212 1008.845 1096.662 697.033 562.228 653.777 620.082 790.974 936.848 1401.724 1414.431 1421.248 1061.541 1117.396 647.695 1227.197 1070.580 3469.174 851.661 1209.938 1171.792 596.059 1176.510 1148.208 1383.516 732.769 656.263 825.867 1976.523 525.926 695.924 1588.264 1264.319 549.808 1376.070 781.908 324.053 735.991 1017.698 958.341 817.704 1309.903 1258.441 759.394 590.664 166.979 1349.909 1000.994 688.655 332.361 743.530 1779.591 1097.348 1228.600 973.097 1561.192 840.135 678.287 920.173 885.684 1398.396 674.107 760.900 977.105 2494.019 3810.001 1515.317 402.970 744.172 1846.454 1456.151 1038.293 701.897 282.732 1349.098 1205.757 1090.508 1296.739 1156.229 643.075 856.924 1402.897 1539.392 862.554 1548.254 1036.082 969.643 766.145 1274.335 3049.451 612.599 154.192 1229.223 381.625 1501.541 1550.678 208.538 1302.448 1287.969 1290.435 428.140 1263.602 1146.725 1203.441 1059.537 358.809 1053.558 1479.051 1045.002 1282.207 1716.289 495.039 770.625 1202.016 489.771 1168.232 351.762 780.244 1092.332 703.081 662.926 1424.207 0.000 240.905 584.976 1361.179 1290.228 2859.327 225.673 1238.037 1303.095
537.834 1253.140 1166.633 231.933 402.637 436.112 534.183 666.339 368.864 340.517 511.705 473.125 140.068 1375.102 879.081 411.537 256.747 1249.551 697.861 475.541 953.036 272.699 151.869 206.539 637.905 407.524 167.989 693.767 698.625 731.290 643.570 709.758 202.093 1445.725 852.876 805.833 221.340 199.878 1261.419 2111.893 1219.756 377.528 353.334 396.219 424.691 1141.984 750.686 448.506 523.268 491.935 257.468 803.851 918.995 223.122 371.570 1154.933 398.617 1507.264 1002.898 1291.738 704.830 720.193 703.232 816.274 663.509 1133.040 1497.623 1266.887 1375.816 1157.440 1004.304 843.887 1423.389 892.177 3321.630 955.435 1406.130 1208.998 575.628 1170.563 1344.400 1479.414 600.131 705.718 780.435 1863.432 575.381 892.116 1663.602 1459.395 448.441 1419.532 947.027 105.435 588.448 1113.597 912.909 867.159 1353.364 1354.340 808.849 786.856 388.230 1445.807 873.529 783.848 276.506 698.097 1975.783 1054.328 1081.056 1169.289 1515.759 937.342 527.607 1116.365 738.141 1494.295 628.849 753.759 829.561 2361.380 3662.457 1367.774 219.582 793.627 1713.816 1552.050 1158.381 523.494 499.324 1216.460 1301.655 1286.700 1492.931 1023.523 464.672 687.562 1293.849 1391.849 715.010 1591.716 1111.421 1059.683 809.606 1317.797 2901.908 567.167 350.384 1425.414 279.814 1672.931 1646.577 404.730 1257.016 1140.425 1386.333 316.340 1218.170 1242.624 1090.350 911.993 351.332 1097.019 1331.507 866.599 1325.669 1583.651 519.048 592.222 1398.208 377.970 1122.799 547.954 647.606 1183.418 899.273 750.969 1520.106 272.665 0.000 497.913 1404.641 1244.796 2711.783 148.212 1333.935 1398.994
394.367 1692.857 1049.149 502.857 562.782 238.846 708.788 975.951 320.541 452.226 241.518 839.129 498.727 1104.915 1010.364 719.495 288.504 890.445 676.734 486.876 1392.671 552.701 558.909 552.087 340.893 412.687 399.666 1127.491 1008.237 1195.213 558.028 1173.680 362.910 1607.162 493.770 1031.663 371.673 488.030 1240.292 2569.578 948.526 199.068 304.260 687.666 604.157 1581.620 916.064 94.188 664.188 826.460 610.022 417.700 648.808 339.052 427.532 1482.437 473.892 1237.077 732.711 1173.932 385.826 1086.197 1136.956 920.167 303.880 1246.488 1820.313 1245.760 1104.586 1480.130 645.199 957.335 1506.763 1156.812 3171.339 1305.994 1296.473 1654.971 1039.550 900.375 1326.485 1802.105 1064.053 1139.442 466.410 1504.326 1009.104 1023.399 1438.383 1341.589 134.485 1859.249 785.190 470.039 506.485 1436.287 536.400 1300.883 1793.081 1677.030 1242.573 969.258 612.643 1768.498 513.900 1132.202 737.394 427.379 1871.422 783.098 1059.929 1183.071 1244.529 1294.467 538.942 1195.150 532.892 1803.536 358.662 483.572 631.303 2825.302 3641.330 1217.482 487.012 1227.351 2177.738 1830.954 1416.887 858.019 477.737 1680.382 1610.897 1270.354 1430.738 684.032 692.024 688.254 934.220 1241.557 693.883 2031.433 886.201 897.845 1249.323 1757.514 2880.781 240.015 726.315 1391.799 283.262 1447.712 1969.267 765.567 985.786 1008.364 1709.024 283.202 946.939 1565.314 731.245 839.481 808.436 1536.736 1310.380 1151.513 1765.386 2047.573 978.218 901.835 1392.081 189.723 851.569 730.419 1002.653 1510.921 969.083 1128.652 1842.796 639.239 527.913 0.000 1844.358 974.077 2690.656 473.288 1656.626 1721.684
1661.278 194.373 1649.565 1477.518 1471.821 1708.448 1330.422 1970.741 1645.982 1556.824 1753.092 1136.929 1424.086 2614.338 1401.011 1717.891 1628.484 2629.578 2042.846 1838.063 691.702 1428.982 1411.731 1388.895 1913.509 1770.046 1540.081 1248.616 2003.027 1565.197 1459.144 1520.206 1581.235 1096.839 2232.903 910.286 1614.582 1445.464 2612.764 2482.981 2551.956 1754.643 1746.577 1702.573 1764.428 760.359 1009.511 1827.648 1863.006 1811.656 1400.441 2172.090 2185.173 1616.364 1605.280 545.333 1761.139 2746.500 2244.026 1770.266 1982.599 1001.979 862.693 1446.820 2043.536 1527.364 342.677 2618.232 2708.016 833.255 2384.331 1573.089 1283.135 2196.579 4684.153 689.346 1829.510 1568.373 1444.913 2411.690 1779.733 996.238 1655.547 1295.308 2112.634 3243.459 1082.736 1418.659 2618.169 1899.486 1827.584 106.699 1662.470 1509.353 1950.970 806.081 2245.108 1226.352 203.413 848.688 1302.568 995.922 1452.544 916.599 2253.556 836.932 1314.481 2030.297 2425.006 2382.914 2434.239 1604.623 2847.959 700.006 1879.260 1834.350 2100.663 1082.743 1911.103 1997.215 2192.083 3155.178 5015.640 2730.296 1587.089 1140.753 2507.614 1023.024 916.472 1843.215 1464.209 2010.258 1045.182 1722.034 1890.938 2386.045 1804.409 2027.300 2673.875 2754.371 2077.532 487.380 2065.987 1850.205 680.835 116.837 4255.091 1899.366 1256.080 1823.422 1656.690 2095.740 491.148 1209.089 2540.340 2486.383 547.034 1695.482 2550.369 860.181 2470.377 2257.951 1200.337 334.444 2682.853 2171.002 140.220 2377.449 1220.243 1896.625 1833.542 1757.113 2454.999 1199.067 1816.430 532.900 1613.250 847.049 696.138 1375.498 1449.782 1877.055 0.000 2576.995 4064.966 1456.077 804.243 517.105
1144.776 2453.482 1677.158 1309.362 1333.887 960.819 1459.197 1771.829 1123.174 1223.330 963.491 1612.761 1305.233 933.568 1760.774 1646.623 1215.631 660.324 1406.125 1391.199 2192.863 1323.806 1365.414 1352.279 840.315 1339.814 1286.899 1927.683 1916.522 2003.169 1317.002 1981.636 1216.809 2208.767 983.160 1786.925 1298.801 1294.536 1983.355 3369.770 448.779 1126.196 1231.387 1614.793 1508.480 2381.812 1671.325 1000.209 1568.510 1734.375 1381.126 902.515 890.103 1266.179 1198.636 2237.698 1401.020 1065.731 980.020 1761.598 793.649 1864.915 1937.148 1670.577 949.613 1909.866 2575.575 1732.352 492.336 2235.392 949.743 1707.745 2108.367 1899.875 2622.717 2061.256 1884.139 2455.163 1847.506 935.531 1958.280 2550.878 1872.009 1939.634 791.432 1049.102 1809.296 1773.809 1415.051 1929.255 1109.643 2619.874 1520.300 1327.439 1402.051 2191.549 521.355 2101.075 2553.706 2432.292 2042.765 1724.520 1363.052 2523.759 1078.385 1887.464 1548.384 819.956 2244.227 654.823 1725.798 1805.177 571.990 2049.729 1443.265 1945.560 1256.634 2412.941 1058.136 935.245 1145.631 3633.258 3889.516 1091.644 1414.140 2027.543 2985.694 2432.558 2172.149 1765.934 1228.147 2488.338 2265.786 1902.149 2018.404 1057.000 1596.347 1417.644 679.143 1619.079 1492.179 2792.058 1401.497 1632.956 2009.949 2518.139 3618.827 947.822 1476.725 2010.481 1087.124 1772.184 2724.529 1520.829 812.536 1514.205 2464.285 1162.403 485.482 2320.576 823.249 1438.206 1623.210 2297.361 2038.787 1923.715 2526.011 2855.529 1778.410 1810.119 2023.875 1139.358 460.551 1485.680 1919.484 2266.183 1719.493 1883.913 2598.058 1410.344 1335.869 1031.315 2604.983 0.000 3428.702 1279.793 2411.887 2476.946
2936.434 3887.203 3565.233 2811.978 2860.377 2819.038 3063.241 2415.808 2767.464 2749.821 2853.547 3126.628 2782.500 3495.605 3408.139 2509.424 2566.781 2892.888 2118.784 2386.598 3587.098 2850.296 2838.767 2839.586 2968.998 2384.885 2666.913 3327.829 2666.612 3135.046 3042.170 3113.513 2642.614 4052.847 2496.213 3381.228 2577.903 2795.933 1985.959 4541.868 3337.314 2584.640 2442.427 2528.702 2478.148 3776.047 3265.628 2706.217 2449.898 2812.245 2897.692 2607.582 3228.786 2582.612 2763.983 3788.996 2498.791 3627.768 3344.739 3690.337 3013.931 3359.586 3337.295 3341.304 2702.396 3662.098 4131.685 1722.314 3493.373 3791.502 2647.641 3372.945 3952.447 2182.281 2776.186 3589.498 3812.879 3741.978 3209.690 3497.568 3829.997 4113.477 2906.466 3339.781 2929.814 2987.214 3209.443 3421.174 3977.088 3857.994 2722.555 4053.594 3329.953 2737.285 2456.659 3747.659 2925.188 3501.221 3987.427 3988.402 3442.912 3312.019 2910.880 4079.870 2654.950 3417.911 2910.569 3023.125 4479.567 3171.886 1953.762 3698.347 3633.317 3571.404 2438.664 3616.287 2374.862 4128.357 2970.691 3095.601 2413.766 2844.778 1422.652 2525.230 2620.538 3427.690 3663.156 4186.112 3759.648 2830.642 2897.924 3530.499 3935.718 3773.866 3947.144 2562.455 2392.602 2159.620 2944.361 1953.255 2247.584 4225.779 3494.346 3442.609 3443.669 3951.859 352.525 2878.918 3021.947 3895.310 2678.414 4055.857 4280.639 3076.293 3374.573 2104.659 4020.396 2668.249 3335.727 3876.686 2733.687 2238.154 2985.389 3731.082 1578.646 2265.319 3959.731 3803.847 3153.111 2560.209 3895.593 2709.310 3240.357 3073.117 2772.022 3817.480 3390.220 3385.032 4154.168 2936.834 2731.411 2670.247 4038.703 3363.049 0.000 2760.786 3967.998 4033.056
493.234 1288.441 1122.032 137.510 335.332 404.898 513.831 721.996 324.263 273.211 480.491 434.713 44.678 1343.888 858.729 469.145 218.127 1229.207 688.112 464.742 988.255 188.650 125.650 147.671 606.691 396.725 129.724 723.074 754.281 794.398 598.969 772.866 170.879 1469.380 832.533 767.420 204.225 105.455 1251.670 2165.162 1188.542 344.287 336.220 453.827 448.508 1177.203 730.334 417.292 553.498 548.200 205.777 773.347 887.781 206.007 304.265 1183.401 395.516 1476.050 971.684 1247.137 673.616 681.781 732.540 795.922 643.165 1112.688 1521.277 1257.138 1344.602 1181.094 983.961 823.535 1403.037 947.833 3311.881 971.214 1369.678 1250.555 635.629 1139.348 1324.048 1503.069 663.239 735.025 749.221 1843.089 604.688 871.764 1632.388 1414.794 417.227 1454.832 915.813 124.079 578.698 1137.251 881.695 896.466 1388.665 1377.994 838.157 766.504 335.542 1469.462 853.186 808.208 332.135 666.883 1955.431 1023.114 1071.307 1148.937 1484.545 959.688 516.808 1096.013 728.391 1517.949 597.635 722.545 819.812 2424.488 3652.708 1358.024 232.760 822.935 1776.924 1575.704 1171.109 579.760 431.932 1279.568 1325.310 1266.348 1472.579 1009.225 525.001 699.632 1273.505 1382.099 705.261 1627.017 1080.206 1028.469 844.907 1353.097 2892.159 535.953 330.032 1405.063 248.600 1641.717 1670.231 384.378 1225.802 1130.676 1409.988 285.126 1186.955 1266.278 1070.007 902.244 403.176 1132.320 1321.758 922.256 1360.970 1646.759 573.802 647.879 1377.856 346.756 1091.585 527.602 710.714 1211.885 878.921 780.277 1543.760 252.313 149.695 466.699 1439.941 1213.581 2702.034 0.000 1357.590 1422.648
1454.031 766.003 1063.256 1344.693 1264.573 1501.201 1123.174 1869.643 1448.612 1350.115 1545.844 1002.452 1322.988 2320.103 1193.764 1616.793 1515.049 2442.162 1941.748 1736.965 746.978 1294.333 1310.632 1263.939 1706.261 1668.948 1438.983 1134.748 1901.929 1620.473 1251.897 1575.482 1459.172 509.906 2045.487 703.038 1504.548 1329.867 2511.666 2538.257 2344.709 1617.452 1637.737 1601.474 1663.330 815.635 802.264 1637.284 1761.907 1710.558 1265.965 1964.842 1902.265 1506.330 1399.399 445.051 1660.041 2430.314 1949.791 1183.957 1775.351 799.321 746.120 1239.573 1893.687 941.055 475.991 2517.134 2500.768 252.075 2196.915 1365.842 696.827 2095.481 4583.054 516.073 1243.202 1623.649 1343.815 2117.456 1193.425 384.261 1710.823 1181.440 1905.387 3056.043 968.868 1211.411 2205.656 1313.178 1652.521 827.032 1417.998 1408.255 1849.871 431.470 2037.861 1281.628 866.227 48.578 1249.830 788.675 1245.297 364.178 2103.707 637.363 1213.383 1823.050 1838.698 2175.666 2333.141 1018.314 2640.712 686.024 1778.162 1337.417 1997.858 495.810 1703.856 1789.968 2090.985 3210.454 4914.542 2629.197 1485.991 1196.029 2562.890 456.897 496.863 1742.117 1256.962 2065.534 480.604 1135.725 1304.630 2235.749 1703.311 1926.202 2482.417 2653.273 1976.434 1104.579 1771.752 1414.469 766.835 781.137 4153.992 1692.119 1121.604 1237.113 1508.957 1509.431 456.906 1074.613 2246.105 2385.284 322.084 1555.472 2343.122 149.077 2282.961 2156.853 1099.239 586.875 2581.754 2069.903 792.738 2432.725 1106.375 1795.527 1247.233 1617.103 2247.751 991.819 1760.491 418.439 1231.347 703.001 288.297 1241.021 1348.683 1687.690 799.074 2369.748 3963.868 1354.979 0.000 356.919
1533.119 654.135 1269.708 1423.782 1343.662 1580.289 1202.263 1949.749 1527.700 1429.203 1624.933 1081.540 1403.093 2486.179 1272.852 1696.898 1594.137 2521.250 2021.854 1817.071 684.391 1373.422 1390.738 1343.027 1785.350 1749.054 1519.088 1214.854 1982.035 1557.886 1330.985 1512.895 1538.260 806.068 2124.576 782.127 1583.636 1408.955 2591.772 2475.670 2423.797 1696.541 1716.825 1681.580 1743.435 753.048 881.353 1716.373 1842.013 1790.663 1345.053 2043.931 2057.014 1585.418 1478.487 375.737 1740.146 2618.341 2115.867 1390.409 1854.440 878.409 826.226 1318.662 1972.775 1147.507 192.632 2597.240 2579.857 436.796 2276.004 1444.930 903.278 2175.587 4663.160 561.187 1449.653 1561.062 1423.920 2283.532 1399.876 653.382 1648.236 1261.546 1984.476 3135.132 1048.974 1290.500 2412.108 1519.629 1731.610 543.674 1534.311 1488.360 1929.977 555.707 2116.950 1219.041 618.442 422.592 1295.257 867.763 1324.386 633.299 2182.796 717.469 1293.489 1902.138 2045.149 2254.755 2413.247 1224.766 2719.800 616.710 1858.267 1543.869 2076.947 791.972 1782.944 1869.057 2171.091 3147.867 4994.648 2709.303 1566.097 1133.442 2500.303 726.018 681.584 1822.223 1336.050 2002.947 665.325 1342.177 1511.082 2314.838 1783.416 2006.307 2561.505 2733.378 2056.540 902.410 1937.828 1620.921 702.950 597.296 4234.098 1771.207 1200.692 1443.565 1588.046 1715.883 360.203 1153.701 2412.181 2465.390 67.088 1634.561 2422.210 455.918 2362.050 2236.958 1179.345 497.153 2661.860 2150.009 620.679 2370.138 1186.481 1875.632 1453.685 1696.191 2326.840 1070.908 1809.119 338.119 1437.798 782.090 399.437 1320.110 1428.789 1766.778 515.716 2448.836 4043.973 1435.085 381.413 0.000
NODE_COORD_SECTION
1 4399.565583 12437.166951
2 -15195.996534 33128.356894
3 13712.647786 28917.030646
4 -560.630142 11114.788014
5 1440.741288 13391.985859
6 6598.813603 10677.062978
7 3014.461181 18529.243339
8 -7627.168327 -3048.845031
9 4208.435943 10673.873187
10 1590.447936 12165.341522
11 7924.046943 10640.519659
12 -3665.669345 17705.652013
13 -1427.888476 10191.733604
14 25686.369481 10417.759606
15 3521.138492 24773.601529
16 -6643.305765 970.676971
17 458.492702 7016.877767
18 14283.814357 -3146.932994
19 -476.223949 -2978.573254
20 18.504651 1431.985718
21 -12689.048911 25080.271716
22 -321.092928 12175.580709
23 -2280.848328 10996.277371
24 -1731.322192 12245.155903
25 9291.338133 8987.000985
26 437.563306 2816.855250
27 -827.868734 8033.650890
28 -12437.648826 15912.319998
29 -11222.917439 -873.605257
30 -15701.627333 4415.460313
31 6002.265477 17430.193848
32 -15559.218521 3626.006295
33 778.290613 8970.552908
34 3361.838292 35370.844852
35 8230.707427 -347.605778
36 -4405.970916 24383.518312
37 -582.571795 6476.704006
38 -619.359536 10813.351002
39 -5319.019652 -11221.353646
40 -30430.236427 6612.997048
41 24442.175203 -1317.084936
42 3199.019698 7064.221474
43 1439.127591 4621.489376
44 -5098.857959 2061.343339
45 -2703.083885 1524.019949
46 -15076.294692 26397.407678
47 -1722.840757 23413.862596
48 6954.918818 8074.723876
49 -2431.017328 849.355500
50 -8872.315302 3618.162740
51 -945.101037 12359.459197
52 9497.388973 1677.774178
53 16483.085233 9188.738190
54 134.181313 6551.470718
55 2329.013086 12054.535863
56 -8591.268380 30587.165087
57 -864.695549 3203.344348
58 28033.902809 11822.607606
59 18887.064694 10449.588974
60 15824.765957 29596.916708
61 11486.380248 8126.358381
62 -5294.789621 22204.205349
63 -8632.485653 22011.740953
64 6574.404919 22868.532714
65 7643.835890 3061.378451
66 10647.361087 30551.192024
67 -11628.209572 35951.723905
68 1136.703354 -13538.075765
69 26971.319578 -1727.360210
70 -4134.519333 32423.047764
71 9564.623896 -2372.476329
72 9132.823278 25566.225594
73 6344.012006 34126.000118
74 -4958.582743 -6287.386505
75 19237.791878 -37873.729054
76 -6417.013076 27687.939336
77 16960.744399 30731.102242
78 -16873.557210 9973.959408
79 -10417.823086 11178.181468
80 21377.791998 10365.581655
81 15166.678408 33845.944018
82 -1497.489966 38308.468407
83 -12830.951718 3775.653557
84 -12316.600280 15478.923923
85 12629.936772 5605.136900
86 15186.283954 -11078.747134
87 -9883.992861 17425.148255
88 3839.963343 25055.856985
89 30630.180805 17989.641099
90 17417.951934 30147.392229
91 5043.795363 7591.013132
92 -16100.516514 34382.150343
93 11626.429627 20418.145338
94 -2305.587795 8225.792717
95 1245.308076 2341.297428
96 -5330.418074 30460.140635
97 16646.562991 2970.473000
98 -14444.123940 12500.763545
99 -16242.188183 34001.973022
100 -5430.720164 35831.218811
101 -13875.098939 16077.546427
102 -2229.055021 23955.296126
103 1335.331614 13954.684768
104 -2590.461115 38525.803318
105 7447.676970 834.854407
106 -6982.530985 23639.085939
107 -5895.501250 11291.067859
108 13761.834889 6044.172347
109 29166.000056 35835.725731
110 20154.740853 5148.175890
111 1026.389612 -10081.050431
112 12771.634491 31248.254119
113 31087.449655 -968.117922
114 -8355.080305 27168.989278
115 -894.950684 1812.326326
116 8225.037554 27723.172338
117 3890.385182 -1790.775604
118 1451.324324 37452.613084
119 9992.285305 11695.783372
120 13625.125052 11315.218954
121 4572.355700 -3190.762095
122 -24081.410788 -16175.228784
123 12424.306985 -38321.628370
124 9609.817384 -8419.903451
125 -2908.765877 6058.826292
126 -16230.274544 12738.929312
127 -29916.266407 -6135.915559
128 -179.272595 38854.315431
129 -1238.078158 29603.771745
130 -9038.902183 4479.396043
131 2830.589889 14223.817046
132 -24702.438147 -1475.061857
133 1445.840056 33945.840303
134 15546.273191 33166.279581
135 18255.892242 31290.729710
136 8648.540471 -2988.823079
137 -3713.062886 1090.944639
138 -623.561656 -2682.292001
139 14491.526841 -2275.660390
140 4905.709963 -13362.088747
141 92.447024 -2179.733095
142 -21741.747050 32468.066807
143 16856.324310 15018.666373
144 14324.666848 23143.522769
145 -9373.108668 25880.132112
146 -15504.422817 33889.323943
147 -7401.635848 -40012.939061
148 9428.950000 8051.706141
149 -1736.784695 15288.321579
150 18390.740597 32892.755902
151 3257.280099 9980.881303
152 24012.368572 28738.462759
153 -10114.436103 38191.237613
154 -2021.856111 16352.617270
155 23202.212371 9137.952163
156 2815.149158 -8739.661626
157 -8823.852363 34807.341806
158 3468.172184 8551.248573
159 24098.407810 -825.134760
160 -4939.183402 34676.032238
161 11819.371554 -2275.964574
162 1991.116467 -5985.544676
163 -6957.208803 13593.809678
164 -12068.756781 30441.792188
165 -1898.880044 -14582.577348
166 -7286.151784 -5549.473035
167 -15270.203117 33751.339576
168 -30864.114309 -4790.335538
169 -9524.298161 14971.780905
170 -9068.682390 1563.139968
171 15975.489799 35520.813938
172 4141.859173 8424.531001
173 21930.174996 1397.146996
174 114.773844 18856.913005
175 -11388.221177 3402.344108
176 -8937.748026 31088.905028
177 9826.932704 24445.074657
178 -6648.649606 23666.491269
179 -7880.350829 38040.688239
180 -1054.905260 13467.078476
181 -3159.034324 8715.676600
182 6522.722417 7057.338678
183 -15414.256590 34950.266705
184 22393.088116 -3151.736334
185 -9808.720006 -37819.362722
186 -1398.274938 9721.269530
187 -5480.670508 36323.109863
188 -8998.917413 35016.060439
DEMAND_SECTION
1 0
2 34
3 58
4 60
5 66
6 17
7 46
8 56
9 85
10 79
11 89
12 83
13 78
14 24
15 89
16 10
17 34
18 51
19 63
20 50
21 58
22 91
23 54
24 60
25 86
26 66
27 87
28 59
29 89
30 18
31 24
32 50
33 58
34 53
35 20
36 97
37 31
38 5
39 97
40 37
41 81
42 63
43 80
44 77
45 100
46 24
47 100
48 60
49 29
50 76
51 67
52 33
53 72
54 33
55 46
56 60
57 58
58 23
59 76
60 37
61 33
62 8
63 72
64 61
65 73
66 16
67 26
68 87
69 19
70 8
71 64
72 40
73 34
74 79
75 54
76 72
77 16
78 71
79 43
80 78
81 100
82 29
83 89
84 84
85 93
86 4
87 54
88 25
89 98
90 45
91 76
92 15
93 82
94 23
95 40
96 11
97 66
98 89
99 28
100 62
101 21
102 87
103 30
104 27
105 59
106 62
107 96
108 85
109 66
110 71
111 84
112 75
113 66
114 66
115 80
116 66
117 94
118 45
119 61
120 79
121 66
122 64
123 11
124 1
125 95
126 25
127 37
128 33
129 92
130 20
131 49
132 13
133 65
134 50
135 64
136 83
137 25
138 86
139 30
140 62
141 52
142 10
143 61
144 13
145 71
146 37
147 31
148 88
149 80
150 12
151 55
152 68
153 12
154 35
155 87
156 18
157 90
158 63
159 99
160 89
161 56
162 36
163 10
164 42
165 49
166 65
167 56
168 20
169 87
170 95
171 26
172 25
173 90
174 64
175 73
176 1
177 27
178 100
179 52
180 5
181 63
182 71
183 87
184 31
185 19
186 76
187 18
188 11
DEPOT_SECTION
1
-1
EOF
