NAME : mamut-athens-n105-k7-poi
COMMENT : Mamut2026 fastest metric; city athens; No of trucks: 7 (lower bound, fleet not fixed); 3-decimal seconds/meters; ENU ref in mamut-athens-n105-k7-poi.vrp.json
TYPE : CVRP
DIMENSION : 106
EDGE_WEIGHT_TYPE : EXPLICIT
EDGE_WEIGHT_FORMAT : FULL_MATRIX
CAPACITY : 181
EDGE_WEIGHT_SECTION
0.000 295.270 242.696 228.311 506.472 396.526 206.203 278.845 619.347 362.448 633.402 196.402 1552.824 549.476 144.378 604.414 207.486 520.703 423.283 263.839 145.649 175.407 1011.364 159.008 602.297 583.278 629.468 156.755 274.614 193.039 738.923 274.202 160.868 606.996 209.993 603.175 168.793 532.586 312.025 309.245 235.892 343.643 218.456 491.550 299.503 249.134 457.458 500.280 573.476 389.727 610.053 613.826 372.497 251.628 419.080 196.557 381.930 259.679 459.895 255.386 241.971 460.213 256.557 232.344 224.411 393.748 164.552 635.727 463.944 273.679 202.720 376.703 322.556 311.373 518.218 422.900 780.950 523.158 558.818 121.800 167.425 615.710 315.835 447.565 575.297 308.063 271.123 349.871 614.838 2048.960 368.332 352.857 234.758 590.937 318.533 289.856 671.923 782.328 292.495 444.075 454.248 272.371 145.264 204.284 489.918 639.672
276.846 0.000 107.004 92.619 282.365 500.261 261.019 389.480 683.748 442.295 517.260 300.136 1655.412 325.369 187.234 488.273 262.302 334.803 157.646 214.182 191.129 337.108 787.257 156.217 706.031 317.641 424.314 193.688 368.537 135.954 514.816 138.510 222.406 401.843 167.807 398.021 173.091 416.445 415.759 346.178 100.199 176.663 168.004 375.409 393.615 303.950 407.006 524.006 387.576 124.091 385.945 408.672 322.045 173.063 226.426 226.682 446.332 28.655 194.258 292.319 184.886 324.521 293.490 287.160 173.959 128.111 129.424 682.029 567.678 375.285 152.268 425.166 151.738 361.886 621.952 198.793 556.843 337.258 372.918 188.132 228.964 719.444 341.793 573.130 678.476 485.338 223.811 414.272 409.684 2018.720 168.014 456.591 90.801 363.582 422.267 354.257 540.439 558.221 203.030 178.438 188.611 24.668 207.738 147.199 540.431 434.518
225.336 111.733 0.000 44.774 322.935 487.252 209.508 337.969 670.740 390.784 516.703 287.127 1603.902 365.939 174.225 487.716 210.792 404.005 239.746 162.671 178.121 285.598 827.827 104.706 693.023 399.741 506.414 142.178 317.026 84.444 555.386 90.665 209.398 483.942 116.296 480.121 160.083 415.888 402.751 294.668 52.355 213.010 116.494 374.852 342.104 252.439 355.496 472.495 456.778 206.190 426.516 490.772 270.534 105.426 266.996 213.673 433.323 76.142 276.358 240.809 125.273 276.676 241.979 235.649 122.449 210.211 77.913 630.518 554.669 323.774 100.757 373.655 205.857 310.375 608.943 239.363 597.413 406.460 442.120 136.621 215.955 706.436 290.282 521.619 665.467 433.828 214.082 401.264 491.784 1967.210 206.557 443.582 63.628 445.682 409.259 341.249 555.224 598.791 175.796 260.538 270.711 88.834 156.227 93.912 488.921 516.618
259.999 109.810 36.003 0.000 321.012 501.900 244.172 372.633 685.388 425.448 545.514 301.776 1638.565 364.017 188.874 516.527 245.455 414.980 237.823 197.335 192.769 320.261 825.904 139.369 707.671 397.818 504.491 176.841 351.690 119.107 553.463 67.509 224.046 482.020 150.960 478.198 174.731 444.699 417.399 329.331 47.437 211.353 151.157 403.663 376.768 287.103 390.159 507.158 467.753 204.268 424.593 488.849 305.198 137.067 265.073 228.322 447.971 74.219 274.435 275.472 154.084 239.007 276.643 270.313 157.112 208.288 112.577 665.181 569.318 358.438 135.421 408.318 231.915 345.039 623.592 237.441 595.490 417.435 453.095 171.284 230.603 721.084 324.946 556.283 680.115 468.491 228.730 415.912 489.861 2001.873 204.634 458.231 82.523 443.759 423.907 355.897 584.035 596.869 204.607 258.615 268.788 86.911 190.890 129.860 523.584 514.695
493.255 296.884 323.412 309.027 0.000 668.972 477.427 605.888 679.887 658.703 770.028 468.847 1825.270 56.475 386.654 741.041 478.711 587.571 412.941 430.590 390.549 553.517 634.918 372.625 874.742 366.607 677.403 410.097 584.945 352.363 329.559 354.918 421.826 654.931 384.215 651.110 372.511 669.213 564.853 562.587 316.608 259.716 384.413 628.177 610.023 520.358 623.415 740.414 640.344 379.385 233.607 661.761 538.453 389.471 177.772 389.773 571.772 261.293 410.421 508.728 401.294 540.929 509.898 503.568 390.368 381.200 345.832 898.437 736.389 591.693 368.676 641.574 404.506 578.294 700.043 198.208 404.504 590.026 625.686 404.540 428.384 888.156 558.201 786.909 641.373 675.119 366.947 440.468 662.773 2235.129 245.822 612.368 307.209 616.671 590.978 479.698 793.528 405.883 451.818 419.928 412.305 273.985 424.146 363.607 756.840 687.607
373.883 514.417 472.548 458.163 670.044 0.000 407.888 357.957 435.681 334.877 897.262 205.820 1177.574 713.049 339.033 868.275 421.310 811.989 637.359 562.361 342.929 352.408 1210.604 457.531 227.047 797.354 901.821 488.665 386.999 491.562 938.163 504.054 303.361 879.349 486.199 875.528 341.206 796.447 213.696 453.201 465.744 516.056 516.979 755.411 378.614 424.327 695.113 666.421 864.762 603.804 809.293 886.179 610.152 536.323 591.492 335.792 297.811 478.826 673.971 491.963 540.494 690.065 414.619 425.972 522.934 605.618 463.075 426.818 88.693 367.101 501.242 364.307 621.078 364.274 198.924 622.140 980.190 814.444 850.104 460.638 309.919 240.460 525.320 175.745 256.004 284.683 443.535 446.331 887.191 1895.617 540.745 248.239 432.261 841.089 213.916 290.146 935.783 981.568 591.017 658.151 668.324 491.519 412.988 502.806 279.135 912.025
195.562 265.203 212.630 198.245 476.406 396.360 0.000 128.461 728.760 181.276 572.784 305.815 1407.437 519.410 202.803 543.797 13.422 490.637 393.216 233.773 204.075 76.089 981.298 128.942 602.130 553.212 599.402 107.871 107.518 162.973 708.857 244.136 264.216 576.930 188.673 573.108 227.219 471.969 384.339 137.456 205.826 359.952 188.390 430.933 132.596 42.931 370.636 350.675 543.410 359.661 579.986 583.760 285.674 221.562 420.467 278.359 477.374 229.612 429.828 94.555 211.905 430.147 59.680 26.141 194.345 363.682 134.486 429.524 463.777 114.266 172.653 170.500 292.489 105.170 515.170 392.834 750.884 493.092 528.752 98.936 270.773 575.652 200.842 328.192 572.250 224.319 329.548 459.284 584.772 1877.170 360.028 418.882 204.692 560.871 384.558 399.269 611.305 752.262 262.428 414.009 424.182 242.305 185.890 174.218 283.716 609.606
273.117 393.014 340.440 326.056 604.216 362.287 127.811 0.000 699.772 106.076 682.564 328.818 1442.087 647.221 328.956 653.577 141.232 618.448 521.027 361.583 331.886 125.569 1109.108 256.752 568.057 681.022 727.212 233.964 45.173 290.784 836.668 371.946 293.284 704.741 316.483 700.919 331.128 581.748 350.265 208.129 333.636 487.763 316.201 540.713 20.658 100.393 480.415 421.349 671.221 487.472 707.797 711.570 395.454 349.372 548.277 328.973 443.301 357.423 557.639 220.006 339.715 557.958 152.403 113.737 322.156 491.492 262.297 478.192 429.704 25.275 300.464 219.167 420.300 153.838 481.097 520.645 878.694 620.903 656.562 226.746 299.841 581.470 310.622 315.413 538.176 97.727 433.458 482.287 712.582 1947.844 487.839 384.809 332.502 688.682 350.485 422.272 721.085 880.073 390.239 541.819 551.992 370.116 313.701 302.028 318.366 737.416
612.913 714.632 672.762 658.378 692.874 460.427 727.169 702.856 0.000 679.026 1132.558 480.944 1616.726 735.878 539.668 1103.571 740.030 1012.204 837.573 762.996 543.563 671.689 1012.467 658.165 666.198 997.569 1102.036 689.299 731.899 692.196 1008.962 704.269 542.671 1079.564 686.833 1075.742 541.420 1031.743 418.035 841.789 665.958 716.270 717.613 990.707 723.514 765.098 956.615 1025.133 1064.976 804.018 913.011 1086.394 871.654 736.537 741.813 493.564 297.504 679.041 874.186 787.930 741.128 890.280 781.847 745.253 723.568 805.833 663.709 826.520 527.845 712.000 701.877 764.009 821.712 730.229 459.292 822.355 1083.908 1014.659 1050.318 661.273 549.229 679.611 840.688 575.447 389.379 628.832 631.889 460.972 1087.406 2295.319 740.959 364.176 632.475 1041.304 434.577 349.595 1171.080 1085.286 791.651 858.366 868.539 691.733 613.622 703.441 678.836 1112.240
349.552 452.246 399.673 385.288 663.448 328.858 187.043 103.960 656.600 0.000 739.770 302.696 1368.464 706.453 389.846 710.783 200.464 677.680 580.259 420.815 391.118 214.740 1168.340 315.985 534.629 740.254 786.444 293.196 144.187 350.016 895.900 431.179 369.719 763.973 375.715 760.151 407.564 638.955 307.092 251.573 392.868 546.995 375.433 597.919 95.043 159.625 537.622 464.793 730.453 546.704 767.029 770.802 452.660 408.605 607.509 405.408 400.128 416.655 616.871 279.238 398.947 617.190 211.635 172.969 381.388 550.724 321.529 414.393 396.275 129.235 359.696 197.658 479.532 144.944 447.668 579.877 937.926 680.135 715.795 285.979 376.277 536.679 367.828 241.790 504.748 58.863 509.893 542.982 771.814 1917.227 547.071 341.636 391.735 747.914 307.312 383.543 778.291 939.305 449.471 601.051 611.224 429.348 372.933 361.260 244.743 796.649
597.781 528.893 494.107 484.985 743.052 884.444 524.444 647.903 1103.824 700.718 0.000 710.344 1836.596 786.056 571.202 44.886 537.865 239.912 471.655 488.134 572.473 596.420 1132.727 477.151 1087.845 536.858 302.322 499.349 626.960 456.889 942.307 497.351 632.614 266.891 508.061 276.028 595.617 130.196 825.967 536.076 492.565 653.221 446.104 208.784 652.038 562.373 372.614 602.979 291.357 496.843 813.436 273.721 325.255 487.054 687.113 646.757 866.407 516.352 517.538 483.348 397.498 659.278 513.918 545.583 437.242 431.855 450.359 863.212 948.313 633.708 447.037 606.349 422.853 582.314 1003.254 659.480 879.809 284.614 287.784 509.066 639.172 1004.811 476.300 754.313 1060.334 744.650 654.292 834.348 287.692 1719.427 628.701 866.799 503.839 352.392 832.475 774.333 81.341 906.234 363.815 532.251 542.424 529.045 554.288 418.086 729.141 312.526
176.494 317.028 275.158 260.774 472.655 204.403 290.750 312.291 471.419 307.044 734.535 0.000 1360.701 515.659 141.644 705.547 304.171 614.600 439.969 364.972 145.539 235.270 1013.215 260.141 410.173 599.965 704.432 291.275 327.022 294.172 740.774 306.664 105.972 681.960 288.809 678.138 143.816 633.719 115.623 423.203 268.354 318.666 319.589 592.683 332.948 328.679 558.591 627.110 667.372 406.414 611.903 688.790 473.630 338.933 394.103 138.403 214.948 281.437 476.581 382.946 343.104 492.676 345.427 308.833 325.544 408.229 265.685 573.414 271.820 307.124 303.853 410.960 423.689 358.247 323.152 424.751 782.800 617.055 652.714 263.249 112.529 423.586 442.665 322.340 379.019 256.850 246.145 240.511 689.802 2042.212 343.355 156.455 234.871 643.700 122.131 146.928 773.056 784.179 393.628 460.762 470.935 294.129 215.598 305.417 425.730 714.636
1497.898 1638.432 1596.563 1582.178 1794.059 1143.103 1397.363 1438.876 1559.696 1356.177 1838.184 1329.834 0.000 1837.063 1463.048 1809.197 1410.785 1786.171 1761.373 1540.382 1466.943 1469.340 2334.619 1522.080 1051.165 1921.369 1894.935 1446.843 1431.874 1533.736 2062.178 1626.688 1427.376 1872.464 1581.794 1868.642 1465.220 1737.368 1337.711 1394.123 1589.758 1640.070 1544.135 1696.333 1436.839 1368.429 1636.035 1607.343 1838.944 1727.818 1933.307 1879.293 1551.074 1608.863 1715.507 1459.807 1421.825 1602.841 1797.986 1432.885 1582.668 1814.080 1355.541 1390.193 1556.322 1729.633 1516.715 1324.737 1105.277 1438.622 1536.719 1298.168 1663.252 1300.345 1298.482 1746.155 2104.205 1788.626 1824.286 1496.299 1433.933 921.073 1466.242 1208.510 1380.018 1390.887 1567.550 1570.346 1880.305 2832.171 1664.759 1372.254 1556.275 1856.405 1337.930 1414.161 1876.705 2105.583 1633.191 1782.166 1792.339 1615.533 1537.003 1544.981 1164.423 1905.139
551.071 354.701 381.229 366.844 60.404 727.033 535.244 663.705 737.948 716.520 827.845 526.908 1883.331 0.000 444.471 798.858 536.528 645.388 470.757 488.407 448.366 611.334 647.148 430.442 932.803 378.837 735.220 467.913 642.762 410.180 341.789 412.735 479.643 712.748 442.032 708.926 430.328 727.030 622.914 620.403 374.425 317.533 442.229 685.994 667.840 578.175 681.231 798.231 698.161 437.202 245.837 719.578 596.270 447.288 235.833 447.833 629.833 319.110 468.238 566.544 459.111 598.746 567.715 561.385 448.184 439.017 403.649 956.254 794.450 649.510 426.493 699.391 462.323 636.111 758.104 248.669 416.734 647.843 683.503 462.357 486.201 946.216 616.018 844.970 699.434 733.180 425.008 498.529 720.590 2292.945 303.639 670.428 365.026 674.488 649.039 537.758 851.345 418.113 509.635 477.745 470.122 331.802 481.963 421.424 814.657 745.424
158.118 237.479 195.609 181.225 428.773 377.047 236.307 353.304 572.473 417.583 630.119 176.922 1533.345 471.778 0.000 601.132 237.591 517.421 360.420 260.556 41.123 276.284 933.666 155.725 582.818 520.416 624.883 186.860 343.825 189.757 661.225 227.116 99.193 602.411 184.394 598.589 64.267 529.303 292.546 339.349 188.805 239.117 215.173 488.268 368.904 279.238 454.175 522.694 570.193 326.865 532.354 609.241 369.214 248.345 314.554 115.407 335.057 201.888 397.033 285.491 238.688 413.127 286.661 262.448 221.128 328.680 161.269 665.832 444.464 348.138 199.437 406.807 319.273 341.477 498.738 345.202 703.252 519.876 555.535 158.833 76.044 596.231 338.249 494.985 555.818 382.522 166.597 302.997 610.253 2065.889 263.806 333.377 155.322 564.151 299.054 242.982 668.640 704.630 289.212 381.213 391.386 214.580 111.183 201.001 520.023 635.087
598.947 530.059 495.273 486.150 744.218 885.610 525.610 649.069 1104.989 701.883 72.954 711.510 1837.761 787.222 572.368 0.000 539.031 241.078 472.820 489.300 573.639 597.586 1133.892 478.317 1089.011 538.024 303.488 500.514 628.126 458.055 943.472 498.517 633.780 268.057 509.227 277.194 596.783 131.362 827.133 537.242 493.731 654.386 447.270 209.950 653.204 563.538 373.780 604.145 292.523 498.009 814.602 274.886 326.420 488.220 688.279 647.923 867.573 517.518 518.704 484.514 398.664 660.444 515.084 546.748 438.408 433.021 451.525 864.378 949.479 634.874 448.203 607.514 424.019 583.480 1004.420 660.646 880.974 285.779 288.950 510.232 640.337 1005.977 477.466 755.479 1061.500 745.816 655.458 835.514 288.858 1749.560 629.867 867.965 505.005 353.558 833.641 775.498 111.475 907.400 364.980 533.417 543.590 530.210 555.454 419.252 730.307 313.692
213.760 283.401 230.827 216.442 494.603 405.303 18.197 146.025 737.703 198.840 590.982 314.757 1425.001 537.608 221.001 561.994 0.000 508.835 411.414 251.970 222.272 85.032 999.495 147.139 611.073 571.409 617.599 126.069 122.083 181.171 727.054 262.333 279.223 595.128 206.870 591.306 245.416 490.166 393.281 155.020 224.023 378.149 206.587 449.130 150.160 60.495 388.833 368.240 561.607 377.859 598.184 601.957 303.872 239.759 438.664 296.556 486.317 247.810 448.026 112.752 230.102 448.344 77.244 40.650 212.542 381.879 152.683 447.089 472.720 128.831 190.851 188.064 310.687 122.734 524.113 411.032 769.081 511.290 546.949 117.133 285.781 593.216 219.040 345.756 581.192 233.262 347.746 468.227 602.969 1894.735 378.225 427.825 222.889 579.069 393.501 408.212 629.503 770.459 280.626 432.206 442.379 260.502 204.087 192.415 301.280 627.803
513.090 371.646 409.416 400.293 585.804 825.778 497.263 625.724 1012.496 678.538 300.826 625.653 1816.262 628.809 486.511 276.619 498.546 0.000 276.622 417.623 487.782 573.352 937.694 392.460 1031.548 341.825 187.421 429.932 604.781 372.198 747.274 412.660 547.923 157.890 423.370 161.127 501.839 183.374 741.276 515.742 407.874 504.898 378.356 138.883 629.859 540.193 368.346 597.113 131.429 301.810 618.403 164.719 309.169 402.363 529.865 555.429 775.079 366.191 322.505 463.014 312.807 574.587 493.584 523.403 374.729 236.822 365.668 842.878 893.195 611.529 366.781 586.015 338.162 561.980 947.469 502.233 684.776 81.111 116.771 424.375 554.481 984.477 455.966 733.979 1004.548 721.582 552.558 743.020 172.791 1979.746 471.454 782.108 419.148 148.890 747.784 683.005 283.343 711.201 307.870 337.218 347.391 378.884 469.597 333.395 708.807 197.625
436.839 195.084 266.996 252.611 412.880 652.446 421.012 549.472 835.934 602.287 468.283 452.321 1808.744 455.885 339.419 450.884 422.295 267.696 0.000 351.317 343.315 497.101 829.716 316.209 858.217 234.966 334.675 353.681 528.530 295.947 639.296 298.502 374.592 312.203 327.800 308.382 325.277 403.790 567.945 506.171 260.192 328.848 312.050 373.605 553.608 463.942 482.035 644.742 299.472 44.201 510.426 319.033 397.073 333.055 356.942 378.867 598.517 188.648 101.701 452.312 246.501 484.513 453.482 447.152 308.423 47.399 289.417 842.021 719.863 535.277 300.475 585.158 183.903 521.878 774.137 325.211 576.798 255.861 291.521 348.124 381.149 871.630 501.785 733.123 830.661 645.331 375.996 566.458 320.045 2123.579 298.530 608.776 250.794 273.943 574.453 506.443 450.800 603.224 235.194 113.030 123.203 201.340 367.730 267.090 700.424 344.879
255.946 235.653 183.080 168.695 446.856 568.634 219.773 348.234 761.989 401.049 488.457 368.509 1556.599 489.860 229.367 459.470 221.056 410.434 353.891 0.000 230.639 295.862 951.748 135.317 774.404 523.662 519.199 129.283 327.291 119.516 679.307 195.031 290.779 496.727 182.416 492.906 253.782 387.642 484.132 239.589 176.276 336.931 71.840 346.606 352.369 262.704 286.309 349.949 463.207 330.111 550.436 503.557 201.347 182.164 390.917 304.923 524.572 200.062 400.278 182.904 124.327 380.638 221.446 245.914 84.027 308.531 117.337 583.215 636.051 334.039 89.545 326.352 212.286 289.842 690.325 363.284 721.334 412.889 448.549 167.231 297.337 724.815 191.903 474.317 747.405 444.092 338.003 492.513 504.569 1904.824 330.478 524.964 187.549 480.668 490.640 432.498 526.978 722.712 147.094 384.459 394.632 212.755 212.454 101.797 449.144 529.403
163.227 207.308 165.438 151.054 398.602 369.355 229.168 345.613 555.318 410.443 622.979 169.230 1525.653 441.607 30.088 593.992 230.451 504.880 330.249 253.416 0.000 268.592 903.495 148.586 575.126 490.245 594.712 179.720 336.686 182.617 631.054 196.944 91.501 572.240 177.254 568.418 44.661 522.164 284.854 332.210 158.634 208.946 208.034 481.128 361.764 272.099 447.036 515.554 557.652 296.694 502.183 579.070 362.074 229.213 284.383 98.251 317.901 171.717 366.861 278.351 231.548 382.956 279.521 255.308 213.989 298.509 154.130 658.692 436.772 340.446 192.297 399.668 312.133 334.338 491.046 315.031 673.080 507.335 542.994 151.693 98.058 588.539 331.109 487.293 548.126 374.830 146.990 285.842 580.081 2058.750 233.635 325.685 125.151 533.980 291.362 225.826 661.500 674.459 282.072 351.042 361.215 184.409 104.043 193.861 512.883 604.916
197.747 320.683 268.110 253.725 531.886 372.462 55.480 126.717 704.862 223.870 625.905 281.917 1457.914 574.890 258.283 596.918 68.901 546.117 448.696 289.253 259.555 0.000 1036.778 184.422 578.233 608.692 654.882 161.634 99.207 218.453 764.337 299.616 246.383 632.410 244.153 628.588 282.699 525.090 360.441 187.933 261.306 415.432 243.870 484.054 131.365 93.409 423.757 401.153 598.890 415.141 635.466 639.240 338.795 277.042 475.947 282.072 453.477 285.092 485.308 147.676 267.385 485.627 110.157 73.564 249.825 419.162 189.966 480.002 439.879 105.954 228.133 220.978 347.969 155.648 491.272 448.314 806.364 548.572 584.232 154.416 252.940 591.646 253.963 339.924 548.352 200.422 385.028 435.386 640.252 1927.648 415.508 394.984 260.172 616.351 360.660 375.371 664.426 807.742 317.908 469.489 479.662 297.785 241.370 229.697 334.193 665.086
1004.029 807.659 834.187 819.802 619.108 1210.456 988.202 1116.663 983.364 1169.478 1135.721 1010.331 2366.754 626.129 897.429 1118.322 989.486 935.134 827.078 941.365 901.324 1064.292 0.000 883.400 1416.226 616.702 1002.113 920.871 1095.720 863.138 337.905 865.693 932.601 979.642 894.990 975.820 883.286 1071.228 1125.954 1073.361 827.383 814.502 895.188 1041.043 1120.798 1031.133 1134.189 1251.189 966.910 843.694 415.238 986.471 1049.228 900.246 767.460 936.877 1078.745 772.068 801.274 1019.503 912.069 1051.704 1020.673 1014.343 901.143 849.771 856.607 1409.212 1277.873 1102.468 879.451 1152.349 915.281 1089.069 1250.325 689.645 324.072 923.299 958.959 915.315 939.159 1429.639 1068.976 1300.313 1170.621 1212.522 899.687 1059.576 987.483 2745.903 782.025 1145.418 817.984 942.609 1132.462 1064.452 1118.238 304.578 962.593 857.007 856.306 784.760 934.921 874.382 1267.615 1012.317
144.486 158.620 106.047 91.662 369.822 457.173 128.658 257.119 650.528 309.934 481.091 257.049 1526.939 412.827 117.907 452.104 129.942 368.392 286.633 105.626 119.178 204.748 874.715 0.000 662.944 446.628 477.157 65.215 236.177 40.728 602.274 132.804 179.319 454.685 86.386 450.864 142.322 380.275 372.672 217.705 99.242 253.369 59.448 339.239 261.255 171.589 298.450 397.764 421.165 253.078 473.403 461.515 213.489 114.979 313.883 193.462 413.112 123.029 323.245 163.846 89.660 323.564 165.016 154.799 65.403 257.098 22.830 553.555 524.591 242.924 43.712 296.692 170.245 233.412 578.865 286.251 644.300 370.848 406.507 55.771 185.876 676.357 213.319 444.656 635.944 352.978 244.652 381.053 462.527 1910.164 253.445 413.504 98.109 438.626 379.180 321.037 519.612 645.679 140.184 307.425 317.598 135.722 100.993 51.973 411.958 487.361
553.855 694.389 652.519 638.135 850.016 199.060 587.860 537.928 615.653 514.849 1070.508 385.791 1069.574 893.020 519.005 1041.521 601.281 991.961 817.330 742.333 522.900 532.380 1390.576 637.502 0.000 977.326 1081.793 668.636 566.971 671.533 1118.135 684.025 483.333 1059.321 666.170 1055.499 521.177 969.693 393.667 623.268 645.715 696.027 696.950 928.657 558.586 582.728 868.359 836.488 1044.733 783.775 989.264 1066.151 783.398 716.294 771.464 515.764 477.782 658.798 853.942 661.306 720.465 870.037 583.962 604.491 702.905 785.590 643.046 557.370 161.234 547.073 681.214 506.766 801.050 508.943 328.701 802.112 1160.161 994.416 1030.075 640.610 489.890 132.459 698.566 299.421 435.975 464.655 623.506 626.303 1067.163 2064.495 720.716 428.211 612.232 1021.061 393.887 470.118 1109.029 1161.540 770.989 838.123 848.296 671.490 592.959 682.778 347.996 1091.997
565.906 324.940 396.063 381.678 383.179 784.547 550.079 678.540 968.034 731.354 535.047 584.422 1940.845 390.200 471.520 517.648 551.362 334.459 238.270 503.241 475.415 626.168 633.070 445.276 990.317 0.000 401.439 482.748 657.597 425.014 442.650 427.569 506.692 378.967 456.867 375.145 457.377 470.553 700.045 635.238 389.259 438.841 457.064 440.369 682.675 593.009 535.098 738.081 366.236 254.886 313.780 385.797 450.137 462.122 436.699 510.968 730.618 317.715 212.466 581.379 450.074 613.580 582.549 576.219 463.019 249.097 418.484 971.088 851.964 664.345 441.327 714.225 387.476 650.945 906.238 309.102 380.153 322.625 358.284 477.191 513.250 1003.730 596.935 862.190 962.762 774.398 508.097 698.558 386.809 2213.966 405.397 740.877 379.861 341.934 706.553 638.543 517.564 406.578 438.767 268.199 267.498 330.407 496.797 436.258 829.491 411.643
568.764 421.011 465.091 455.968 638.808 878.374 552.937 681.398 1061.861 734.213 301.866 678.249 1871.936 681.812 542.185 284.466 554.220 145.548 311.251 473.298 543.457 629.027 972.323 448.135 1084.144 376.455 0.000 485.606 660.455 427.873 781.903 468.334 600.519 50.239 479.044 18.456 551.204 264.111 793.872 571.417 463.549 554.776 434.030 240.071 685.533 595.868 449.804 652.787 60.505 336.439 653.032 43.466 364.843 458.038 582.869 604.795 824.444 415.557 357.134 518.689 368.481 630.262 549.259 579.078 430.404 271.451 421.342 898.552 945.791 667.203 422.455 641.689 393.836 617.655 1000.065 555.236 719.405 81.988 50.515 480.050 607.077 1040.152 511.641 789.654 1056.589 777.257 601.924 792.385 43.253 1980.785 524.457 834.704 474.822 107.292 800.380 732.370 284.382 745.831 363.544 371.847 382.020 428.249 525.272 389.070 764.481 19.699
151.397 205.662 153.088 138.703 416.864 491.937 98.129 226.590 685.292 279.404 527.256 291.812 1461.724 459.869 152.671 498.269 99.412 414.558 333.675 142.597 153.942 174.218 921.756 75.238 697.708 493.670 523.322 0.000 205.647 86.894 649.316 179.845 214.083 500.851 134.951 497.029 177.086 426.441 407.436 152.490 146.284 300.411 97.292 385.405 230.725 141.059 339.001 352.652 467.331 300.120 520.445 507.680 254.040 162.020 360.925 228.226 447.876 170.071 370.287 98.631 135.825 370.606 99.802 124.269 109.479 304.140 69.872 488.340 559.354 212.395 89.877 231.477 216.410 168.198 613.299 333.293 691.342 417.013 452.672 61.384 220.640 629.940 168.207 379.442 670.378 322.448 279.415 415.816 508.692 1892.205 300.486 448.267 145.150 484.792 413.944 355.801 565.777 692.721 186.349 354.467 364.640 182.764 135.757 98.138 346.743 533.526
269.910 377.150 324.577 310.192 588.352 359.080 111.947 30.984 696.566 137.060 673.707 325.611 1438.484 631.357 314.750 644.720 125.368 602.584 505.163 345.719 316.022 111.229 1093.245 240.889 564.851 665.158 711.348 218.100 0.000 274.920 820.804 356.083 290.077 688.877 300.619 685.055 327.922 572.891 347.059 199.272 317.772 471.899 300.337 531.856 43.813 91.536 471.558 412.492 655.357 471.608 691.933 695.706 386.597 333.509 532.413 325.767 440.095 341.559 541.775 204.142 323.852 542.094 143.546 104.880 306.292 475.628 246.433 474.589 426.497 6.748 284.600 215.564 404.436 150.235 477.890 504.781 862.830 605.039 640.699 210.883 296.635 578.264 301.765 311.810 534.970 128.711 430.251 479.081 696.718 1938.987 471.975 381.602 316.639 672.818 347.279 419.066 712.228 864.209 374.375 525.955 536.128 354.252 297.837 286.164 314.763 721.553
190.939 145.101 92.527 78.143 356.303 503.627 175.112 303.573 696.982 356.388 440.362 303.502 1569.505 399.308 164.360 411.375 176.395 327.664 273.114 100.267 165.631 251.201 861.195 70.309 709.397 433.109 436.429 107.781 282.630 0.000 588.755 106.972 225.772 413.957 101.219 410.135 188.775 339.547 419.125 260.271 85.723 246.379 54.090 298.511 307.708 218.043 293.092 410.091 380.437 239.559 459.884 420.787 208.131 91.612 300.364 239.915 459.565 109.510 309.726 206.412 48.932 297.867 207.583 201.252 60.045 229.398 43.517 596.121 571.044 289.378 38.353 339.258 129.516 275.979 625.318 272.732 630.781 330.119 365.779 102.224 232.330 722.810 240.248 487.223 682.397 399.431 247.450 427.506 421.798 1904.806 239.926 459.957 96.997 397.898 425.633 367.491 478.883 632.160 99.455 293.906 304.079 122.203 147.446 11.244 454.524 446.633
730.511 534.140 560.668 546.283 314.109 936.937 714.683 843.144 993.996 895.959 938.978 736.812 2093.235 321.130 623.910 921.579 715.967 738.390 630.335 667.846 627.805 790.773 340.763 609.881 1142.707 419.958 805.370 647.353 822.201 589.619 0.000 592.174 659.082 782.898 621.471 779.076 609.767 874.484 852.436 799.843 553.864 540.983 621.669 844.299 847.280 757.614 860.671 977.670 770.166 616.642 141.719 789.727 775.709 626.727 491.881 663.358 883.008 498.549 604.530 745.984 638.550 778.185 747.154 740.824 627.624 618.456 583.088 1135.693 1004.354 828.949 605.932 878.830 641.762 815.550 1014.151 416.127 110.349 726.555 762.215 641.796 665.640 1156.121 795.457 1026.794 955.482 939.003 626.168 754.577 790.739 2472.385 508.506 893.267 544.465 745.865 858.943 790.933 921.495 111.727 689.074 657.184 649.561 511.241 661.402 600.863 994.096 815.574
226.159 160.241 48.508 93.282 371.443 535.760 210.332 338.792 719.248 391.607 485.296 335.635 1604.725 414.448 199.580 456.308 211.615 372.597 288.254 156.676 200.851 286.421 876.335 105.529 741.531 448.249 481.362 143.001 317.850 85.267 603.894 0.000 257.906 458.890 136.439 455.069 208.591 384.480 451.259 295.491 100.863 261.518 117.317 343.444 342.928 253.262 342.854 463.828 425.370 254.698 475.024 465.720 257.893 69.711 315.504 262.182 481.831 124.650 324.866 241.632 93.865 237.721 242.802 236.472 113.782 258.719 78.737 631.341 603.177 324.597 101.580 374.478 174.449 311.198 657.451 287.871 645.921 375.052 410.712 137.444 264.463 754.944 291.105 522.443 713.975 434.651 262.590 449.772 466.732 1958.543 255.065 492.090 112.136 442.831 457.767 389.757 523.817 647.299 144.389 309.046 319.219 137.342 182.666 62.504 489.744 491.566
157.215 249.134 207.265 192.880 440.429 318.696 272.830 294.953 540.170 378.556 666.641 118.571 1474.994 483.434 73.750 637.654 274.113 546.706 372.076 297.079 77.646 217.932 945.321 192.248 524.466 532.071 636.538 223.382 309.684 226.279 672.880 238.771 0.000 614.067 220.916 610.245 75.923 565.826 234.194 375.872 200.461 250.773 251.696 524.790 315.611 311.341 490.698 559.216 599.479 338.521 544.010 620.896 405.737 271.040 326.210 73.767 302.753 213.543 408.688 322.013 275.211 424.782 323.184 291.496 257.651 340.335 197.792 687.707 386.113 289.786 235.959 438.910 355.795 373.580 440.387 356.857 714.907 549.161 584.821 195.356 41.576 537.879 374.771 436.633 497.467 324.171 178.252 270.694 621.908 2102.412 275.462 275.026 166.978 575.806 240.702 210.679 705.162 716.285 325.734 392.868 403.041 226.236 147.705 237.523 540.023 646.742
578.773 419.485 475.100 465.977 637.282 876.847 562.946 691.407 1060.335 744.222 262.680 676.722 1881.945 680.286 552.194 245.280 564.229 148.338 309.725 483.307 553.466 639.036 970.797 458.144 1082.618 374.928 64.119 495.615 670.464 437.882 780.377 478.343 598.993 0.000 489.053 37.825 549.678 224.925 792.346 581.426 473.558 553.249 444.039 200.885 695.542 605.877 430.349 660.714 70.514 334.913 651.506 32.415 374.852 468.047 581.343 603.269 822.918 414.030 355.608 528.698 378.490 640.271 559.268 589.087 440.413 269.925 431.351 908.561 944.264 677.212 432.464 651.698 403.845 627.664 998.538 553.710 717.879 91.997 60.524 490.059 605.550 1050.161 521.650 799.663 1055.062 787.266 600.397 790.859 49.489 1941.599 522.931 833.177 476.176 117.301 798.854 730.844 245.196 744.304 373.553 370.321 380.494 426.723 535.281 399.079 774.490 72.678
183.495 156.954 104.380 89.996 368.156 494.900 167.668 296.129 680.284 348.943 504.922 294.775 1562.061 411.161 155.633 475.935 168.951 392.224 284.967 137.563 156.905 243.757 873.048 54.090 700.671 444.962 500.988 100.337 275.186 64.560 600.608 135.887 217.046 478.517 0.000 474.695 169.627 404.107 410.399 252.827 97.576 222.554 91.385 363.071 300.264 210.599 330.387 432.886 444.997 251.412 471.737 485.346 245.426 113.312 297.991 223.217 442.867 121.363 321.579 198.968 113.492 321.898 200.139 193.808 97.340 255.432 36.073 588.677 562.317 281.934 75.649 331.814 194.076 268.535 616.591 284.585 642.634 394.679 430.339 94.780 223.603 714.084 248.441 479.779 673.671 391.987 223.626 410.808 486.358 1942.101 247.243 451.230 67.294 462.458 416.907 350.792 543.443 644.013 164.015 305.759 315.932 134.056 109.147 75.804 447.080 511.193
587.495 439.742 483.822 474.699 657.539 897.104 571.668 700.129 1080.592 752.944 283.409 696.980 1890.667 700.543 560.916 266.010 572.951 164.279 329.982 492.029 562.188 647.757 991.054 466.866 1102.875 395.185 27.660 504.337 679.186 446.603 800.634 487.065 619.250 31.782 497.775 0.000 569.935 245.655 812.603 590.147 482.279 573.506 452.761 221.615 704.264 614.599 451.078 671.518 79.236 355.170 671.763 25.010 383.574 476.769 601.600 623.526 843.175 434.287 375.865 537.420 387.212 648.993 567.990 597.809 449.135 290.182 440.073 917.283 964.522 685.934 441.186 660.420 412.567 636.386 1018.796 573.967 738.136 100.719 69.246 498.781 625.808 1058.882 530.372 808.385 1075.319 795.987 620.655 811.116 24.796 1962.329 543.188 853.435 493.553 126.023 819.111 751.101 265.926 764.561 382.275 390.578 400.751 446.980 544.003 407.801 783.212 37.350
185.389 215.088 173.219 158.834 405.082 365.277 251.329 341.534 531.943 425.137 640.247 165.152 1521.575 448.087 52.250 611.260 252.613 512.660 338.030 275.578 56.145 264.513 911.275 170.747 571.047 498.025 602.492 201.882 356.266 199.885 638.834 204.725 87.422 580.021 199.416 576.199 0.000 539.432 280.776 354.372 166.415 205.791 230.196 498.396 362.192 294.260 469.197 537.716 565.433 304.475 509.964 586.850 384.236 236.994 281.227 74.876 294.526 179.497 374.642 300.513 248.817 390.736 301.683 277.470 236.151 306.289 176.291 680.854 432.694 336.368 214.459 421.829 329.401 356.500 486.968 322.812 680.861 515.115 550.775 173.855 93.980 584.461 353.271 483.214 526.670 370.752 102.329 262.467 587.862 2080.911 233.584 321.607 132.932 541.760 287.283 202.452 678.769 682.240 299.340 358.822 368.995 192.190 126.205 211.130 535.045 612.696
513.521 444.633 409.847 400.725 658.792 800.184 440.184 563.643 1019.564 616.458 165.122 626.084 1752.336 701.797 486.942 136.135 453.606 142.395 385.487 403.874 488.214 512.161 1046.559 392.892 1003.586 450.690 240.392 415.089 542.700 372.629 856.139 413.091 548.354 207.470 423.801 214.099 511.358 0.000 741.707 451.816 408.305 568.961 361.844 111.267 567.778 478.113 288.354 518.719 205.189 410.675 727.268 214.299 240.995 402.795 602.853 562.498 782.147 432.092 431.370 399.089 313.238 575.018 429.658 461.323 352.982 345.687 366.099 778.952 864.053 549.448 362.777 522.089 338.593 498.054 918.994 575.221 793.641 198.446 201.616 424.806 554.912 920.551 392.040 670.053 976.074 660.391 570.033 750.088 225.762 1841.729 544.441 782.539 419.579 266.225 748.215 690.073 203.643 820.066 279.555 446.083 456.256 444.785 470.029 333.827 644.881 250.596
298.902 434.202 392.333 377.948 546.471 217.142 393.932 344.001 391.652 320.171 852.128 122.408 1373.440 589.476 259.238 823.141 407.354 731.774 557.143 482.566 263.133 338.452 1130.389 377.735 422.912 717.139 821.606 408.869 373.043 411.766 857.948 423.839 228.379 799.134 406.403 795.312 260.990 751.313 0.000 485.699 385.528 435.840 437.183 710.277 364.659 428.263 676.185 698.919 784.547 523.588 729.077 805.964 591.224 456.107 511.277 213.134 135.181 398.611 593.756 486.128 460.698 609.850 446.393 412.016 443.138 525.403 383.279 586.153 284.559 353.145 421.447 424.087 541.282 371.374 279.320 541.925 899.975 734.229 769.889 380.843 234.937 436.325 560.259 335.079 299.252 269.977 353.232 244.414 806.976 2054.951 460.529 76.688 352.045 760.874 78.300 79.350 890.650 901.353 511.221 577.936 588.109 411.303 333.192 423.011 438.469 831.810
303.818 358.083 305.510 291.125 569.286 466.090 144.796 219.076 821.657 271.891 552.291 444.234 1418.242 612.290 305.092 523.304 156.251 500.278 486.096 246.271 306.364 216.772 1074.178 227.659 667.390 646.092 609.043 152.421 198.133 239.315 801.737 332.267 366.504 586.571 287.373 582.749 329.507 451.476 491.612 0.000 298.706 452.832 227.175 410.440 223.211 115.862 350.143 216.171 553.051 452.541 672.866 593.401 265.181 314.442 513.347 380.648 584.647 322.492 522.708 93.227 287.036 523.027 101.882 137.625 239.362 456.562 222.294 399.885 529.960 204.881 242.298 187.995 367.621 126.456 584.900 485.714 843.764 502.733 538.393 206.167 373.062 586.457 158.838 335.960 641.980 308.849 431.837 568.238 594.413 1739.715 452.908 526.155 297.572 570.512 491.831 508.223 590.812 845.142 319.355 506.889 517.062 335.185 288.179 250.560 305.002 619.247
250.085 91.327 65.267 50.882 302.529 483.417 234.258 362.719 666.905 415.534 543.230 283.292 1628.651 345.533 170.390 514.243 235.541 396.497 219.340 187.421 174.286 310.347 807.421 129.455 689.188 379.335 486.008 166.927 341.776 109.193 534.980 78.988 205.563 463.536 141.046 459.715 156.248 442.415 398.916 319.417 0.000 192.869 141.243 401.379 366.854 277.189 380.245 497.244 449.270 185.784 406.110 470.366 295.284 134.783 246.590 209.838 429.488 55.736 255.952 265.558 151.799 236.723 266.729 260.399 147.198 189.805 102.663 655.267 550.834 348.524 125.507 398.404 213.432 335.125 605.108 218.957 577.007 398.952 434.612 161.370 212.120 702.601 315.032 546.369 661.632 458.577 210.247 397.429 471.378 1991.959 186.151 439.747 64.040 425.276 405.424 337.414 581.751 578.385 202.323 240.132 250.305 68.428 180.976 120.438 513.670 496.212
334.263 196.734 206.122 191.737 273.097 514.152 357.853 486.314 697.639 539.129 673.151 314.027 1670.450 316.102 201.125 644.163 359.136 494.306 319.676 311.016 205.020 413.388 854.941 253.051 719.922 468.926 584.138 290.522 465.371 232.788 582.500 237.628 236.297 561.667 252.619 557.845 186.982 572.335 429.650 443.012 199.318 0.000 264.838 531.299 490.449 400.784 503.840 620.840 547.079 286.121 453.630 568.496 418.879 269.897 118.315 240.573 460.223 161.143 331.248 389.153 281.720 423.639 390.324 383.994 270.793 287.935 226.258 778.863 581.569 472.119 249.102 521.999 311.242 458.720 635.843 266.477 624.527 496.761 532.421 284.966 242.855 733.335 438.627 632.089 659.447 519.627 166.626 415.591 569.508 2115.554 88.493 470.482 165.835 523.406 436.158 368.148 700.263 625.905 332.244 340.468 333.131 173.836 275.080 244.033 637.265 594.342
184.106 163.813 111.239 96.854 375.015 496.793 168.278 296.739 690.148 349.554 451.292 296.668 1553.928 418.020 157.527 422.305 169.562 338.594 285.687 72.018 158.798 244.368 879.907 63.476 702.564 451.821 447.358 92.204 275.797 47.675 607.466 123.191 218.939 424.887 110.575 421.065 181.942 350.477 412.292 244.253 104.435 265.090 0.000 309.441 300.875 211.209 262.171 379.170 391.367 258.271 478.596 431.716 177.210 110.324 319.076 233.082 452.732 128.222 328.438 187.568 59.862 308.797 192.005 194.419 29.124 240.327 45.496 580.544 564.210 282.544 17.705 323.681 140.446 260.401 618.484 291.444 649.493 341.049 376.709 95.391 225.496 715.977 219.599 471.646 675.564 392.598 266.162 420.672 432.728 1873.885 258.637 453.123 115.709 408.828 418.800 360.657 489.813 650.872 110.385 312.618 322.791 140.914 140.613 29.956 438.947 457.563
484.986 416.098 381.312 372.190 630.257 771.649 411.649 535.108 991.029 587.923 217.762 597.549 1723.801 673.262 458.407 188.775 425.070 117.715 370.349 375.339 459.679 483.625 1031.421 364.356 975.051 435.553 232.946 386.554 514.165 344.094 841.001 384.556 519.819 200.023 395.266 206.653 482.822 110.064 713.172 423.281 379.770 540.426 333.309 0.000 539.243 449.578 255.352 485.717 197.743 395.537 712.131 206.853 207.992 374.259 574.318 533.963 753.612 403.557 416.233 370.553 284.703 546.483 401.123 432.788 324.447 330.550 337.564 750.417 835.518 520.913 334.242 493.554 310.058 469.519 890.459 546.685 778.503 174.839 194.170 396.271 526.377 892.016 363.505 641.518 947.539 631.855 541.498 721.553 218.316 1894.369 515.906 754.004 391.044 242.618 719.680 661.538 256.283 804.929 251.020 430.946 441.119 416.250 441.494 305.291 616.346 243.150
291.830 396.985 344.411 330.026 608.187 374.257 131.781 18.713 711.285 93.334 686.535 347.531 1439.864 651.192 334.585 657.548 145.203 622.419 524.998 365.554 335.856 144.283 1113.079 260.723 580.027 684.993 731.183 237.935 49.144 294.755 840.638 375.917 311.997 708.712 320.454 704.890 349.842 585.719 361.778 212.100 337.607 491.733 320.171 544.683 0.000 104.364 484.386 425.320 675.191 491.443 711.768 715.541 399.425 353.343 552.248 347.687 454.814 361.394 561.610 223.977 343.686 561.928 156.374 117.708 326.126 495.463 266.267 476.155 441.674 43.988 304.435 217.130 424.271 151.800 493.067 524.615 882.665 624.874 660.533 230.717 318.555 593.441 314.593 313.191 550.147 101.646 452.171 501.001 716.553 1951.815 491.809 396.321 336.473 692.653 361.998 438.228 725.056 884.043 394.210 545.790 555.963 374.086 317.671 305.999 316.143 741.387
239.687 309.329 256.755 242.370 520.531 429.670 44.125 103.214 768.772 156.029 594.309 345.827 1377.717 563.535 246.929 565.322 57.547 534.762 437.341 277.898 248.200 116.102 1025.423 173.067 616.384 597.337 643.527 150.279 82.271 207.098 752.982 288.261 308.341 621.055 232.798 617.234 271.344 493.493 421.928 107.736 249.951 404.077 232.515 452.457 107.349 0.000 392.160 320.956 587.535 403.786 624.112 627.885 307.199 265.687 464.592 322.484 514.964 273.738 473.954 136.321 256.030 474.272 64.148 36.955 238.470 407.807 178.611 399.805 481.369 89.019 216.779 140.781 336.614 75.451 548.481 436.959 795.009 537.217 572.877 143.061 314.898 545.933 222.367 299.540 605.560 200.941 373.673 499.296 628.897 1847.451 404.153 456.472 248.817 604.996 422.148 439.281 632.830 796.387 306.554 458.134 468.307 286.430 230.015 218.343 253.996 653.731
465.536 445.243 392.670 378.285 656.446 741.627 381.626 505.085 971.579 557.900 408.148 578.099 1693.778 699.450 438.957 379.161 395.048 381.321 507.168 329.697 440.229 453.603 1161.338 344.906 945.028 579.035 496.552 356.531 484.142 329.106 888.897 398.061 500.369 463.629 392.006 470.258 463.372 307.333 693.722 393.259 385.865 546.521 307.381 263.606 509.221 419.555 0.000 369.357 452.920 506.566 760.026 470.458 110.587 387.764 600.507 514.513 734.162 409.652 559.715 340.531 298.208 559.988 371.101 402.765 298.519 461.808 326.926 720.394 805.496 490.890 299.135 463.531 368.680 439.497 860.437 572.874 921.986 402.602 438.262 376.821 506.927 861.994 333.483 611.496 917.516 601.833 547.593 702.103 481.922 1779.018 540.068 734.554 397.139 470.381 700.230 642.088 446.670 932.302 300.371 547.168 557.341 422.345 422.044 311.387 586.323 506.756
512.467 552.616 500.043 485.658 763.818 675.412 354.117 428.397 1030.978 481.212 633.280 652.883 1627.563 806.823 513.741 604.293 365.573 597.464 662.535 378.512 515.013 426.093 1268.710 436.308 876.711 776.352 706.229 361.070 407.454 436.478 996.270 511.994 575.153 683.757 494.950 679.935 538.156 532.464 700.933 217.515 493.238 653.894 418.083 488.737 432.532 325.183 379.976 0.000 650.237 647.074 867.399 690.587 335.718 499.127 707.879 589.297 793.969 517.025 717.241 302.548 434.081 696.908 311.203 346.946 414.456 617.175 429.871 579.141 739.281 414.202 406.508 397.316 524.047 335.778 794.222 680.247 1038.296 599.919 635.579 414.816 581.711 795.778 224.642 545.281 851.301 518.170 640.486 776.887 691.599 1892.435 647.441 735.476 504.512 667.698 701.152 716.872 671.801 1039.675 455.738 701.421 711.594 529.718 496.828 418.760 514.323 716.433
569.862 422.109 466.188 457.066 639.906 879.471 554.035 682.496 1062.959 735.311 283.228 679.346 1873.034 682.910 543.283 265.829 555.318 146.646 312.349 474.396 544.555 630.124 973.421 449.233 1085.242 377.552 63.053 486.704 661.553 428.970 783.001 469.432 601.617 54.487 480.142 50.666 552.302 240.149 794.970 572.514 464.646 555.873 435.128 216.109 686.631 596.966 445.573 653.885 0.000 337.537 654.130 61.317 365.941 459.136 583.967 605.893 825.542 416.654 358.232 519.787 369.579 631.359 550.356 580.176 431.502 272.549 422.440 899.650 946.888 668.301 423.553 642.787 394.934 618.753 1001.163 556.334 720.503 83.086 51.613 481.147 608.174 1041.249 512.738 790.752 1057.686 778.354 603.021 793.483 55.841 1962.148 525.555 835.801 475.920 113.548 801.478 733.468 265.745 746.928 364.642 372.945 383.118 429.347 526.370 390.168 765.579 82.753
407.318 166.352 237.475 223.090 386.393 625.959 391.490 519.951 809.446 572.766 477.742 425.834 1782.257 429.398 312.932 460.343 392.774 277.154 42.441 344.653 316.827 467.580 820.213 286.688 831.729 225.462 344.134 324.160 499.009 266.426 618.844 268.981 348.104 321.662 298.279 317.840 298.789 413.248 541.457 476.650 230.671 302.361 298.476 383.063 524.087 434.421 477.793 644.560 308.931 0.000 489.974 328.492 392.832 303.534 330.454 352.380 572.030 159.127 99.328 422.791 246.319 454.992 423.961 417.631 304.431 64.293 259.896 812.500 693.376 505.756 282.739 555.637 183.721 492.357 747.650 295.689 567.295 265.320 300.979 318.603 354.662 845.142 472.264 703.602 804.174 615.810 349.509 539.970 329.504 2123.397 272.042 582.289 221.272 284.629 547.965 479.955 460.259 593.720 235.013 83.509 93.682 171.819 338.209 266.908 670.903 354.338
616.252 419.881 446.409 432.024 231.330 822.678 600.425 728.886 911.217 781.700 824.719 622.553 1978.976 238.352 509.651 807.320 601.708 624.131 516.076 553.587 513.547 676.514 432.133 495.622 1028.449 305.700 691.111 533.094 707.943 475.360 159.692 477.915 544.824 668.639 507.213 664.817 495.509 760.225 738.177 685.584 439.605 426.724 507.410 730.041 733.021 643.356 746.412 863.411 655.908 502.383 0.000 675.469 661.451 512.469 379.682 549.100 768.749 384.290 490.272 631.725 524.292 663.926 632.896 626.565 513.365 504.197 468.830 1021.434 890.095 714.691 491.673 764.571 527.504 701.292 931.373 301.868 201.719 612.297 647.957 527.537 551.381 1041.862 681.198 912.536 872.704 824.744 511.909 671.799 676.481 2358.126 394.247 779.008 430.207 631.606 744.685 676.675 807.236 203.097 574.815 542.926 535.302 396.983 547.143 486.604 879.837 701.315
588.985 439.175 485.311 476.188 656.972 896.538 573.158 701.619 1080.025 754.433 282.370 696.413 1892.157 699.976 562.406 264.971 574.441 165.769 329.415 493.518 563.677 649.247 990.487 468.355 1102.308 394.619 42.798 505.827 680.676 448.093 800.067 488.555 618.683 22.077 499.265 16.505 569.368 244.616 812.036 591.637 483.769 572.940 454.251 220.575 705.754 616.089 450.039 673.008 80.725 354.603 671.196 0.000 385.064 478.258 601.033 622.959 842.608 433.720 375.298 538.909 388.702 650.482 569.479 599.298 450.624 289.615 441.563 918.773 963.955 687.424 442.676 661.910 414.057 637.875 1018.229 573.400 737.569 102.208 70.736 500.270 625.241 1060.372 531.861 809.874 1074.752 797.477 620.088 810.549 28.435 1961.289 542.621 852.868 495.043 127.512 818.544 750.534 264.887 763.994 383.765 390.011 400.184 446.413 545.492 409.290 784.702 53.002
362.728 342.066 284.230 275.107 553.268 631.337 271.337 394.796 868.770 447.611 341.573 475.291 1583.489 596.273 336.149 312.586 284.759 289.560 396.581 226.889 337.420 343.314 1058.160 242.098 834.739 468.449 398.325 246.242 373.853 226.297 785.719 287.474 397.561 375.853 289.197 372.032 360.564 240.758 590.914 282.969 282.688 443.343 204.573 199.722 398.931 309.266 104.728 335.093 342.333 395.979 656.849 382.683 0.000 277.177 497.329 411.704 631.354 306.475 449.128 230.242 187.621 449.401 260.811 292.476 195.710 351.221 224.118 610.105 695.207 380.601 196.327 353.242 258.093 329.208 750.147 469.697 811.399 292.015 327.675 274.013 404.118 751.704 223.193 501.207 807.227 491.544 444.415 599.294 383.695 1789.496 436.890 631.746 293.962 359.794 597.422 539.279 380.095 829.125 189.784 436.581 446.754 319.167 319.235 208.209 476.034 408.529
243.531 197.693 99.624 130.734 408.895 556.218 227.703 356.164 749.573 408.979 502.667 356.094 1622.097 451.900 216.952 473.680 228.987 389.969 325.706 174.048 218.223 303.793 913.787 122.901 761.989 485.701 498.734 160.373 335.222 102.639 641.346 102.867 278.364 476.262 153.811 472.440 241.367 401.852 471.717 312.863 138.315 298.970 134.689 360.816 360.300 270.634 360.226 481.200 442.742 292.150 512.476 483.092 275.265 0.000 352.956 292.507 512.157 162.102 362.318 259.004 111.237 303.185 260.174 253.844 131.154 291.703 96.109 648.713 623.635 341.969 118.952 391.850 191.821 328.570 677.910 325.323 683.373 392.424 428.084 154.816 284.921 775.402 308.477 539.815 734.989 452.023 300.042 480.097 484.104 1975.915 292.517 512.548 149.588 460.203 478.225 420.082 541.189 684.751 161.760 346.498 356.671 174.794 200.038 79.876 507.116 508.938
407.189 226.527 253.055 238.670 188.779 587.077 407.071 535.532 727.553 588.346 699.672 386.952 1743.375 231.783 274.050 670.684 408.354 517.214 342.584 360.233 277.946 483.160 792.836 302.268 792.848 450.752 607.046 339.740 514.589 282.006 504.868 284.561 309.223 584.575 313.859 580.753 259.908 598.856 502.576 492.230 246.251 87.118 314.056 557.820 539.667 450.002 553.058 670.057 569.987 309.029 391.524 591.404 468.097 319.115 0.000 313.498 533.148 190.936 340.064 438.371 330.938 470.572 439.542 433.211 320.011 310.843 275.476 828.080 654.494 521.337 298.319 571.217 334.150 507.938 708.768 204.372 562.422 519.669 555.329 334.183 315.780 806.261 487.844 705.015 689.039 592.552 239.552 488.134 592.416 2164.772 91.333 543.407 236.853 546.314 509.084 441.074 723.172 563.800 381.461 349.572 341.948 203.629 348.005 293.250 686.483 617.250
171.884 221.068 179.199 164.814 409.695 331.423 245.183 307.681 498.770 391.283 638.995 131.298 1487.721 452.700 46.104 610.007 246.467 518.640 344.010 269.432 49.999 230.660 917.255 164.601 537.194 504.005 608.472 195.735 322.412 198.632 644.814 210.705 53.569 586.000 193.269 582.179 47.856 538.179 246.922 348.225 172.395 222.707 224.049 497.143 328.338 288.114 463.051 531.570 571.413 310.454 515.944 592.830 378.090 242.973 298.143 0.000 261.353 185.477 380.622 294.367 247.564 396.716 295.537 271.324 230.004 312.269 170.145 674.708 398.840 302.514 208.313 415.683 328.149 350.353 453.114 328.791 686.841 521.095 556.755 167.709 60.126 550.607 347.125 449.361 493.497 336.898 140.098 229.294 593.842 2074.765 247.396 287.753 138.912 547.740 253.430 169.278 677.516 688.219 298.088 364.802 374.975 198.169 120.059 209.877 528.899 618.676
368.132 469.850 427.981 413.596 582.120 300.362 482.307 432.376 305.904 408.546 887.777 214.912 1456.660 625.124 294.886 858.790 495.249 767.422 592.792 518.214 298.781 426.827 1105.945 413.383 506.132 752.787 857.254 444.518 461.418 447.415 893.596 459.487 297.889 834.782 442.052 830.961 296.638 786.961 147.555 574.074 421.177 471.489 472.831 745.926 453.033 516.638 711.833 780.352 820.195 559.237 764.726 841.612 626.872 491.755 546.925 248.782 0.000 434.259 629.404 543.149 496.346 645.498 534.768 500.391 478.786 561.051 418.927 666.454 367.779 441.520 457.095 512.462 576.931 459.749 297.569 577.573 935.623 769.877 805.537 416.491 304.447 519.545 595.907 415.381 247.889 358.352 388.880 280.062 842.624 2135.253 496.178 93.696 387.694 796.522 164.097 104.814 926.298 937.001 546.870 613.584 623.757 446.951 368.841 458.659 518.771 867.458
265.882 36.662 96.040 81.655 275.358 489.297 250.055 378.516 672.784 431.331 523.218 289.172 1644.449 318.363 176.270 494.231 251.338 340.761 163.604 203.218 180.165 326.145 780.250 145.253 695.067 323.599 430.272 182.724 357.573 124.990 507.810 127.546 211.442 407.801 156.843 403.979 162.127 422.403 404.795 335.214 89.235 165.699 157.040 381.367 382.651 292.986 396.042 513.042 393.534 130.049 378.939 414.630 311.081 162.099 219.419 215.718 435.368 0.000 200.216 281.355 173.922 313.557 282.526 276.196 162.995 134.069 118.460 671.065 556.714 364.321 141.304 414.202 157.696 350.922 610.988 191.787 549.836 343.216 378.876 177.168 218.000 708.480 330.829 562.166 667.512 474.375 212.847 403.308 415.642 2007.756 158.980 445.627 79.837 369.540 411.303 343.293 546.398 551.215 208.988 184.396 194.569 12.692 196.774 136.235 529.467 440.476
425.126 184.161 255.284 240.899 404.202 643.767 409.299 537.760 827.255 590.575 505.980 443.643 1800.065 447.206 330.741 488.581 410.583 305.393 69.819 362.462 334.636 485.389 820.513 304.497 849.538 242.852 372.372 341.969 516.817 284.235 630.093 286.790 365.913 349.900 316.087 346.079 316.598 441.487 559.266 494.458 248.480 320.169 316.285 411.302 541.895 452.230 506.032 672.286 337.169 89.322 501.222 356.730 421.071 321.343 348.263 370.189 589.838 176.935 0.000 440.600 306.252 472.801 441.770 435.440 322.240 117.218 277.704 830.309 711.185 523.565 300.548 573.446 243.653 510.166 765.459 287.769 567.595 293.558 329.218 336.412 372.470 862.951 490.073 721.410 821.982 633.619 367.318 557.779 357.742 2167.000 289.851 600.098 239.081 312.868 565.774 497.764 488.497 594.021 294.945 103.119 86.582 189.628 356.018 295.479 688.712 382.576
245.439 299.704 247.131 232.746 510.907 481.710 93.891 217.350 779.335 270.165 520.415 385.855 1433.861 553.911 246.713 491.428 97.872 468.402 427.717 194.231 247.985 165.868 1015.799 169.280 685.111 587.713 577.166 94.042 196.407 180.936 743.358 273.888 308.125 554.695 228.994 550.873 271.128 419.599 474.117 96.044 240.327 394.453 162.629 378.564 221.485 131.820 318.266 308.333 521.175 394.162 614.487 561.524 233.305 256.063 454.968 322.269 541.918 264.113 464.329 0.000 222.491 464.648 83.366 115.030 174.816 398.183 163.915 460.478 545.579 203.155 180.334 203.614 303.075 151.762 600.520 427.335 785.385 470.857 506.517 147.788 314.683 602.077 148.473 351.579 657.600 314.098 373.458 509.859 562.536 1835.759 394.529 508.660 239.193 538.636 474.337 449.844 558.936 786.763 254.810 448.510 458.683 276.806 229.800 192.181 326.407 587.371
240.957 200.285 142.450 133.327 411.488 553.644 225.130 353.590 747.000 406.405 427.158 353.520 1610.779 454.492 214.378 398.171 226.413 314.460 261.554 125.398 215.649 301.219 916.380 120.327 759.415 468.813 423.225 149.055 332.648 104.526 643.939 145.693 275.790 400.753 156.403 396.931 238.793 326.343 469.143 301.104 140.907 301.563 86.131 285.307 357.726 268.060 266.838 428.119 367.233 260.952 515.068 407.583 181.877 135.397 355.549 289.933 509.583 164.694 317.374 244.419 0.000 307.621 248.856 251.270 82.504 216.194 98.701 637.395 621.062 339.395 74.556 380.532 116.312 317.253 675.336 327.916 685.966 316.915 352.575 152.242 282.347 772.828 276.450 528.497 732.415 449.449 302.635 477.524 408.595 1906.956 295.110 509.975 152.181 384.694 475.651 417.508 465.680 687.344 81.755 301.554 311.727 177.387 197.464 66.429 495.798 433.429
446.364 291.441 265.381 250.996 502.643 683.531 430.537 558.998 867.019 611.813 676.859 483.406 1824.931 545.648 370.505 647.872 431.820 564.161 419.454 366.197 374.400 506.627 1007.535 325.735 889.302 579.449 672.926 363.206 538.055 305.473 735.094 235.475 405.677 650.454 341.160 646.632 356.362 576.044 599.030 515.696 229.068 392.984 326.930 535.008 563.133 473.468 534.418 673.350 616.934 385.898 606.224 657.283 449.457 289.916 446.704 409.953 629.602 255.850 456.066 461.837 285.429 0.000 463.008 456.678 323.303 389.919 298.942 851.547 750.948 544.803 315.355 594.684 366.013 531.404 805.222 419.071 777.121 566.616 602.276 357.650 412.234 902.715 511.311 742.648 861.746 654.857 410.361 597.543 658.295 2153.800 386.265 639.861 264.154 625.390 605.538 537.528 715.380 778.499 335.952 440.246 450.419 268.542 381.090 281.970 709.950 683.130
242.698 296.964 244.390 230.005 508.166 436.784 51.576 170.432 776.223 223.247 555.573 353.277 1388.936 551.171 243.972 526.586 64.997 503.560 424.977 233.898 245.244 123.552 1013.058 166.539 636.342 584.972 612.325 91.302 149.489 178.196 740.617 271.147 305.385 589.853 226.253 586.031 268.388 454.758 431.801 113.073 237.586 391.712 188.594 413.722 174.567 79.096 353.425 326.292 556.333 391.421 611.747 596.683 268.464 253.322 452.227 319.528 524.837 261.373 461.589 77.344 227.127 461.907 0.000 72.714 200.781 395.442 161.174 415.552 500.653 156.237 181.179 158.689 307.712 95.409 555.594 424.594 782.644 506.015 541.675 145.047 311.942 557.151 183.632 306.653 612.674 268.159 370.717 506.747 597.695 1852.787 391.788 466.345 236.452 573.794 432.021 446.732 594.094 784.022 277.651 445.769 455.942 274.065 227.059 189.440 273.954 622.529
226.439 296.080 243.506 229.121 507.282 420.690 30.877 109.136 753.090 161.951 585.630 330.145 1399.413 550.287 233.680 556.643 44.298 521.514 424.093 264.649 234.952 100.420 1012.174 159.818 626.461 584.088 630.278 137.030 88.193 193.850 739.734 275.012 294.611 607.807 219.549 603.985 258.095 484.814 408.669 129.432 236.702 390.829 219.267 443.779 113.271 34.907 383.481 342.652 574.286 390.538 610.863 614.636 298.520 252.438 451.343 309.235 501.705 260.489 460.705 123.072 242.781 461.024 55.469 0.000 225.222 394.558 165.363 421.501 488.107 94.941 203.530 162.476 323.366 97.147 539.500 423.711 781.760 523.969 559.628 129.812 301.168 567.628 213.688 308.866 596.580 206.863 360.425 483.615 615.648 1869.147 390.904 443.212 235.568 591.748 408.889 423.599 624.151 783.139 293.305 444.885 455.058 273.182 216.767 205.094 275.692 640.482
197.863 177.570 124.997 110.612 388.773 510.551 182.036 310.497 703.906 363.312 462.434 310.426 1567.685 431.777 171.284 433.447 183.319 352.351 299.445 60.289 172.556 258.125 893.665 77.234 716.321 465.579 461.116 105.961 289.554 61.433 621.224 136.948 232.696 438.644 124.333 434.822 195.699 361.618 426.049 230.724 118.193 278.848 13.757 320.583 314.632 224.967 272.870 372.409 405.124 272.028 492.353 445.474 187.909 124.081 332.834 246.840 466.489 141.979 342.195 174.039 73.619 322.555 205.763 208.177 0.000 254.085 59.253 594.302 577.968 296.302 31.462 337.438 154.203 274.159 632.242 305.201 663.251 354.806 390.466 109.148 239.254 729.734 206.070 485.403 689.322 406.355 279.920 434.430 446.486 1884.584 272.395 466.881 129.466 422.585 432.557 374.415 500.955 664.629 107.165 326.376 336.549 154.672 154.371 43.714 452.704 471.320
392.296 149.560 222.454 208.069 367.357 606.922 376.469 504.930 790.410 557.745 431.686 406.798 1763.220 410.361 293.896 414.287 377.753 231.099 45.360 305.794 297.791 452.559 850.362 271.667 812.693 254.494 298.078 309.139 483.987 251.405 599.808 253.960 329.068 275.607 283.257 271.785 279.753 367.193 522.421 461.628 215.650 283.324 266.526 337.008 509.065 419.400 436.511 599.218 262.875 64.988 470.938 282.436 351.550 288.513 311.418 333.344 552.993 144.105 128.789 407.770 200.977 439.971 408.940 402.610 262.900 0.000 244.874 797.479 674.340 490.735 254.951 540.616 138.379 477.336 728.614 283.785 597.444 219.264 254.924 303.582 335.625 826.106 456.846 688.580 785.137 600.789 330.473 520.934 283.448 2078.055 253.006 563.253 206.251 237.346 528.929 460.919 414.203 623.870 189.671 112.969 123.142 156.798 323.188 221.566 655.882 308.282
147.422 151.082 98.508 84.123 362.284 460.110 131.595 260.056 653.465 312.871 476.955 259.985 1525.988 405.289 120.843 447.968 132.878 364.257 279.095 101.490 122.115 207.684 867.176 26.793 665.880 439.090 473.022 64.264 239.113 36.593 594.735 125.265 182.255 450.550 77.589 446.728 145.259 376.140 375.608 216.754 91.704 245.830 55.313 335.104 264.191 174.526 294.315 396.814 417.030 245.540 465.865 457.380 209.353 107.440 306.345 196.399 416.048 115.491 315.707 162.895 85.525 316.026 164.066 157.736 61.268 249.560 0.000 552.605 527.527 245.861 39.576 295.741 166.109 232.462 581.801 278.713 636.762 366.712 402.372 58.708 188.813 679.294 212.369 443.706 638.881 355.914 246.902 383.989 458.392 1906.029 245.906 416.440 90.570 434.491 382.116 323.974 515.476 638.141 136.048 299.887 310.060 128.183 103.930 47.837 411.007 483.226
621.525 681.105 628.531 614.146 892.307 429.431 425.963 480.326 784.998 411.191 866.784 565.176 1334.834 935.311 628.113 837.797 439.385 814.771 809.118 568.982 629.385 497.940 1397.199 550.680 593.396 969.113 923.536 475.443 473.325 562.336 1124.758 655.288 662.718 901.064 610.394 897.242 652.529 765.969 573.053 380.159 621.727 775.853 572.735 724.933 478.289 397.029 664.635 561.595 867.544 775.562 995.888 907.893 579.674 637.463 836.368 695.149 647.127 645.514 845.730 461.485 611.268 846.048 384.141 418.793 584.922 779.583 545.315 0.000 493.300 480.072 565.320 313.986 691.853 330.670 548.241 808.735 1166.785 817.226 852.886 524.899 669.275 503.049 494.842 299.300 605.321 445.900 754.858 805.688 908.905 1753.094 775.929 599.573 620.593 885.005 573.273 649.503 905.305 1168.163 661.792 829.910 840.083 658.206 611.200 573.581 269.475 933.740
444.751 585.285 543.416 529.031 740.912 89.957 474.412 424.481 506.549 401.401 943.366 276.687 1156.486 783.917 409.901 914.379 487.834 882.857 708.227 633.229 413.796 418.932 1281.472 528.398 205.959 868.222 972.689 552.025 453.523 562.430 1009.031 574.922 374.229 950.217 557.067 946.396 412.073 842.551 284.564 499.305 536.612 586.924 587.847 801.515 445.138 471.160 741.217 712.525 935.630 674.671 880.161 957.047 656.256 607.190 662.360 406.660 368.679 549.694 744.839 538.067 611.361 760.933 460.723 484.504 593.802 676.486 533.943 472.922 0.000 433.625 572.110 410.411 691.946 411.107 259.119 693.008 1051.058 885.312 920.972 531.506 380.786 219.372 571.424 170.915 326.872 351.207 514.403 517.199 958.059 1941.721 611.613 319.107 503.129 911.957 284.784 361.014 981.887 1052.436 661.885 729.019 739.192 562.386 483.856 573.674 253.540 982.893
263.162 384.654 332.080 317.695 595.856 352.332 119.450 25.275 689.818 131.351 677.397 318.864 1442.174 638.861 319.002 648.410 132.872 610.088 512.667 353.223 322.897 104.481 1100.748 248.392 558.103 672.662 718.852 225.604 40.006 282.424 828.307 363.586 283.330 696.381 308.123 692.559 321.174 576.582 340.311 202.962 325.276 479.402 307.840 535.546 45.932 95.226 475.249 416.182 662.860 479.112 699.437 703.210 390.287 341.012 539.917 319.019 433.347 349.063 549.279 211.646 331.355 549.597 147.236 108.570 313.795 483.132 253.936 478.279 419.749 0.000 292.104 219.255 411.940 153.925 471.142 512.284 870.334 612.543 648.202 218.386 289.887 571.516 305.455 315.501 528.222 123.002 423.503 472.333 704.222 1942.677 479.478 374.854 324.142 680.322 340.531 412.318 715.918 871.712 381.879 533.459 543.632 361.755 305.340 293.668 318.453 729.056
194.877 188.640 136.066 121.681 399.842 507.564 179.049 307.510 700.919 360.325 476.119 307.439 1564.699 442.846 168.297 447.131 180.333 363.420 310.514 82.167 169.569 255.139 904.734 74.247 713.335 476.648 472.185 102.975 286.567 67.923 632.293 148.018 229.710 449.713 121.346 445.892 192.713 375.303 423.063 243.443 129.262 286.805 35.990 334.267 311.645 221.980 286.998 394.287 416.193 283.097 503.423 456.543 202.036 135.150 343.903 243.853 463.503 153.049 353.265 186.758 84.688 333.624 202.776 205.190 48.177 265.154 56.267 591.315 574.981 293.315 0.000 334.452 165.273 271.172 629.255 316.270 674.320 365.875 401.535 106.162 236.267 726.748 218.789 482.416 686.335 403.369 287.877 431.443 457.555 1898.712 283.464 463.894 131.545 433.654 429.571 371.428 514.640 675.698 129.043 337.445 347.618 165.741 151.384 54.783 449.718 482.389
363.847 433.489 380.915 366.530 644.691 350.239 168.285 215.223 705.806 200.633 656.597 413.709 1302.390 687.695 371.089 627.610 181.707 604.584 561.502 358.796 372.360 240.262 1149.583 297.227 553.640 721.497 713.349 231.887 208.221 318.781 877.142 411.733 432.501 690.877 356.958 687.056 395.504 555.782 418.105 179.892 374.111 528.237 329.180 514.746 213.186 139.351 454.449 393.111 657.357 527.946 748.272 697.707 369.488 389.847 588.752 446.644 511.141 397.898 598.114 217.929 367.713 598.432 140.586 161.115 341.366 531.967 301.759 302.151 414.108 214.969 321.764 0.000 448.297 65.567 469.049 561.119 919.169 607.039 642.699 267.221 439.058 470.605 284.656 220.108 526.128 235.343 497.834 623.456 698.719 1797.805 528.313 452.649 372.977 674.818 418.325 494.555 695.118 920.547 418.236 582.294 592.467 410.590 354.175 330.026 194.428 723.553
299.703 169.805 196.029 186.906 406.865 612.390 283.875 412.336 805.745 465.151 454.669 412.265 1678.269 449.870 273.123 425.681 285.159 341.933 197.047 204.236 274.395 359.965 911.757 179.073 818.161 404.305 447.890 216.545 391.393 158.811 639.316 199.272 334.536 425.418 209.982 421.596 297.539 353.853 527.889 369.034 194.487 325.959 164.969 312.817 416.471 326.806 341.125 502.407 394.706 196.445 510.446 432.248 256.164 188.976 350.926 348.679 568.329 182.422 252.866 315.176 99.419 361.200 316.346 310.016 161.342 151.687 152.280 704.885 679.807 398.141 153.394 448.022 0.000 384.742 734.081 323.293 681.343 344.388 380.048 210.988 341.093 831.574 355.288 595.986 791.161 508.195 356.214 536.269 433.260 1981.244 292.514 568.720 205.760 387.158 534.397 476.254 493.190 682.721 113.762 237.046 247.219 183.679 256.210 120.008 563.288 458.094
318.550 388.191 335.618 321.233 599.393 382.514 122.988 149.657 728.134 161.156 622.791 374.231 1320.951 642.398 325.791 593.804 136.409 570.778 516.204 324.990 327.063 194.964 1104.286 251.930 559.618 676.199 679.543 186.590 142.655 273.484 831.845 366.435 387.203 657.071 311.660 653.249 350.207 521.976 378.627 134.594 328.813 482.940 283.882 480.940 147.619 94.054 420.643 347.814 623.551 482.649 702.974 663.901 335.682 344.550 543.454 401.347 471.663 352.600 552.816 172.632 322.415 553.135 95.288 115.817 296.069 486.669 256.462 343.039 424.604 149.403 276.467 84.015 403.000 0.000 501.324 515.822 873.871 573.233 608.893 221.924 393.761 489.167 250.850 252.374 558.403 195.865 452.536 578.159 664.913 1844.374 483.016 413.171 327.680 641.012 378.847 455.078 661.312 875.250 372.939 536.996 547.169 365.293 308.878 284.728 197.230 689.747
515.759 656.292 614.423 600.038 710.299 194.458 541.621 491.689 436.767 468.610 1030.995 339.265 1315.410 753.303 480.909 1002.008 555.042 953.864 779.234 704.237 484.804 486.141 1248.421 599.406 305.403 939.229 1043.696 630.540 520.732 633.437 1026.388 645.929 445.236 1021.225 628.074 1017.403 483.081 930.179 289.025 586.934 607.619 657.931 658.854 889.144 512.347 558.060 828.846 800.154 1006.637 745.679 930.436 1028.054 743.885 678.198 733.368 472.629 314.373 620.701 815.846 625.696 682.369 831.940 548.352 559.705 664.809 747.493 604.950 560.551 237.221 500.834 643.118 498.040 762.953 498.007 0.000 764.016 1101.333 956.319 991.979 602.514 451.794 378.296 659.053 309.477 138.613 418.416 585.410 478.397 1029.066 2029.350 682.620 241.348 574.136 982.964 255.206 338.845 1069.516 1102.712 732.892 800.026 810.199 633.394 554.863 644.682 412.867 1053.900
406.971 210.601 237.129 222.744 179.137 613.398 391.144 519.605 796.885 572.420 683.745 413.273 1769.696 218.616 300.371 654.758 392.428 501.288 311.739 344.307 304.266 467.234 668.700 286.342 819.168 303.516 591.120 323.813 498.662 266.080 396.259 268.635 335.543 568.648 297.932 564.827 286.228 582.930 528.896 476.303 230.325 217.444 298.130 541.894 523.740 434.075 537.131 654.131 554.061 282.000 267.389 575.478 452.170 303.188 170.402 339.819 559.469 175.010 276.049 422.445 315.011 454.646 423.615 417.285 304.085 294.917 259.549 812.154 680.815 505.410 282.393 555.291 318.223 492.011 735.089 0.000 438.286 503.743 539.403 318.257 342.101 832.581 471.918 703.255 791.613 615.464 302.629 527.409 576.490 2148.845 184.967 569.728 220.926 530.388 535.404 467.394 707.245 439.664 365.535 296.052 288.429 187.702 337.863 277.324 670.557 601.324
776.538 580.167 606.695 592.310 391.616 982.964 760.711 889.172 1071.503 941.986 843.327 782.839 2139.262 398.638 669.937 825.927 761.994 642.739 534.683 713.873 673.833 836.800 326.540 655.908 1188.735 324.307 709.718 693.380 868.229 635.646 117.126 638.201 705.110 687.247 667.499 683.425 655.795 778.833 898.463 845.870 599.891 587.010 667.696 748.648 893.307 803.641 843.378 1023.697 674.515 551.299 187.746 694.076 758.417 672.754 539.968 709.385 929.035 544.576 508.879 792.011 684.578 824.212 793.181 786.851 673.651 557.376 629.116 1181.720 1050.381 874.977 651.959 924.857 687.790 861.577 1091.659 462.154 0.000 630.904 666.564 687.823 711.667 1202.148 841.484 1072.822 1032.990 985.030 672.195 832.084 695.088 2518.412 554.533 939.294 590.493 650.214 904.971 836.961 825.844 74.560 735.101 564.613 563.912 557.269 707.429 646.890 1040.123 719.923
536.746 342.657 415.551 401.166 560.454 800.020 505.390 628.849 983.507 681.664 302.223 599.895 1817.542 603.459 486.993 284.824 518.811 113.529 232.897 441.279 490.888 577.366 890.773 416.116 1005.790 294.904 134.874 453.588 607.906 395.854 700.353 436.315 522.165 112.403 447.026 108.581 472.850 244.973 715.518 517.022 408.747 476.422 402.012 219.439 632.984 543.319 395.410 598.393 76.463 258.085 571.482 119.232 310.449 426.019 504.515 526.441 746.091 337.203 275.584 464.294 336.463 598.243 494.864 526.529 398.385 193.097 389.323 844.158 867.437 614.654 390.437 587.295 331.477 563.260 921.711 476.882 637.855 0.000 64.225 448.031 528.723 985.757 457.246 735.259 978.235 725.596 523.570 714.031 120.244 1981.143 446.103 756.350 399.349 67.779 722.026 654.016 284.740 664.280 331.525 290.297 300.470 349.895 493.253 357.051 710.087 145.079
518.249 370.496 414.575 405.453 588.293 827.858 502.422 630.883 1011.346 683.698 283.510 627.733 1821.421 631.297 491.670 266.111 503.705 95.033 260.736 422.782 492.942 578.511 921.808 397.620 1033.629 325.939 107.828 435.091 609.940 377.357 731.388 417.819 550.004 86.444 428.529 82.623 500.689 226.260 743.357 520.901 413.033 504.260 383.515 200.942 635.018 545.353 399.289 602.272 44.775 285.924 602.517 93.274 314.328 407.523 532.354 554.280 773.929 365.041 306.619 468.174 317.966 579.746 498.743 528.563 379.888 220.936 370.827 848.037 895.275 616.688 371.940 591.174 343.321 567.139 949.549 504.721 668.890 31.473 0.000 429.534 556.561 989.636 461.125 739.139 1006.073 726.741 551.408 741.870 94.286 1962.429 473.942 784.188 424.307 89.259 749.865 681.855 266.027 695.315 313.029 321.332 331.505 377.734 474.757 338.555 713.966 119.120
121.729 190.443 137.869 123.485 401.645 467.310 90.811 219.272 660.665 272.087 528.575 267.185 1498.248 444.650 128.043 499.588 92.095 415.877 318.456 159.012 129.315 166.901 906.537 54.181 673.080 478.451 524.641 51.479 198.329 88.213 634.097 169.375 189.455 502.170 113.912 498.348 152.458 427.760 382.808 203.969 131.065 285.192 113.630 386.724 223.407 133.742 352.632 395.453 468.650 284.901 505.226 508.999 267.670 146.801 345.706 203.599 423.248 154.852 355.068 150.110 137.144 355.387 150.491 116.952 119.585 288.921 59.726 520.335 534.727 205.077 97.893 261.311 217.729 195.981 589.001 318.074 676.123 418.332 453.991 0.000 196.013 666.463 211.008 419.003 646.081 315.131 254.788 391.189 510.011 1943.683 285.268 423.640 129.931 486.111 389.316 331.174 567.096 677.502 187.668 339.248 349.421 167.545 111.130 99.457 374.527 534.845
149.050 222.347 180.478 166.093 413.642 308.590 246.043 284.847 518.617 368.450 639.854 108.465 1464.888 456.647 46.964 610.867 247.326 519.919 345.289 270.292 50.859 207.826 918.534 165.461 514.360 505.284 609.751 196.595 299.578 199.492 646.094 211.984 30.735 587.280 194.129 583.458 49.136 539.039 224.088 349.085 173.674 223.986 224.909 498.003 305.505 288.974 463.911 532.429 572.692 311.734 517.223 594.109 378.950 244.253 299.423 46.981 281.200 186.756 381.901 295.226 248.424 397.995 296.397 272.184 230.864 313.548 171.005 675.567 376.007 279.680 209.173 416.543 329.008 351.213 430.281 330.071 688.120 522.374 558.034 168.569 0.000 527.773 347.984 426.527 487.360 314.064 151.465 249.141 595.121 2075.625 248.675 264.920 140.191 549.019 230.596 189.126 678.376 689.499 298.947 366.081 376.254 199.449 120.918 210.737 529.759 619.955
596.037 736.571 694.702 680.317 892.198 241.242 608.690 580.110 657.835 539.324 1049.511 427.973 962.093 935.202 561.187 1020.524 622.112 997.498 859.512 751.709 565.082 574.562 1432.758 679.684 149.304 1019.508 1106.263 658.170 609.153 713.716 1160.317 726.208 525.515 1083.791 708.353 1079.969 563.359 948.696 435.850 605.450 687.897 738.209 739.132 907.660 600.768 579.756 847.362 818.670 1050.271 825.957 1031.446 1090.621 762.401 758.476 813.646 557.946 519.964 700.980 896.125 644.212 762.647 912.219 566.868 601.520 745.087 827.772 685.228 524.503 203.416 589.255 723.396 509.495 843.232 511.672 396.621 844.294 1202.344 999.953 1035.613 682.792 532.072 0.000 677.569 306.649 478.157 506.837 665.689 668.485 1091.633 2043.498 762.898 470.393 654.414 1063.243 436.069 512.300 1088.032 1203.722 813.171 880.305 890.478 713.672 635.142 724.960 355.224 1116.467
297.735 350.928 298.354 283.970 562.130 535.787 175.787 299.246 831.630 352.061 491.537 438.150 1487.939 605.135 299.009 462.550 189.208 439.524 478.941 187.377 300.280 247.763 1067.022 221.576 739.189 618.412 548.289 146.338 278.303 232.160 794.582 325.112 360.421 525.817 280.217 521.995 323.424 390.722 553.774 156.993 291.550 445.677 208.463 349.686 303.381 213.716 289.389 213.132 492.297 445.386 665.711 532.647 204.427 307.286 506.191 374.564 594.214 315.337 515.553 128.501 268.324 515.872 165.261 196.926 220.650 448.790 215.138 514.555 599.656 285.051 226.167 257.692 348.909 233.657 654.597 478.559 836.608 441.979 477.639 200.083 366.978 656.154 0.000 405.656 711.677 395.994 425.754 562.154 533.659 1895.766 445.753 590.556 290.417 509.758 556.232 502.139 530.058 837.987 300.643 499.733 509.906 328.030 282.095 238.419 380.484 558.493
441.362 586.772 534.198 519.813 789.239 189.269 327.663 312.098 544.835 232.675 772.451 325.014 1216.080 832.243 458.228 743.464 341.084 720.438 714.785 474.650 462.123 306.550 1302.866 456.348 333.532 874.780 829.203 381.110 308.372 468.004 1030.425 560.955 422.556 806.731 516.061 802.909 460.400 671.636 332.890 328.390 527.394 635.250 478.402 630.600 313.337 300.245 570.303 541.610 773.211 681.230 901.555 813.561 485.341 543.130 710.687 454.987 406.965 551.181 751.397 367.152 516.935 751.716 289.808 313.589 490.589 685.250 450.982 302.008 194.000 315.120 470.987 239.496 597.520 240.192 308.079 714.403 1072.452 722.893 758.553 426.598 429.113 305.657 400.509 0.000 365.158 238.825 562.729 565.526 814.573 1770.806 659.939 359.411 526.260 790.672 333.110 409.341 810.972 1073.831 567.459 735.577 745.750 563.873 513.553 479.248 106.788 839.407
532.526 672.563 630.694 616.309 652.400 235.066 582.229 532.297 369.948 509.218 1071.602 356.032 1391.364 695.405 497.599 1042.615 595.650 970.135 795.505 720.927 501.494 526.749 1169.897 616.096 440.837 955.500 1059.967 647.231 561.340 650.128 968.489 662.200 462.004 1037.496 644.765 1033.674 499.352 970.787 288.675 627.542 623.890 674.202 675.545 929.751 552.955 598.667 869.454 840.762 1022.908 761.950 872.537 1044.325 784.493 694.469 701.340 451.495 240.426 636.972 832.117 666.303 699.059 848.211 588.959 600.312 681.500 763.764 621.641 601.159 302.483 541.442 659.808 538.648 779.644 538.615 142.762 780.286 1043.435 972.590 1008.250 619.204 468.561 454.250 699.661 350.085 0.000 459.024 591.416 420.499 1045.337 2069.957 698.891 234.817 590.407 999.235 295.814 307.527 1110.124 1044.813 749.583 816.297 826.470 649.665 571.554 661.372 453.475 1070.171
290.796 476.667 424.094 409.709 681.590 272.718 211.464 102.482 609.639 70.230 781.889 255.735 1405.580 724.595 346.636 752.902 224.885 702.101 604.680 445.237 350.531 155.984 1192.762 340.406 478.488 764.675 810.866 317.618 147.655 374.437 920.321 455.600 310.963 788.394 400.137 784.572 348.808 681.074 260.132 309.422 417.289 523.658 399.854 640.038 108.235 202.875 579.741 522.642 754.874 571.125 791.450 795.224 494.779 433.026 599.095 346.653 353.168 441.076 641.292 303.660 423.369 641.611 254.885 216.219 405.809 575.146 345.950 451.509 340.135 127.757 384.117 249.496 503.953 196.783 391.528 604.298 962.348 704.556 740.216 310.400 317.521 491.901 409.947 240.179 448.607 0.000 451.137 496.021 796.235 1954.343 548.347 294.675 416.156 772.335 260.352 336.582 820.410 963.726 473.892 625.472 635.645 453.769 397.354 385.681 281.859 821.070
281.814 248.348 210.828 196.443 379.793 461.702 347.754 437.959 623.841 521.562 677.856 261.577 1618.000 422.797 148.675 648.869 349.038 545.920 371.289 315.721 152.570 360.938 914.297 257.756 667.472 528.282 635.752 295.228 452.690 237.494 641.856 242.334 183.847 613.280 257.324 609.458 134.532 577.041 377.200 447.718 204.023 180.501 269.544 536.005 458.617 390.685 508.546 625.545 598.692 337.734 512.986 620.110 423.584 274.602 255.938 166.775 386.425 212.757 390.604 393.859 286.425 428.345 395.029 373.895 275.499 339.548 230.963 777.279 529.119 432.792 253.807 518.254 362.855 452.924 583.393 325.833 683.883 548.375 584.034 270.280 190.405 680.885 443.332 579.639 618.569 467.177 0.000 324.300 621.121 2120.260 213.885 418.032 170.541 575.020 383.708 294.350 716.377 685.261 336.949 392.082 392.488 225.449 222.630 248.738 631.470 645.956
318.244 419.963 378.093 363.709 445.409 443.501 432.500 454.041 478.806 537.644 837.889 239.098 1599.799 488.414 244.999 808.902 445.361 717.535 542.904 468.327 248.894 377.020 1066.858 363.496 649.272 702.900 807.367 394.630 468.773 397.527 761.498 409.599 248.002 784.895 392.164 781.073 246.751 737.074 272.275 547.120 371.289 406.881 422.944 696.038 474.699 470.429 661.946 730.464 770.307 509.349 665.546 791.725 576.985 441.868 482.318 198.895 279.194 384.372 579.516 493.261 446.459 595.611 487.178 450.584 428.899 511.164 369.040 812.512 510.918 448.874 407.207 597.998 527.043 532.668 498.961 527.686 836.444 719.990 755.649 366.604 254.560 662.685 546.019 561.439 440.292 483.259 277.253 0.000 792.737 2273.660 440.265 319.789 337.806 746.635 322.926 187.119 876.410 837.822 496.982 563.697 573.870 397.064 318.953 408.772 664.829 817.571
569.729 421.976 466.055 456.932 639.772 879.338 553.901 682.362 1062.825 735.177 283.041 679.213 1872.901 682.777 543.150 265.642 555.185 146.512 312.215 474.262 544.421 629.991 973.287 449.099 1085.109 377.419 47.577 486.571 661.420 428.837 782.867 469.299 601.483 29.335 480.009 25.514 552.169 245.287 794.837 572.381 464.513 555.740 434.995 221.247 686.498 596.832 450.710 653.752 61.469 337.403 653.997 36.165 365.808 459.002 583.833 605.759 825.409 416.521 358.099 519.653 369.446 631.226 550.223 580.042 431.368 272.416 422.307 899.517 946.755 668.167 423.420 642.654 394.801 618.619 1001.029 556.201 720.369 82.952 51.480 481.014 608.041 1041.116 512.605 790.618 1057.553 778.221 602.888 793.350 0.000 1961.960 525.422 835.668 475.787 108.256 801.345 733.334 265.558 746.795 364.508 372.812 382.985 429.213 526.236 390.034 765.446 62.011
2026.040 2005.747 1953.174 1938.789 2216.950 1893.157 1869.947 1944.227 2248.724 1924.954 1660.869 2028.902 2840.655 2259.954 1999.461 1705.755 1881.402 1900.781 2098.702 1890.201 2000.733 1941.923 2721.842 1905.410 2096.558 2186.693 1952.156 1877.572 1923.284 1889.610 2449.401 1965.125 2060.873 1916.725 1952.510 1925.863 2023.876 1791.065 2036.779 1725.151 1946.369 2107.025 1867.885 1869.653 1948.362 1841.013 1753.387 1861.781 1941.192 2098.100 2320.530 1923.555 1747.168 1952.258 2161.011 2075.017 2110.853 1970.156 2154.522 1818.378 1870.248 2134.170 1827.033 1862.776 1859.023 2053.342 1887.430 1760.065 1957.026 1930.032 1859.639 1797.555 1960.214 1814.238 2011.967 2133.378 2491.428 1934.448 1937.619 1931.318 2067.431 2008.871 1883.989 1763.026 2069.047 1942.713 2108.097 2262.607 1937.526 0.000 2100.572 2063.299 1957.643 2002.227 2036.998 2113.229 1697.542 2492.806 1891.905 2138.702 2148.875 1982.849 1982.548 1871.891 1733.201 1962.360
361.648 184.617 211.145 196.760 247.153 541.536 365.160 493.621 725.024 546.436 660.269 341.412 1697.834 290.157 228.510 631.282 366.444 477.812 303.182 318.323 232.405 440.773 819.883 260.358 747.307 438.340 567.644 297.829 472.678 240.096 547.442 242.651 263.682 545.172 265.378 541.351 214.367 559.454 457.035 450.319 204.341 55.143 272.146 518.418 497.756 408.091 511.147 628.147 530.585 269.627 418.572 552.002 426.186 277.204 97.786 267.958 487.607 149.026 300.662 396.461 289.027 428.662 397.631 391.301 278.100 271.441 233.565 786.170 608.954 479.426 256.409 529.307 294.747 466.027 663.228 231.419 589.469 480.267 515.927 292.273 270.239 760.720 445.934 659.474 695.340 547.011 194.011 442.975 553.014 2122.861 0.000 497.867 178.594 506.912 463.543 395.533 683.769 590.847 339.551 310.170 302.546 161.718 302.464 251.340 644.573 577.848
318.878 459.412 417.543 403.158 591.969 232.989 409.780 359.849 368.235 336.019 876.919 142.385 1389.287 634.974 284.028 847.932 423.202 756.984 582.354 507.357 287.924 354.300 1155.599 402.526 438.760 742.349 846.816 433.660 388.891 436.557 883.158 449.049 248.356 824.345 431.194 820.523 286.201 776.104 75.028 501.547 410.739 461.051 461.974 735.068 380.506 444.111 700.976 714.767 809.757 548.799 754.288 831.174 616.015 481.318 536.488 258.632 111.763 423.821 618.966 501.976 485.489 635.060 462.241 427.864 467.929 550.613 408.070 602.001 300.407 368.993 446.237 439.935 566.073 387.222 226.812 567.135 925.185 759.439 795.099 405.634 254.914 452.173 585.049 350.927 265.212 285.825 388.530 289.912 832.186 2070.799 485.740 0.000 377.256 786.084 91.570 124.848 915.440 926.563 536.012 603.146 613.319 436.514 357.983 447.801 454.317 857.020
222.584 127.463 74.889 60.504 338.665 463.483 206.757 335.218 646.970 388.033 535.807 263.358 1601.150 381.669 150.456 506.820 208.040 423.109 255.475 173.672 154.351 282.846 843.557 93.179 669.253 415.471 522.144 139.426 314.275 95.445 571.116 106.395 185.628 499.672 86.784 495.851 136.313 434.992 378.981 291.916 68.085 189.241 127.495 393.956 339.353 249.688 366.497 471.976 475.882 221.920 442.246 506.502 281.536 132.553 264.678 189.904 409.554 91.872 292.088 238.057 144.377 292.406 239.228 232.898 133.450 225.941 75.162 627.766 530.900 321.023 111.758 370.903 224.961 307.624 585.174 255.093 613.143 425.564 461.224 133.869 192.186 682.667 287.531 518.868 641.698 431.076 190.313 377.494 507.514 1978.211 213.930 419.813 0.000 461.412 385.489 317.479 574.328 614.521 194.900 276.268 286.441 104.564 126.714 106.689 486.169 532.348
583.948 377.685 450.579 436.194 595.482 835.048 540.418 663.877 1018.535 716.692 335.677 634.923 1852.570 638.487 522.021 318.277 553.839 173.323 267.925 488.481 525.916 612.394 925.801 463.318 1040.818 329.932 134.679 500.790 642.934 443.056 735.381 482.085 557.193 126.113 494.227 122.291 507.878 292.598 750.546 552.050 443.775 511.450 449.214 268.557 668.012 578.347 430.438 633.421 88.280 293.113 606.510 132.943 345.477 473.221 539.543 561.469 781.118 372.231 310.612 499.322 383.664 645.445 529.892 561.557 445.587 228.125 436.525 879.186 902.465 649.682 437.639 622.323 366.504 598.288 956.739 511.910 672.883 109.763 78.291 495.233 563.751 1020.785 492.274 770.287 1013.263 760.624 558.598 749.059 127.466 2014.596 481.131 791.378 434.376 0.000 757.054 689.044 318.194 699.308 378.727 325.325 335.498 384.923 540.455 404.253 745.115 154.378
321.659 462.193 420.324 405.939 609.484 228.706 405.497 355.565 409.895 331.735 879.700 145.165 1385.004 652.489 286.809 850.713 418.918 759.765 585.135 510.137 290.705 350.017 1158.380 405.307 434.477 745.130 849.597 436.441 384.608 439.338 885.939 451.830 251.137 827.125 433.975 823.304 288.981 778.885 79.722 497.263 413.520 463.832 464.755 737.849 376.223 439.828 703.757 710.483 812.538 551.580 757.069 833.955 618.795 484.098 539.268 276.147 153.424 426.602 621.747 497.693 488.270 637.841 457.957 423.580 470.710 553.394 410.851 597.717 296.123 364.710 449.018 435.652 568.854 382.939 248.034 569.916 927.966 762.220 797.880 408.414 257.695 447.890 587.830 346.644 305.114 281.541 391.311 307.427 834.967 2066.516 488.521 55.608 380.037 788.865 0.000 142.363 918.221 929.344 538.793 605.927 616.100 439.295 360.764 450.582 450.034 859.801
263.318 365.036 323.167 308.782 477.306 300.692 377.574 399.115 339.676 403.721 782.963 131.349 1456.990 520.311 190.073 753.976 390.435 662.609 487.978 413.401 193.968 322.094 1061.223 308.570 506.462 647.974 752.441 339.704 413.846 342.601 788.783 354.673 193.076 729.969 337.238 726.147 191.825 682.148 95.340 492.194 316.363 366.675 368.018 641.112 419.773 415.503 607.020 675.538 715.381 454.423 659.912 736.798 522.059 386.942 442.112 143.969 102.259 329.446 524.590 438.335 391.533 540.685 432.252 395.658 373.973 456.237 314.114 669.703 368.109 393.948 352.281 507.637 472.117 454.924 346.729 472.760 830.809 665.064 700.723 311.678 199.634 519.875 491.093 418.629 334.404 353.527 284.067 175.249 737.810 2138.501 391.364 142.855 282.880 691.708 161.850 0.000 821.484 832.188 442.056 508.771 518.944 342.138 264.027 353.845 522.019 762.645
629.675 533.707 526.001 516.879 751.503 916.338 556.338 679.797 1135.718 732.612 67.709 742.238 1868.490 794.508 603.096 97.111 569.760 253.258 423.946 520.028 604.368 628.315 1085.018 509.046 1119.740 489.150 254.614 531.243 658.854 488.783 894.598 529.245 664.508 219.183 539.955 228.320 627.512 162.090 857.861 567.970 524.459 667.471 477.998 240.679 683.932 594.267 404.508 634.873 243.649 449.135 765.728 226.013 357.149 518.949 695.565 678.652 898.301 528.252 469.830 515.243 429.392 691.173 545.812 577.477 469.136 384.147 482.253 895.106 980.208 665.602 478.931 638.243 454.747 614.208 1035.148 667.932 832.101 236.905 240.076 540.961 671.066 1036.705 508.194 786.207 1092.228 776.545 686.187 866.242 239.984 1746.629 637.153 898.693 535.733 304.684 864.369 806.227 0.000 858.526 395.709 484.543 494.716 540.945 586.183 449.981 761.035 264.818
774.997 578.627 605.155 590.770 390.076 981.424 759.170 887.631 1069.963 940.446 889.898 781.299 2137.722 397.097 668.397 872.499 760.453 689.310 581.255 712.333 672.292 835.260 326.155 654.368 1187.194 370.878 756.290 691.839 866.688 634.106 108.873 636.661 703.569 733.818 665.958 729.996 654.254 825.404 896.922 844.329 598.351 585.470 666.155 795.219 891.766 802.101 889.949 1022.157 721.087 597.871 186.205 740.648 804.988 671.214 538.428 707.845 927.495 543.036 555.450 790.470 683.037 822.672 791.641 785.311 672.110 603.948 627.575 1180.180 1048.841 873.436 650.419 923.317 686.249 860.037 1090.118 460.613 51.456 677.476 713.135 686.283 710.127 1200.607 839.944 1071.281 1031.449 983.490 670.655 830.544 741.659 2516.871 552.993 937.754 588.952 696.785 903.430 835.420 872.415 0.000 733.561 611.184 610.483 555.728 705.889 645.350 1038.583 766.494
277.892 220.842 174.218 165.095 435.000 590.579 262.065 390.526 783.935 443.340 384.435 390.455 1656.458 478.005 251.313 355.448 263.348 278.088 225.182 176.894 252.584 338.154 939.892 157.262 796.350 432.440 386.853 194.734 369.583 137.000 667.452 177.462 312.725 364.381 188.172 360.559 275.728 283.619 506.078 347.224 172.676 333.331 134.555 242.584 394.661 304.995 300.532 461.813 330.861 224.580 538.581 371.211 215.571 167.165 379.061 326.868 546.518 196.463 281.001 290.643 77.609 339.389 294.535 288.205 125.693 179.822 130.470 683.074 657.997 376.330 131.583 426.211 102.964 362.931 712.271 351.429 709.478 280.543 316.203 189.177 319.282 809.763 322.674 574.176 769.350 486.384 334.403 514.459 372.223 1940.650 320.649 546.910 183.950 348.322 512.586 454.443 422.956 710.857 0.000 265.182 275.355 209.155 234.399 98.197 541.477 397.057
466.473 225.508 296.631 282.246 377.140 685.114 450.646 579.107 868.602 631.922 557.107 484.989 1841.412 420.145 372.088 539.708 451.929 356.519 120.946 403.809 375.983 526.736 835.781 345.844 890.885 258.120 423.499 383.315 558.164 325.581 609.592 328.137 407.260 401.027 357.434 397.206 357.945 492.613 600.613 535.805 289.826 296.234 357.631 462.429 583.242 493.577 557.159 713.633 388.296 130.319 480.721 407.857 472.197 362.690 321.201 411.536 631.185 218.282 74.186 481.946 333.082 514.148 483.117 476.787 363.586 161.692 319.051 871.656 752.531 564.912 341.895 614.793 270.484 551.513 806.805 261.041 582.863 344.685 380.345 377.759 413.817 904.298 531.420 762.757 863.329 674.966 380.451 599.126 408.869 2208.347 262.790 641.444 280.428 363.994 607.121 539.111 539.624 609.288 321.775 0.000 16.537 230.975 397.365 336.826 730.058 433.703
454.495 213.530 284.653 270.268 365.162 673.136 438.668 567.129 856.624 619.944 565.296 473.011 1829.434 408.167 360.110 547.897 439.951 364.708 129.135 391.831 364.005 514.758 823.843 333.866 878.907 246.182 431.688 371.337 546.186 313.604 597.614 316.159 395.282 409.216 345.456 405.395 345.967 500.802 588.635 523.827 277.849 284.256 345.653 470.618 571.264 481.599 563.385 701.655 396.485 125.089 468.743 416.046 478.424 350.712 309.223 399.558 619.207 206.304 82.375 469.968 327.851 502.170 471.139 464.809 351.608 156.462 307.073 859.678 740.553 552.934 329.917 602.815 265.253 539.535 794.828 249.103 570.925 352.874 388.534 365.781 401.839 892.320 519.442 750.779 851.351 662.988 368.474 587.148 417.058 2196.369 250.812 629.466 268.450 372.183 595.143 527.133 547.813 597.350 316.545 16.537 0.000 218.997 385.387 324.848 718.081 441.892
283.228 33.973 113.385 99.000 292.704 506.642 267.400 395.861 690.130 448.676 540.564 306.517 1661.794 335.708 193.615 511.577 268.684 358.106 180.949 220.563 197.511 343.490 797.596 162.598 712.413 340.945 447.618 200.070 374.919 142.336 525.155 144.891 228.788 425.146 174.189 421.324 179.473 439.748 422.141 352.560 106.581 183.044 174.386 398.712 399.997 310.331 413.388 530.387 410.879 147.394 396.284 431.976 328.427 179.444 236.765 233.063 452.713 35.037 217.561 298.701 191.268 330.902 299.871 293.541 180.341 151.415 135.806 688.410 574.059 381.666 158.649 431.547 175.042 368.267 628.333 209.132 567.182 360.562 396.221 194.513 235.345 725.826 348.174 579.512 684.857 491.720 230.192 420.654 432.988 2025.102 176.326 462.972 97.182 386.886 428.649 360.639 563.743 568.560 226.333 201.742 211.915 0.000 214.119 153.580 546.813 457.822
105.115 214.431 161.857 147.472 425.633 386.063 158.751 287.212 579.418 340.027 552.563 185.938 1542.361 468.637 46.796 523.575 160.034 439.864 342.443 183.000 48.068 234.841 930.525 78.169 591.833 502.439 548.629 109.303 266.269 112.200 658.084 193.363 108.208 526.157 106.837 522.336 71.212 451.747 301.561 261.793 155.053 246.062 137.617 410.711 291.347 201.682 376.619 445.137 492.637 308.888 529.214 532.987 291.658 170.789 321.499 122.352 342.001 178.840 379.056 207.934 161.132 379.374 209.105 184.892 143.572 312.909 83.713 588.275 453.480 273.017 121.881 329.251 241.716 263.921 507.754 342.061 700.111 442.319 477.979 81.277 114.766 605.247 260.693 486.943 564.834 383.071 173.541 309.942 533.999 1988.333 270.751 342.393 147.827 510.098 308.069 249.927 591.084 701.489 211.656 363.236 373.409 191.532 0.000 123.445 442.467 558.833
179.695 133.857 81.283 66.898 345.059 492.382 163.867 292.328 685.737 345.143 470.018 292.257 1558.261 388.063 153.115 441.031 165.151 357.320 261.869 117.030 154.387 239.957 849.951 59.065 698.153 421.865 466.084 96.537 271.385 38.803 577.510 96.152 214.528 443.613 89.974 439.791 177.531 369.202 407.881 249.026 74.479 235.134 70.853 328.167 296.463 206.798 309.855 426.854 410.092 228.314 448.640 450.442 224.893 80.367 289.120 228.671 448.321 98.266 298.482 195.168 78.587 296.470 196.338 190.008 76.808 232.335 32.272 584.877 559.799 278.133 55.116 328.014 159.172 264.734 614.073 261.487 619.537 359.775 395.434 90.980 221.085 711.566 244.641 475.978 671.153 388.187 236.206 416.261 451.454 1921.568 228.681 448.712 85.752 427.554 414.389 356.246 508.539 620.915 129.111 282.662 292.835 110.958 136.202 0.000 443.280 476.288
459.228 528.869 476.296 461.911 740.071 288.184 263.666 299.478 643.751 216.779 757.026 423.930 1175.704 783.076 466.469 728.038 277.087 705.013 656.882 459.224 467.741 335.642 1244.964 392.608 399.854 816.877 813.777 327.268 292.477 414.162 972.523 507.113 521.471 791.306 452.338 787.484 490.885 656.210 431.806 275.272 469.491 623.618 424.560 615.174 297.441 234.732 554.877 488.492 757.785 623.327 843.652 798.135 469.916 485.228 684.133 542.025 505.881 493.278 693.494 313.310 463.093 693.813 235.966 256.495 436.747 627.348 397.140 290.235 266.373 299.224 417.145 158.770 543.678 160.947 406.994 656.500 1014.550 707.468 743.127 362.602 528.029 343.919 385.084 112.588 464.074 251.489 593.214 664.441 799.147 1759.034 623.694 458.326 468.358 775.247 432.026 508.256 795.547 1015.928 513.617 677.674 687.847 505.971 449.556 425.406 0.000 823.981
578.711 430.958 475.037 465.914 648.754 888.320 562.883 691.344 1071.808 744.159 317.848 688.195 1881.883 691.759 552.132 300.448 564.167 155.494 321.197 483.244 553.403 638.973 982.269 458.081 1094.091 386.401 18.875 495.553 670.402 437.819 791.849 478.281 610.465 66.732 488.991 37.331 561.151 274.768 803.819 581.363 473.495 564.722 443.977 250.728 695.480 605.814 459.751 662.734 70.451 346.385 662.979 62.341 374.790 467.984 592.815 614.741 834.391 425.503 367.081 528.635 378.428 640.208 559.205 589.024 440.350 281.398 431.289 908.499 955.737 677.149 432.402 651.636 403.783 627.601 1010.011 565.183 729.351 91.934 60.462 489.996 617.023 1050.098 521.587 799.600 1066.535 787.203 611.870 802.332 56.875 1996.767 534.404 844.650 484.769 117.238 810.327 742.316 300.365 755.777 373.490 381.794 391.967 438.195 535.218 399.016 774.428 0.000
NODE_COORD_SECTION
1 1396.734158 2632.761280
2 -688.743854 -1110.252092
3 -324.279478 224.262813
4 -195.130344 61.871508
5 1874.311714 -4894.202400
6 6246.242755 7921.909720
7 48.262753 4399.818966
8 1255.736017 5485.275497
9 12332.477074 1839.746106
10 1693.725583 6441.549124
11 -10500.705345 -1325.179675
12 4043.784873 3803.301282
13 19716.346913 20361.922203
14 2147.599427 -5254.969294
15 2020.934562 1301.035428
16 -9837.528538 -1007.390152
17 124.488028 4239.573799
18 -6749.407846 -2432.819857
19 -2968.414687 -2864.295698
20 -1467.635018 1888.764864
21 1991.572234 1243.887366
22 1039.390133 4313.274135
23 6007.200672 -16088.641879
24 -483.414071 1345.198560
25 7414.307851 11081.643169
26 -2865.694444 -6331.611688
27 -7898.185417 -4334.742557
28 -642.310075 2711.319327
29 1030.596830 5241.805638
30 -838.652116 899.821699
31 2638.965816 -11301.451435
32 -727.802753 183.852899
33 2692.315544 2004.612394
34 -8136.699784 -3920.773805
35 -17.886538 952.790500
36 -8110.860850 -4191.927802
37 2325.050447 974.509866
38 -7740.820314 -959.161466
39 5607.761807 4335.299105
40 -1516.710031 5825.991544
41 -199.342649 -92.701436
42 1586.774457 -1509.867460
43 -1213.691876 1196.750262
44 -6553.472685 -1062.869804
45 1196.525970 5637.321299
46 191.264463 5317.076500
47 -5105.066693 2518.510391
48 -4544.185166 6285.298341
49 -7624.362110 -3779.392776
50 -2573.496189 -2890.391261
51 1245.931332 -9257.625241
52 -8168.036707 -4043.447973
53 -4620.499355 1744.410958
54 -607.915034 464.230283
55 1612.738094 -2558.937902
56 3015.415158 1535.010906
57 7563.087165 4457.727172
58 -447.698342 -955.807025
59 -2487.820955 -3506.253865
60 -1107.122592 3985.165683
61 -1590.340955 576.601539
62 -848.318822 -230.417003
63 -489.778181 4942.785346
64 167.339518 4802.028430
65 -1357.267396 1276.590210
66 -3143.734110 -2407.894170
67 -543.605597 1233.207141
68 65.148866 12167.411933
69 6184.415302 8937.877271
70 1096.007895 5205.162979
71 -1190.810845 1232.587578
72 288.446515 7551.427848
73 -1925.699372 -529.468341
74 326.694464 6623.826073
75 8877.727467 7600.132324
76 97.960090 -3939.235796
77 1277.582887 -12444.313722
78 -7012.466317 -3471.483621
79 -7372.854482 -3708.919122
80 -91.920969 2329.977467
81 2641.558099 1797.798565
82 7475.060360 12880.253100
83 -2360.367018 4349.389595
84 3430.682757 9546.177380
85 9138.984502 6245.743869
86 2235.169737 6305.075168
87 2752.758376 -135.962079
88 5604.689761 1681.880319
89 -7954.105569 -3965.373630
90 -16537.102223 22081.042976
91 1064.786764 -1830.052610
92 6265.998990 4847.738667
93 399.497793 181.998845
94 -6692.031363 -4074.501248
95 5675.228018 5083.996958
96 5925.509984 3574.762940
97 -10219.478687 -1847.993095
98 1886.134833 -12655.128592
99 -2390.181118 79.900004
100 -2002.301890 -3187.486067
101 -1957.785369 -3198.829473
102 -508.863169 -911.172016
103 936.255742 1512.564713
104 -792.905281 833.274938
105 2311.067982 9774.494461
106 -7945.458305 -4502.732570
DEMAND_SECTION
1 0
2 5
3 9
4 9
5 1
6 2
7 66
8 3
9 6
10 1
11 8
12 8
13 5
14 7
15 8
16 7
17 3
18 2
19 7
20 6
21 5
22 6
23 75
24 5
25 5
26 5
27 9
28 5
29 1
30 8
31 75
32 6
33 9
34 10
35 2
36 8
37 8
38 3
39 7
40 53
41 77
42 7
43 10
44 5
45 7
46 5
47 10
48 5
49 9
50 9
51 5
52 8
53 5
54 3
55 3
56 5
57 6
58 8
59 5
60 8
61 6
62 1
63 2
64 3
65 10
66 2
67 6
68 94
69 10
70 2
71 9
72 4
73 4
74 4
75 5
76 7
77 3
78 3
79 5
80 6
81 8
82 90
83 9
84 55
85 10
86 3
87 7
88 1
89 6
90 9
91 5
92 1
93 8
94 76
95 3
96 9
97 4
98 10
99 7
100 2
101 4
102 2
103 7
104 57
105 7
106 6
DEPOT_SECTION
1
-1
EOF
