NAME : mamut-metz-n135-k10-poi
COMMENT : Mamut2026 euclidean metric; city metz; No of trucks: 10 (lower bound, fleet not fixed); 3-decimal seconds/meters; ENU ref in mamut-metz-n135-k10-poi.vrp.json
TYPE : CVRP
DIMENSION : 136
EDGE_WEIGHT_TYPE : EXPLICIT
EDGE_WEIGHT_FORMAT : FULL_MATRIX
CAPACITY : 1049
EDGE_WEIGHT_SECTION
0.000 283.843 6149.109 4564.661 6091.644 4382.331 4494.572 3884.808 85.360 3729.081 11947.613 8141.525 5091.057 1933.476 7391.770 8688.775 5996.473 5874.388 3290.419 3232.270 4357.539 4741.234 6636.934 3851.409 6366.898 10027.248 4364.401 4031.218 59.629 4742.215 2588.200 6172.747 1982.146 3530.115 4020.950 1342.447 3552.644 6444.682 7000.390 5238.022 4626.605 8930.765 7783.207 3712.060 7104.778 3030.297 1763.303 8582.024 49.604 7202.404 4365.941 5492.860 4344.243 4844.336 3940.717 8379.619 6302.129 7631.677 3806.678 4261.158 4431.849 5141.087 4409.030 8107.884 7200.951 6638.588 4411.058 6808.755 7297.314 3852.456 4323.576 4884.574 11801.051 4180.222 5063.533 6670.364 2526.000 4870.079 4060.813 5008.305 4186.255 4749.358 5298.405 5094.573 1578.661 5654.033 5739.053 7020.375 4827.615 1731.533 4303.507 4598.640 4188.951 5550.429 9441.288 4735.306 4381.880 4913.244 3875.210 3735.809 6080.039 4268.044 5578.856 4499.069 4266.997 7003.748 473.359 4487.397 3936.188 1418.813 4603.527 6526.858 6107.735 5853.523 7027.578 7906.919 4284.822 9772.124 3793.510 3909.156 4108.970 5676.723 9080.615 3852.025 4909.440 6453.117 5624.255 5398.409 6588.939 5733.795 1046.657 4936.828 809.657 8369.904 10137.699 3876.440
283.843 0.000 5975.408 4513.911 6072.735 4328.338 4473.768 3845.859 340.108 3692.160 11665.471 8236.326 5078.219 1887.655 7215.332 8872.338 6000.312 5877.545 3375.385 3220.495 4312.370 4697.849 6593.545 3606.006 6432.746 9804.541 4326.990 3989.420 303.626 4671.581 2476.685 6030.074 1920.165 3252.465 4091.464 1109.892 3473.069 6523.842 7057.633 5270.688 4561.342 8782.731 7586.329 3687.616 6922.770 3118.981 1510.342 8749.082 240.989 7441.497 4334.133 5463.500 4279.703 4826.103 3904.067 8373.374 6425.883 7483.959 3931.287 4202.456 4384.219 5140.573 4359.571 7999.407 7228.307 6798.279 4355.175 6698.919 7166.810 3778.091 4287.807 4899.730 11691.808 4127.780 5067.956 6828.108 2641.276 4829.634 4174.571 5005.140 4146.898 4760.515 5278.482 5075.540 1370.410 5494.166 5615.520 6843.839 4998.329 1486.639 4252.431 4547.434 4138.645 5542.426 9543.937 4901.766 4339.206 4873.425 3828.427 3708.221 6098.481 4182.794 5609.142 4461.509 4240.884 7159.353 499.603 4428.815 3905.695 1177.902 4541.334 6456.182 5923.989 6126.294 6875.642 7780.980 4225.273 9965.291 3767.240 3869.162 4047.012 5746.842 9260.434 3809.174 4885.650 6443.332 5616.642 5360.852 6442.547 5696.738 860.476 5113.918 565.486 8556.713 9918.559 3833.233
6149.109 5975.408 0.000 2916.902 3541.673 2927.898 3396.643 3323.287 6125.875 3415.006 8756.911 7077.300 3491.486 4478.298 1244.139 9579.258 3977.267 3926.861 4977.217 3906.601 3063.778 2991.370 3212.438 2961.087 5387.911 4289.508 3174.792 3227.645 6113.052 2549.557 3669.113 802.365 4377.204 4108.119 4796.480 4907.853 3074.689 5701.103 5536.993 4335.385 2673.364 2908.394 1781.987 3568.245 982.652 5033.068 4636.703 9083.392 6103.687 9913.798 3256.917 3210.494 2793.833 3399.406 3329.128 5024.576 6551.273 1674.279 5566.975 2909.434 3004.076 3716.670 2984.499 2722.268 5010.076 7528.130 2890.190 1804.366 1672.689 2930.227 3210.378 3972.120 6101.703 3027.584 3798.407 7505.273 5346.301 3018.822 5456.882 3660.142 3202.871 3897.024 3373.041 3380.381 4616.914 600.864 1278.835 873.858 6721.231 4610.120 2998.188 2900.170 3052.733 3631.609 8213.989 6596.293 3092.479 3023.804 3232.503 3521.546 4300.867 2557.927 4374.517 3137.115 3365.393 7675.396 5731.244 2823.219 3408.929 4868.239 2728.535 2570.935 279.014 9972.386 1077.426 2246.942 2887.908 10706.944 3514.833 3300.219 2935.412 5174.037 9793.782 3290.155 3300.474 3858.025 3653.126 3045.819 861.720 3089.156 5115.867 6899.954 5434.036 9413.096 4330.677 3275.013
4564.661 4513.911 2916.902 0.000 1653.789 191.157 482.996 697.014 4506.983 853.494 11375.732 4812.945 845.395 2632.203 3934.189 6863.274 1773.316 1660.427 2220.207 1416.189 222.771 217.609 2081.625 3540.456 2893.040 7168.898 286.635 546.548 4511.072 371.469 2146.643 2396.042 2593.746 4518.432 1896.975 3770.597 1108.341 3157.131 3289.659 1604.320 244.704 4904.793 4643.781 923.223 3798.163 2352.047 3780.076 6434.686 4533.156 6998.458 354.537 1013.078 316.080 616.477 652.675 3959.328 3801.831 3701.228 2698.320 332.107 140.489 1048.429 156.428 3741.609 3105.792 4718.836 176.505 2520.436 3185.608 806.702 332.220 1151.825 7377.181 386.381 1073.362 4704.148 2810.786 355.431 2557.744 929.139 412.702 1038.448 921.593 768.622 3477.188 2332.066 1780.492 3629.912 3805.043 3698.830 261.498 34.575 375.746 1261.904 6102.940 3680.716 220.114 399.078 690.406 885.099 2012.985 631.880 1784.872 220.213 479.287 4914.847 4091.308 150.318 689.438 3792.635 190.309 1991.453 3085.104 7142.851 3231.660 3701.139 316.477 8019.839 840.624 670.192 493.011 2466.373 7124.749 718.781 576.672 2064.766 1328.691 872.250 2782.895 1202.431 3756.813 3983.474 4126.788 6660.535 7188.648 694.049
6091.644 6072.735 3541.673 1653.789 0.000 1842.755 1598.988 2244.333 6026.689 2391.877 12296.187 3547.552 1004.962 4187.846 4149.249 6116.085 491.446 508.651 3212.349 2859.444 1812.099 1440.190 766.304 5053.677 1896.354 7375.373 1769.494 2111.062 6035.275 1693.473 3788.060 2777.542 4168.053 6102.719 2564.646 5402.084 2759.360 2219.246 1997.120 1319.660 1725.796 4469.217 4953.743 2385.217 4149.361 3432.838 5430.521 5584.671 6064.940 6906.738 1748.627 640.733 1956.750 1247.463 2182.366 2316.798 3198.118 3549.057 3339.145 1985.467 1755.904 1009.063 1788.411 3005.251 1564.964 4216.443 1830.120 2214.029 2941.328 2460.445 1803.220 1358.586 6302.999 2019.681 1114.521 4181.122 3984.568 1300.518 3082.190 1118.583 1950.734 1444.777 794.253 997.459 5114.699 3100.871 2276.657 3958.301 3985.568 5347.809 1896.579 1626.303 1999.409 580.631 4740.376 3889.739 1776.071 1256.023 2282.053 2365.726 800.865 2214.424 1122.910 1639.143 1833.535 4289.820 5621.752 1783.082 2171.390 5429.471 1714.999 1230.748 3791.306 7577.506 3321.697 3221.900 1970.251 7215.615 2306.193 2223.818 2145.320 1893.060 6299.245 2289.484 1188.775 417.950 517.292 797.822 2995.015 527.448 5359.798 4137.660 5727.012 5982.960 7343.353 2266.979
4382.331 4328.338 2927.898 191.157 1842.755 0.000 536.986 537.558 4325.489 690.044 11307.837 4955.758 1002.233 2449.095 3983.351 6943.339 1948.019 1833.044 2129.976 1261.518 138.691 402.922 2269.814 3391.626 3025.518 7199.707 257.682 390.326 4329.086 444.690 1955.487 2451.475 2408.374 4351.599 1868.620 3579.578 917.728 3280.724 3443.083 1716.129 300.009 5014.249 4675.121 779.893 3832.437 2244.883 3589.626 6527.523 4350.341 7003.761 344.190 1202.281 170.291 755.156 503.084 4150.027 3884.827 3793.118 2650.475 143.379 112.892 1191.555 76.675 3885.047 3281.383 4782.619 40.646 2645.669 3293.214 618.238 285.923 1248.608 7534.110 202.826 1202.848 4770.288 2682.824 542.464 2529.307 1063.544 291.991 1121.237 1099.551 935.201 3286.043 2334.549 1843.024 3669.012 3799.471 3508.143 89.602 222.323 199.730 1435.871 6252.635 3673.214 176.414 586.800 514.778 738.116 2177.788 504.378 1920.229 287.705 438.945 4990.538 3909.049 125.927 555.531 3601.492 254.018 2160.791 3081.593 7085.826 3304.211 3823.827 132.158 8103.177 700.882 509.837 302.656 2569.353 7212.736 549.674 735.111 2252.391 1504.394 1063.352 2849.655 1393.494 3567.566 3979.028 3937.638 6733.544 7225.415 525.132
4494.572 4473.768 3396.643 482.996 1598.988 536.986 0.000 674.556 4430.551 808.272 11841.873 4464.690 615.548 2589.651 4392.891 6406.446 1580.347 1458.262 1852.077 1264.482 409.245 437.194 2175.949 3889.561 2522.718 7637.898 294.303 569.534 4438.513 847.117 2245.824 2853.616 2572.690 4807.730 1442.522 3831.663 1281.388 2765.720 2978.813 1195.896 727.617 5285.021 5113.703 786.554 4267.163 2017.879 3897.612 5991.501 4467.295 6517.398 218.134 1005.661 706.711 353.746 609.377 3906.067 3347.866 4113.890 2258.618 639.405 430.083 741.307 462.029 4048.054 2896.809 4248.866 562.147 2881.924 3575.763 1036.768 293.415 720.237 7626.499 586.924 719.794 4235.771 2522.149 489.088 2098.943 600.133 426.263 586.342 804.756 601.892 3553.329 2814.011 2235.726 4096.179 3328.654 3809.837 514.122 497.013 554.681 1086.287 5772.990 3205.328 364.503 516.904 739.668 768.885 1760.746 1039.029 1430.243 266.041 244.500 4453.982 4023.928 601.585 581.588 3865.561 673.294 2225.973 3567.553 6703.938 3670.228 4059.448 644.492 7566.192 708.692 659.604 746.973 2038.814 6675.970 729.800 416.511 1975.827 1160.484 942.043 3229.023 1265.580 3769.816 3506.462 4135.186 6197.523 7653.870 711.045
3884.808 3845.859 3323.287 697.014 2244.333 537.558 674.556 0.000 3824.930 157.210 11488.668 5079.918 1286.828 1958.511 4434.269 6840.156 2254.498 2132.609 1660.190 723.970 478.569 857.329 2752.128 3327.404 3131.869 7612.170 481.166 150.468 3830.306 971.849 1571.271 2920.183 1929.986 4185.126 1541.350 3163.630 644.444 3350.617 3624.878 1795.637 830.324 5534.267 5094.880 255.429 4260.810 1746.067 3223.093 6465.827 3854.757 6699.062 496.008 1621.184 582.982 1020.909 65.363 4560.233 3812.125 4298.506 2256.573 464.862 557.836 1412.322 541.709 4422.396 3570.459 4643.284 574.837 3178.016 3813.659 491.585 443.026 1320.522 8070.237 347.387 1378.892 4637.916 2157.022 985.311 2181.387 1270.198 301.483 1168.920 1456.042 1259.771 2882.151 2722.641 2326.584 4105.973 3486.598 3135.477 448.811 731.584 340.008 1756.504 6398.273 3357.073 498.482 1028.626 108.581 209.608 2431.779 765.763 2068.286 615.650 430.434 4884.737 3411.731 660.856 129.424 3195.275 789.269 2688.467 3448.275 6650.624 3789.468 4353.882 491.300 8006.137 191.762 27.854 390.183 2585.037 7132.980 63.767 1058.885 2634.721 1830.256 1515.186 3329.968 1851.032 3115.883 3667.090 3483.680 6609.988 7648.228 59.452
85.360 340.108 6125.875 4506.983 6026.689 4325.489 4430.551 3824.930 0.000 3668.876 11989.016 8059.702 5025.222 1878.010 7369.184 8603.686 5927.291 5805.356 3210.320 3167.289 4298.726 4681.831 6576.899 3861.191 6288.331 10023.482 4303.894 3971.861 36.801 4689.099 2548.034 6139.015 1930.391 3565.059 3942.283 1350.635 3502.577 6364.563 6922.830 5164.251 4572.258 8898.108 7768.415 3649.239 7084.329 2949.900 1780.454 8496.665 104.120 7123.189 4304.243 5430.180 4289.885 4779.649 3880.304 8311.849 6218.175 7599.161 3722.893 4205.476 4373.542 5072.925 4351.145 8063.530 7127.633 6553.271 4354.634 6765.070 7259.500 3800.824 4262.740 4813.739 11756.434 4123.148 4994.507 6585.072 2443.257 4809.977 3977.768 4940.674 4126.269 4679.256 5233.883 5029.947 1574.802 5626.133 5699.635 6997.916 4742.260 1744.190 4246.048 4541.047 4131.387 5483.526 9358.723 4649.949 4322.505 4852.989 3817.065 3673.622 6008.341 4218.854 5505.371 4438.523 4204.170 6918.488 419.633 4431.555 3874.469 1430.679 4548.466 6473.090 6088.233 5786.988 6996.582 7867.607 4229.323 9687.450 3731.008 3849.487 4054.150 5597.737 8995.423 3793.024 4845.838 6386.323 5557.258 5337.479 6556.262 5672.648 1038.509 4851.537 828.711 8284.926 10132.233 3817.499
3729.081 3692.160 3415.006 853.494 2391.877 690.044 808.272 157.210 3668.876 0.000 11503.245 5165.673 1423.655 1804.537 4542.870 6861.442 2387.287 2264.790 1562.244 574.046 635.723 1014.071 2908.025 3281.495 3218.558 7704.376 635.504 307.274 3674.444 1117.704 1445.096 3037.741 1778.280 4107.407 1511.190 3023.497 588.665 3427.357 3727.496 1886.118 978.194 5671.028 5191.599 164.180 4361.626 1630.613 3094.684 6499.704 3699.262 6655.692 643.950 1772.554 720.117 1159.586 211.948 4706.332 3848.440 4428.723 2190.538 605.922 714.692 1537.155 697.774 4572.581 3696.003 4657.310 726.204 3323.014 3951.320 516.930 595.665 1417.577 8224.102 494.061 1496.137 4654.080 2021.536 1141.101 2134.991 1394.904 457.517 1264.548 1600.981 1402.407 2745.307 2814.208 2451.028 4210.031 3446.361 3005.728 602.273 888.070 490.732 1894.315 6487.594 3316.119 655.514 1184.174 193.918 123.506 2554.102 861.464 2171.257 770.183 564.572 4908.327 3256.113 811.509 227.733 3057.337 939.310 2844.824 3530.376 6557.830 3911.765 4496.886 632.533 8028.119 157.701 183.419 506.520 2651.993 7160.854 144.033 1204.023 2778.653 1968.416 1669.869 3450.989 2005.584 2968.085 3626.576 3335.136 6625.442 7744.139 167.286
11947.613 11665.471 8756.911 11375.732 12296.187 11307.837 11841.873 11488.668 11989.016 11503.245 0.000 15833.802 12112.952 11442.560 8449.866 18233.951 12719.323 12659.911 12872.452 11761.339 11442.634 11518.803 11938.572 8531.888 14110.837 6263.586 11562.960 11461.407 11955.629 11057.831 10790.551 9539.952 11326.063 8438.899 13013.225 10747.500 10950.050 14415.181 14292.890 12950.213 11142.365 9481.551 7683.971 11665.189 8314.092 12800.240 10291.797 17779.234 11901.447 18099.129 11649.183 11917.417 11141.023 11958.823 11525.566 13549.942 15173.154 9355.485 13610.525 11227.639 11411.952 12341.759 11381.024 10620.161 13755.486 16090.432 11280.306 10371.945 9851.935 10998.749 11582.687 12523.345 11969.177 11317.455 12402.389 16077.643 12829.493 11588.346 13613.778 12256.155 11512.166 12414.170 12042.299 12005.730 10657.972 9212.929 10021.241 8498.911 14924.674 10358.632 11346.857 11371.834 11349.869 12335.323 16947.572 14793.775 11483.869 11606.279 11380.246 11626.751 13040.668 10818.750 13050.831 11579.062 11719.932 16290.000 11809.771 11242.739 11610.574 10651.174 11191.805 11285.014 8504.905 17495.848 9231.022 10053.618 11215.820 19384.230 11650.914 11476.320 11173.419 13814.337 18480.516 11432.700 11879.948 12613.707 12366.375 11740.882 9410.223 11828.079 11125.375 15102.781 11184.519 18036.143 6463.636 11429.516
8141.525 8236.326 7077.300 4812.945 3547.552 4955.758 4464.690 5079.918 8059.702 5165.673 15833.802 0.000 3970.040 6582.996 7544.178 3115.487 3163.276 3244.394 4861.383 5334.215 4854.276 4613.372 3928.177 8347.047 1948.051 10631.780 4752.219 5014.729 8082.106 5024.932 6556.699 6295.782 6621.744 9263.974 4165.882 7953.267 5722.323 1756.364 1559.449 3284.546 4992.844 7355.934 8355.433 5059.560 7600.542 5117.396 8141.131 2470.226 8133.877 5100.179 4682.460 4007.050 5118.666 4201.576 5017.982 2992.048 1992.067 6787.193 4368.399 5083.971 4843.473 3765.753 4880.599 5819.488 2109.414 2403.423 4965.738 5552.503 6197.279 5500.301 4757.598 3762.122 7899.545 5049.594 3755.077 2339.786 5618.952 4501.095 4093.578 3892.292 4887.553 3912.064 3952.456 4057.406 7728.531 6648.379 5822.477 7409.353 3800.451 8044.299 4961.436 4801.357 5018.032 3618.199 1329.507 3817.357 4807.957 4468.798 5170.122 5071.197 2858.581 5444.724 3037.342 4671.811 4681.067 2131.182 7736.911 4963.227 4956.647 8013.422 4957.951 4580.971 7332.696 6772.541 6715.083 6253.417 5082.352 4010.757 5016.659 5074.738 5208.814 2554.408 3137.096 5142.961 4237.422 3220.340 3569.519 4192.695 6459.130 4041.428 7770.058 3812.818 8090.032 3138.498 10563.126 5130.699
5091.057 5078.219 3491.486 845.395 1004.962 1002.233 615.548 1286.828 5025.222 1423.655 12112.952 3970.040 0.000 3198.120 4357.569 6126.189 969.952 849.431 2262.330 1859.457 922.780 643.514 1654.597 4385.822 2062.500 7625.547 844.659 1170.271 5034.372 1075.750 2856.628 2843.642 3184.474 5353.438 1690.009 4447.141 1867.572 2339.429 2444.379 846.346 1026.298 5040.551 5120.742 1396.891 4278.235 2466.281 4508.452 5667.906 5065.090 6496.967 799.710 499.883 1157.097 266.776 1222.132 3296.129 3073.818 3950.332 2508.076 1139.692 893.772 229.051 930.868 3701.034 2296.834 4037.895 1006.362 2645.935 3374.216 1595.837 866.745 528.251 7185.263 1132.970 309.238 4016.258 3005.857 538.996 2289.975 188.849 1014.950 530.634 241.615 111.154 4168.152 2947.680 2241.100 4096.396 3387.445 4421.519 1025.256 832.061 1105.564 470.741 5257.597 3274.354 878.717 513.234 1343.365 1382.056 1177.274 1476.809 957.492 734.674 859.203 4197.844 4622.314 995.569 1197.136 4480.676 988.987 1838.924 3697.495 6894.909 3580.068 3790.905 1133.367 7271.968 1321.411 1270.114 1283.090 1703.045 6367.604 1339.445 268.823 1365.398 544.969 544.227 3170.759 781.784 4383.577 3556.916 4748.193 5942.529 7623.077 1319.291
1933.476 1887.655 4478.298 2632.203 4187.846 2449.095 2589.651 1958.511 1878.010 1804.537 11442.560 6582.996 3198.120 0.000 5713.931 7683.573 4134.260 4011.045 1840.605 1351.509 2427.277 2812.163 4708.438 2915.333 4698.970 8604.184 2439.552 2102.829 1880.666 2812.117 818.043 4372.724 119.126 3230.662 2433.027 1371.787 1635.373 4833.388 5292.244 3459.908 2694.329 7127.003 6210.790 1803.111 5459.134 1639.061 1619.948 7450.720 1901.246 6797.301 2446.598 3576.004 2411.967 2942.857 2016.461 6494.156 4928.876 5834.802 2562.663 2327.744 2500.451 3272.264 2476.917 6212.322 5393.580 5495.719 2477.629 4919.461 5451.540 1927.347 2400.199 3056.374 9901.288 2247.193 3206.328 5512.402 1439.099 2942.996 2721.863 3134.296 2259.741 2911.293 3393.783 3191.504 1173.838 3928.812 3886.622 5348.252 3850.102 1520.159 2370.851 2666.065 2256.462 3665.265 7909.636 3729.314 2453.087 2986.631 1943.868 1822.181 4253.125 2352.817 3789.695 2574.127 2354.705 5821.646 1460.378 2553.947 2018.552 1436.862 2670.478 4595.333 4490.981 6068.810 5250.603 6046.828 2351.483 8829.739 1881.655 1982.029 2176.141 4037.202 8038.694 1922.831 2999.701 4563.346 3739.663 3473.679 4796.886 3809.538 1210.789 4005.428 1563.096 7397.536 8685.863 1947.035
7391.770 7215.332 1244.139 3934.189 4149.249 3983.351 4392.891 4434.269 7369.184 4542.870 8449.866 7544.178 4357.569 5713.931 0.000 10264.870 4629.268 4607.841 6093.510 5065.674 4111.470 3962.394 3621.773 4066.575 6045.602 3268.247 4211.777 4322.119 7356.111 3563.797 4908.362 1539.317 5614.602 5162.951 5830.250 6141.341 4262.024 6368.386 6069.939 5169.085 3701.534 1837.533 811.775 4686.912 341.765 6173.301 5856.405 9725.324 7346.164 10853.575 4287.347 3982.637 3871.695 4323.356 4430.418 5100.110 7314.585 951.122 6630.449 3991.617 4041.917 4567.719 4028.903 2258.250 5434.915 8321.392 3943.419 1991.838 1402.553 4086.301 4252.523 4873.532 5120.819 4113.461 4665.315 8291.490 6522.754 3957.676 6489.971 4540.823 4271.587 4825.485 4192.554 4248.696 5853.422 1790.492 2157.172 371.503 7707.069 5834.179 4062.826 3911.421 4134.483 4387.125 8564.873 7586.963 4132.766 3951.993 4353.055 4640.095 4948.272 3682.535 5139.261 4149.825 4406.831 8424.469 6975.252 3866.890 4504.632 6098.897 3755.992 2977.718 1306.661 11069.120 832.561 1683.644 3967.619 11356.815 4625.164 4409.163 4044.495 5953.841 10440.461 4409.324 4214.332 4377.696 4390.372 3847.867 1187.575 3794.153 6356.540 7882.171 6670.991 10130.885 3268.143 4391.534
8688.775 8872.338 9579.258 6863.274 6116.085 6943.339 6406.446 6840.156 8603.686 6861.442 18233.951 3115.487 6126.189 7683.573 10264.870 0.000 5640.936 5673.002 5856.135 6772.341 6812.210 6715.394 6691.589 10125.231 4220.302 13469.758 6692.833 6838.522 8635.128 7176.139 7977.569 8860.350 7764.004 10808.926 5430.247 8979.996 7447.753 3898.580 4264.968 5284.862 7093.563 10333.357 11069.799 6711.406 10260.536 6044.575 9296.329 655.314 8699.197 2794.210 6607.878 6368.826 7112.600 6275.150 6793.056 6097.797 3061.654 9614.761 5120.987 7035.295 6835.893 5897.141 6868.438 8787.930 5006.459 2216.294 6968.205 8305.222 9007.763 7327.876 6677.800 5712.622 11009.152 6956.632 5832.828 2212.771 6344.753 6646.281 4978.778 5978.676 6764.388 5826.550 6214.709 6234.828 8842.019 9062.636 8302.278 10070.163 3886.812 9196.960 6912.494 6865.637 6923.482 5947.825 3110.723 3993.774 6769.118 6629.289 6947.428 6741.829 5319.240 7442.304 5207.012 6665.320 6550.411 1956.323 8401.611 6999.993 6711.913 9063.202 7044.967 7306.367 9803.123 5040.800 9435.705 9164.746 7044.352 1166.863 6704.792 6847.097 7109.165 4423.158 419.317 6901.321 6354.574 5906.162 5928.339 6534.589 9107.490 6506.909 8692.251 3760.813 8926.192 342.899 13424.492 6899.249
5996.473 6000.312 3977.267 1773.316 491.446 1948.019 1580.347 2254.498 5927.291 2387.287 12719.323 3163.276 969.952 4134.260 4629.268 5640.936 0.000 123.287 2964.236 2783.992 1883.732 1556.946 1218.467 5284.702 1421.883 7862.697 1812.726 2140.176 5938.728 1908.003 3825.469 3229.948 4128.414 6289.436 2267.469 5407.974 2834.963 1742.428 1604.008 938.292 1904.374 4952.271 5431.011 2347.077 4619.705 3201.736 5477.388 5119.406 5973.196 6422.697 1769.662 849.242 2089.223 1236.689 2189.473 2391.872 2707.087 4040.225 2996.300 2089.819 1845.472 862.058 1881.639 3473.805 1333.384 3725.138 1945.496 2704.413 3432.652 2556.375 1836.284 1127.527 6681.979 2095.569 933.026 3690.019 3765.357 1425.168 2723.368 1001.176 1984.769 1251.498 852.547 1016.327 5132.378 3508.424 2701.504 4429.251 3543.225 5389.971 1982.267 1752.718 2069.637 512.153 4401.586 3452.839 1841.277 1385.358 2313.201 2336.820 324.184 2386.727 675.278 1697.077 1824.847 3801.772 5532.957 1918.278 2159.705 5443.830 1880.217 1721.994 4218.887 7144.387 3804.267 3708.009 2080.148 6748.717 2275.854 2238.584 2240.412 1408.210 5832.919 2308.266 1221.226 539.972 444.755 1035.315 3466.575 891.247 5331.440 3689.811 5692.992 5501.708 7832.356 2288.469
5874.388 5877.545 3926.861 1660.427 508.651 1833.044 1458.262 2132.609 5805.356 2264.790 12659.911 3244.394 849.431 4011.045 4607.841 5673.002 123.287 0.000 2853.311 2660.872 1766.079 1444.894 1263.907 5179.832 1461.785 7850.251 1693.255 2019.269 5816.686 1806.711 3703.749 3189.322 4005.129 6178.261 2163.262 5285.032 2715.918 1778.133 1687.326 849.513 1797.909 4977.301 5406.270 2223.911 4589.354 3088.876 5355.650 5160.262 5850.987 6399.724 1648.988 762.689 1976.501 1115.972 2067.530 2511.815 2713.352 4040.267 2902.954 1974.334 1729.419 738.810 1765.786 3512.317 1449.789 3728.274 1831.503 2701.931 3434.370 2439.190 1716.135 1009.947 6760.461 1977.700 810.861 3694.938 3651.540 1314.929 2633.824 877.895 1864.375 1131.291 742.331 899.291 5009.728 3447.088 2648.804 4399.534 3486.158 5268.063 1865.460 1640.660 1951.405 398.811 4493.602 3392.854 1723.257 1276.009 2192.173 2213.788 386.550 2277.679 617.132 1578.969 1702.741 3817.086 5410.601 1806.459 2037.161 5321.064 1772.122 1731.402 4164.564 7083.426 3786.444 3728.910 1965.202 6787.576 2152.821 2116.896 2123.749 1388.128 5872.586 2186.675 1103.502 637.529 335.986 948.314 3438.368 838.076 5208.154 3635.906 5569.711 5527.080 7823.469 2167.017
3290.419 3375.385 4977.217 2220.207 3212.349 2129.976 1852.077 1660.190 3210.320 1562.244 12872.452 4861.383 2262.330 1840.605 6093.510 5856.135 2964.236 2853.311 0.000 1132.355 2014.496 2271.511 3913.728 4418.489 3085.184 9266.619 1933.745 1772.482 3230.806 2570.546 2167.133 4573.155 1913.311 4973.534 749.519 3186.544 1991.782 3154.270 3729.703 2077.849 2426.288 7121.885 6752.842 1410.277 5920.528 262.218 3460.553 5610.786 3280.007 5226.677 1874.155 2756.624 2225.429 2102.567 1663.217 5328.812 3106.996 5919.631 761.036 2104.938 2092.415 2205.035 2097.108 5898.437 4013.865 3658.563 2170.616 4726.266 5404.584 2059.443 1888.002 1858.101 9443.802 1982.682 2097.833 3673.874 821.407 2340.911 881.840 2109.163 1837.987 1768.729 2503.664 2319.680 3012.707 4376.394 3970.599 5766.162 2094.603 3360.764 2045.005 2249.659 1963.594 2631.747 6172.632 1966.317 2003.398 2368.752 1746.084 1457.122 2959.436 2421.191 2416.554 2030.057 1745.072 3981.328 2876.229 2253.162 1590.453 3260.719 2375.217 4061.436 5090.314 4995.736 5433.338 5906.301 2129.684 7009.023 1468.787 1684.866 2050.370 2391.841 6204.983 1688.801 2208.302 3486.077 2696.253 2749.359 4977.132 3037.792 2951.776 2264.941 3249.275 5577.410 9305.783 1705.169
3232.270 3220.495 3906.601 1416.189 2859.444 1261.518 1264.482 723.970 3167.289 574.046 11761.339 5334.215 1859.457 1351.509 5065.674 6772.341 2783.992 2660.872 1132.355 0.000 1194.249 1556.628 3429.631 3371.194 3411.585 8187.225 1170.419 872.671 3175.840 1691.728 1242.208 3579.971 1353.384 4058.004 1342.283 2668.265 863.878 3578.043 3977.714 2129.244 1552.114 6238.043 5688.454 498.412 4869.120 1135.629 2812.421 6458.787 3205.884 6343.003 1155.302 2268.156 1292.225 1612.387 763.609 5153.029 3838.804 4988.157 1849.786 1179.575 1275.815 1922.416 1262.900 5146.002 4045.068 4556.063 1298.585 3896.607 4519.748 979.868 1125.409 1708.927 8792.911 1067.909 1854.902 4560.650 1464.485 1673.327 1866.912 1785.620 1006.600 1561.949 2066.690 1862.703 2416.882 3308.915 3005.178 4724.537 3167.670 2717.045 1172.740 1450.589 1063.294 2322.032 6663.599 3036.963 1206.821 1713.956 763.464 532.460 2902.955 1393.171 2451.239 1301.787 1045.272 4839.765 2762.952 1384.376 733.822 2716.411 1512.547 3404.788 4000.087 6094.277 4459.975 5069.441 1206.170 7937.173 582.549 751.681 1069.901 2781.099 7094.691 717.772 1680.702 3223.560 2396.210 2187.715 3997.892 2519.650 2556.445 3344.399 2913.603 6516.186 8235.554 741.310
4357.539 4312.370 3063.778 222.771 1812.099 138.691 409.245 478.569 4298.726 635.723 11442.634 4854.276 922.780 2427.277 4111.470 6812.210 1883.732 1766.079 2014.496 1194.249 0.000 385.846 2281.320 3493.585 2918.302 7332.667 120.375 328.662 4303.478 556.640 1975.964 2577.181 2392.978 4435.474 1733.365 3592.936 954.897 3167.982 3351.276 1599.884 413.390 5117.374 4807.748 700.485 3964.282 2138.499 3620.334 6400.214 4326.753 6865.465 206.858 1176.016 301.619 664.561 431.328 4126.928 3755.102 3905.247 2519.879 231.945 82.600 1097.813 83.084 3963.832 3215.844 4648.118 174.008 2738.355 3397.072 673.429 147.488 1127.556 7599.665 212.045 1099.252 4636.248 2590.558 520.894 2394.420 964.602 190.072 995.582 1045.801 867.454 3303.480 2471.349 1965.928 3799.694 3661.819 3536.720 107.333 256.856 188.176 1372.867 6156.104 3535.729 46.372 565.493 483.994 662.633 2099.669 630.640 1816.954 188.152 301.690 4858.579 3884.234 244.607 466.758 3618.518 361.109 2211.586 3219.184 6958.642 3424.427 3918.521 235.380 7972.821 617.854 452.437 360.889 2447.466 7083.807 505.776 662.600 2215.309 1443.642 1053.283 2971.817 1388.325 3566.246 3841.294 3935.607 6600.715 7357.076 481.251
4741.234 4697.849 2991.370 217.609 1440.190 402.922 437.194 857.329 4681.831 1014.071 11518.803 4613.372 643.514 2812.163 3962.394 6715.394 1556.946 1444.894 2271.511 1556.628 385.846 0.000 1896.295 3747.515 2702.907 7213.282 386.225 710.019 4686.943 462.062 2352.776 2423.815 2778.688 4733.380 1878.921 3973.780 1319.312 2973.949 3083.636 1437.759 386.631 4854.581 4690.782 1058.236 3843.879 2423.233 3990.999 6275.301 4710.785 6926.157 414.043 800.100 532.498 441.276 804.214 3749.957 3654.355 3677.258 2695.811 546.091 319.223 857.016 349.607 3643.747 2888.914 4588.555 393.258 2455.028 3142.285 1021.144 431.698 1007.193 7253.556 583.693 895.235 4571.565 2906.255 139.673 2533.740 748.480 556.890 912.460 704.695 559.048 3682.376 2418.750 1805.866 3670.663 3749.674 3908.930 458.713 195.795 566.715 1046.135 5898.350 3627.870 359.354 184.267 869.730 1025.405 1801.016 837.742 1595.228 257.656 540.812 4772.714 4268.017 361.571 822.970 3997.681 346.120 1853.927 3173.961 7141.034 3234.029 3634.798 532.256 7868.365 974.103 832.440 705.227 2303.441 6969.406 889.463 378.726 1849.472 1112.206 668.570 2794.542 1002.935 3951.382 3926.355 4320.884 6519.441 7226.252 865.177
6636.934 6593.545 3212.438 2081.625 766.304 2269.814 2175.949 2752.128 6576.899 2908.025 11938.572 3928.177 1654.597 4708.438 3621.773 6691.589 1218.467 1263.907 3913.728 3429.631 2281.320 1896.295 0.000 5161.858 2515.384 6780.048 2273.189 2606.051 6582.417 1985.692 4210.864 2412.528 4673.740 6271.426 3299.193 5837.689 3166.864 2836.676 2453.480 2085.561 2067.718 3749.266 4433.546 2935.486 3672.562 4120.806 5813.553 6129.383 6606.772 7631.979 2276.717 1176.279 2339.439 1850.592 2696.641 2014.812 3871.628 2923.193 4088.907 2401.854 2209.460 1719.251 2234.743 2256.181 1823.934 4890.840 2245.811 1631.893 2316.739 2856.554 2314.877 2085.944 5554.185 2467.950 1832.416 4851.334 4659.003 1766.925 3838.320 1805.151 2450.700 2151.359 1415.460 1610.459 5539.153 2874.061 2040.685 3481.497 4749.231 5738.033 2342.639 2048.631 2455.738 1310.722 5010.105 4654.562 2255.507 1723.948 2765.162 2907.749 1480.558 2521.143 1880.969 2138.647 2384.431 4931.841 6163.830 2177.982 2705.412 5854.238 2076.836 654.911 3481.804 8343.328 2790.325 2517.694 2380.901 7758.421 2852.226 2727.815 2561.609 2621.667 6843.750 2785.738 1763.220 794.431 1259.226 1242.142 2535.958 910.812 5836.991 4899.720 6207.152 6583.345 6732.903 2761.470
3851.409 3606.006 2961.087 3540.456 5053.677 3391.626 3889.561 3327.404 3861.191 3281.495 8531.888 8347.047 4385.822 2915.333 4066.575 10125.231 5284.702 5179.832 4418.489 3371.194 3493.585 3747.515 5161.858 0.000 6411.207 6247.737 3598.312 3362.929 3836.105 3379.141 2274.344 3404.461 2797.804 1172.149 4703.725 2510.559 2693.223 6653.748 6830.093 5084.028 3382.206 5852.306 4225.014 3423.388 3732.614 4312.965 2097.178 9779.042 3801.822 9617.417 3671.493 4454.007 3230.357 4146.532 3382.678 7176.380 7129.563 4634.849 5176.236 3263.263 3503.722 4582.879 3466.560 5570.713 6597.487 7911.865 3382.758 4396.529 4549.878 2865.761 3596.227 4605.413 9061.793 3302.646 4592.265 7912.856 4300.475 3869.864 5230.508 4454.829 3474.356 4461.896 4439.023 4306.490 2313.755 2733.382 3323.871 3717.441 6510.137 2120.546 3386.299 3554.822 3334.910 4783.111 9642.967 6380.739 3539.949 3906.659 3225.667 3396.683 5546.182 2909.959 5310.178 3675.262 3687.512 8178.560 3559.477 3390.391 3456.598 2432.634 3410.050 4696.822 2793.319 8982.594 4029.089 5162.473 3264.696 11291.851 3439.185 3325.980 3142.646 5906.069 10434.327 3263.920 4117.032 5467.918 4843.867 4274.171 3711.147 4529.869 2845.692 6682.402 3044.273 9877.723 6377.411 3270.742
6366.898 6432.746 5387.911 2893.040 1896.354 3025.518 2522.718 3131.869 6288.331 3218.558 14110.837 1948.051 2062.500 4698.970 6045.602 4220.302 1421.883 1461.785 3085.184 3411.585 2918.302 2702.907 2515.384 6411.207 0.000 9265.126 2812.943 3067.938 6307.293 3135.756 4620.293 4649.743 4727.974 7316.203 2346.059 6060.245 3774.443 323.714 662.898 1336.682 3088.085 6247.492 6849.670 3115.304 6041.188 3347.368 6223.996 3698.914 6353.872 5207.739 2740.835 2193.450 3191.463 2276.960 3069.977 2721.413 1382.728 5422.757 2758.112 3149.469 2912.696 1846.311 2949.504 4722.209 1239.722 2391.101 3038.239 4098.164 4813.860 3555.939 2816.104 1814.934 7575.243 3109.213 1822.913 2347.861 3890.727 2601.066 2458.985 1964.650 2943.208 1964.315 2084.983 2158.765 5822.580 4899.454 4109.365 5850.587 2729.934 6128.474 3025.635 2884.456 3077.222 1776.857 3269.336 2681.871 2871.933 2573.036 3222.338 3125.676 1099.183 3521.931 1108.300 2739.075 2734.995 2416.458 5937.557 3042.484 3008.666 6115.243 3049.012 3101.680 5623.445 6253.654 5217.716 5029.781 3149.418 5327.317 3070.513 3126.757 3269.011 694.566 4411.812 3194.926 2324.195 1720.981 1744.465 2371.161 4887.625 2299.830 5902.052 2829.322 6236.383 4088.016 9228.057 3182.732
10027.248 9804.541 4289.508 7168.898 7375.373 7199.707 7637.898 7612.170 10023.482 7704.376 6263.586 10631.780 7625.547 8604.184 3268.247 13469.758 7862.697 7850.251 9266.619 8187.225 7332.667 7213.282 6780.048 6247.737 9265.126 0.000 7438.917 7513.692 10003.121 6797.476 7787.563 4793.591 8492.841 7038.819 9063.984 8694.654 7341.164 9588.839 9227.083 8436.196 6930.153 3460.709 2525.239 7857.731 3370.923 9318.301 8318.663 12908.840 9978.431 14120.437 7517.969 7247.386 7073.848 7585.953 7616.704 7915.348 10563.209 3858.992 9848.372 7191.294 7267.844 7835.954 7251.448 4877.044 8538.136 11575.193 7160.828 5167.253 4463.415 7215.616 7477.243 8140.091 5714.351 7310.932 7933.461 11543.494 9608.348 7216.243 9725.306 7808.365 7481.171 8088.747 7460.256 7516.489 8449.120 4890.372 5409.666 3542.644 10962.854 8326.854 7274.154 7148.465 7334.938 7647.695 11534.001 10841.134 7357.903 7212.544 7521.957 7811.020 8176.086 6847.196 8397.530 7387.526 7632.545 11664.469 9671.484 7088.998 7695.599 8629.023 6985.264 6165.301 4188.364 14261.893 4068.459 4389.216 7168.903 14536.593 7803.822 7588.857 7223.567 9211.617 13622.790 7579.582 7478.063 7563.620 7647.797 7115.337 4455.740 7050.500 8985.101 11139.190 9239.255 13352.045 228.984 7564.304
4364.401 4326.990 3174.792 286.635 1769.494 257.682 294.303 481.166 4303.894 635.504 11562.960 4752.219 844.659 2439.552 4211.777 6692.833 1812.726 1693.255 1933.745 1170.419 120.375 386.225 2273.189 3598.312 2812.943 7438.917 0.000 341.831 4309.663 649.139 2024.829 2675.250 2410.929 4528.092 1625.215 3632.942 1022.916 3058.821 3256.672 1489.390 510.325 5190.174 4913.730 672.017 4069.336 2068.234 3674.220 6282.405 4334.702 6749.986 86.583 1141.498 421.939 580.273 423.696 4086.291 3636.329 3987.817 2418.727 345.702 171.140 1005.988 191.409 4013.472 3141.490 4527.856 290.354 2802.507 3471.488 757.678 47.322 1014.504 7635.307 297.837 999.382 4516.068 2534.974 506.824 2286.558 869.318 181.617 879.738 988.780 800.448 3347.142 2584.027 2061.456 3903.268 3548.240 3589.011 220.794 315.989 267.164 1305.130 6057.252 3422.560 82.880 549.316 512.700 639.595 2016.952 749.535 1715.392 134.683 195.168 4738.949 3891.505 351.574 436.915 3661.480 455.786 2238.260 3333.266 6861.136 3515.882 3983.488 352.260 7853.713 587.882 458.360 456.596 2332.867 6965.275 521.420 595.321 2165.891 1377.395 1034.376 3065.659 1370.132 3594.116 3727.498 3962.486 6480.809 7461.535 498.351
4031.218 3989.420 3227.645 546.548 2111.062 390.326 569.534 150.468 3971.861 307.274 11461.407 5014.729 1170.271 2102.829 4322.119 6838.522 2140.176 2019.269 1772.482 872.671 328.662 710.019 2606.051 3362.929 3067.938 7513.692 341.831 0.000 3976.928 829.767 1688.114 2801.048 2071.631 4250.179 1598.650 3291.961 713.685 3296.773 3543.076 1731.955 686.711 5397.233 4993.177 390.834 4155.854 1871.194 3339.273 6452.128 4000.813 6758.166 370.830 1483.044 454.044 903.501 114.079 4427.828 3798.477 4167.255 2340.947 333.550 407.440 1310.672 391.365 4275.117 3463.116 4650.244 428.645 3034.765 3676.231 498.340 308.680 1253.026 7920.630 211.565 1286.877 4642.826 2295.769 840.232 2249.176 1169.661 160.334 1104.847 1327.629 1135.290 3007.238 2628.104 2201.852 3998.158 3545.613 3253.092 300.922 581.117 197.463 1636.919 6328.635 3416.950 350.665 884.010 173.320 348.138 2329.656 681.543 1989.391 474.551 335.064 4882.217 3558.008 515.043 182.616 3321.279 643.637 2538.000 3361.488 6753.383 3665.375 4211.979 359.026 8003.339 314.597 123.862 299.908 2543.171 7124.815 180.436 931.708 2505.920 1710.040 1371.730 3207.315 1707.593 3252.547 3726.072 3621.073 6614.098 7546.396 156.829
59.629 303.626 6113.052 4511.072 6035.275 4329.086 4438.513 3830.306 36.801 3674.444 11955.629 8082.106 5034.372 1880.666 7356.111 8635.128 5938.728 5816.686 3230.806 3175.840 4303.478 4686.943 6582.417 3836.105 6307.293 10003.121 4309.663 3976.928 0.000 4690.598 2542.703 6130.808 1930.972 3532.994 3961.339 1325.679 3502.375 6385.066 6940.860 5179.090 4574.440 8889.449 7752.182 3656.422 7070.364 2970.701 1752.887 8526.575 67.839 7158.909 4310.742 5437.309 4292.066 4788.046 3886.005 8322.321 6243.588 7590.423 3748.035 4208.403 4377.997 5083.645 4355.351 8060.459 7142.126 6582.390 4357.991 6761.647 7253.218 3801.480 4268.708 4826.350 11753.521 4126.874 5005.826 6614.002 2466.862 4815.511 4001.776 4951.028 4131.718 4691.335 5242.180 5038.309 1554.027 5615.301 5694.094 6984.784 4772.323 1717.962 4250.002 4545.087 4135.399 5493.393 9382.059 4679.589 4327.593 4858.617 3821.409 3680.408 6021.598 4218.213 5519.988 4444.319 4211.370 6947.224 420.376 4434.580 3880.970 1404.598 4551.050 6474.983 6073.860 5823.737 6987.149 7862.050 4232.147 9719.759 3737.993 3854.738 4056.584 5617.101 9026.535 3797.874 4853.540 6396.125 5567.189 5343.525 6547.581 5678.831 1019.028 4882.220 800.132 8316.651 10112.489 3822.314
4742.215 4671.581 2549.557 371.469 1693.473 444.690 847.117 971.849 4689.099 1117.704 11057.831 5024.932 1075.750 2812.117 3563.797 7176.139 1908.003 1806.711 2570.546 1691.728 556.640 462.062 1985.692 3379.141 3135.756 6797.476 649.139 829.767 4690.598 0.000 2238.562 2026.432 2760.240 4410.164 2268.257 3862.055 1202.078 3415.158 3480.581 1894.950 144.832 4569.690 4272.391 1220.597 3426.710 2689.247 3827.882 6732.342 4708.087 7364.331 723.550 1076.151 407.465 900.993 943.704 3942.078 4115.533 3349.978 3067.313 512.887 481.528 1299.651 473.714 3457.563 3219.312 5050.371 404.434 2206.187 2848.626 893.951 691.430 1469.244 7121.017 624.722 1348.899 5033.536 3125.410 537.581 2929.133 1201.949 734.632 1371.768 1074.197 977.012 3560.598 1968.719 1412.323 3258.497 4174.468 3752.680 533.261 351.632 632.894 1414.778 6294.711 4050.532 572.275 562.976 930.416 1177.489 2181.652 537.659 2033.105 590.378 844.277 5234.483 4270.308 319.138 999.812 3874.925 195.533 1785.175 2723.215 7510.274 2868.367 3382.402 486.420 8328.125 1143.320 944.014 644.114 2760.700 7427.987 973.992 825.956 2111.377 1471.354 899.879 2416.932 1186.625 3883.550 4352.620 4253.421 6981.231 6817.231 950.424
2588.200 2476.685 3669.113 2146.643 3788.060 1955.487 2245.824 1571.271 2548.034 1445.096 10790.551 6556.699 2856.628 818.043 4908.362 7977.569 3825.469 3703.749 2167.133 1242.208 1975.964 2352.776 4210.864 2274.344 4620.293 7787.563 2024.829 1688.114 2542.703 2238.562 0.000 3603.305 710.771 2832.269 2564.212 1626.882 1044.127 4803.258 5157.103 3305.255 2144.482 6363.572 5394.127 1517.290 4648.138 2043.348 1651.920 7684.352 2548.408 7343.494 2058.704 3151.056 1871.651 2590.042 1636.458 6102.199 5076.883 5066.473 2928.165 1816.785 2034.200 2981.344 2003.176 5523.771 5140.349 5763.475 1974.340 4223.588 4712.375 1354.310 1995.831 2849.757 9216.759 1769.628 2941.048 5771.576 2044.474 2491.759 3014.218 2839.062 1846.533 2696.750 3013.601 2823.264 1330.712 3129.539 3151.609 4541.052 4260.892 1565.038 1894.097 2177.327 1788.902 3324.740 7884.681 4133.075 2012.358 2536.575 1514.821 1515.180 3999.138 1724.833 3605.531 2151.412 2001.564 6059.627 2132.563 2036.132 1672.046 1646.187 2134.028 4008.866 3675.462 6784.243 4472.376 5319.577 1835.734 9138.842 1574.537 1586.885 1655.405 4009.875 8309.680 1517.264 2619.147 4189.539 3398.013 3018.628 4024.451 3348.703 1655.159 4429.572 2022.756 7711.581 7868.264 1537.347
6172.747 6030.074 802.365 2396.042 2777.542 2451.475 2853.616 2920.183 6139.015 3037.741 9539.952 6295.782 2843.642 4372.724 1539.317 8860.350 3229.948 3189.322 4573.155 3579.971 2577.181 2423.815 2412.528 3404.461 4649.743 4793.591 2675.250 2801.048 6130.808 2026.432 3603.305 0.000 4284.717 4576.111 4291.277 5018.213 2821.338 4967.403 4764.675 3671.992 2165.548 2760.453 2278.448 3174.954 1434.611 4665.795 4810.274 8348.608 6130.311 9329.447 2749.766 2506.265 2347.726 2792.770 2911.556 4233.186 5859.064 1463.397 5093.744 2468.227 2506.094 3060.513 2494.321 2167.987 4217.687 6852.403 2411.224 1055.466 1176.596 2610.300 2716.677 3350.882 5754.356 2590.492 3152.809 6826.027 5044.256 2422.809 4950.767 3023.017 2741.653 3295.702 2695.675 2733.337 4714.198 672.690 618.015 1254.031 6171.127 4768.070 2532.947 2372.822 2609.753 2922.921 7418.532 6050.301 2597.019 2418.970 2845.186 3128.442 3554.078 2186.867 3674.976 2610.967 2870.413 6979.199 5728.730 2332.950 2982.769 4993.557 2219.653 1768.850 1076.948 9535.720 885.949 1803.282 2443.484 9976.750 3109.216 2894.226 2533.285 4485.406 9061.497 2900.062 2685.573 3075.665 2936.278 2355.761 425.378 2353.493 5173.688 6346.877 5516.691 8706.414 4802.897 2880.894
1982.146 1920.165 4377.204 2593.746 4168.053 2408.374 2572.690 1929.986 1930.391 1778.280 11326.063 6621.744 3184.474 119.126 5614.602 7764.004 4128.414 4005.129 1913.311 1353.384 2392.978 2778.688 4673.740 2797.804 4727.974 8492.841 2410.929 2071.631 1930.972 2760.240 710.771 4284.717 0.000 3128.493 2483.311 1332.836 1572.807 4869.410 5314.205 3474.912 2645.883 7041.415 6104.887 1787.587 5357.200 1720.599 1552.574 7523.834 1947.847 6903.904 2422.090 3550.726 2363.661 2926.409 1989.611 6478.756 4988.928 5747.606 2644.609 2283.566 2464.290 3266.533 2439.456 6143.878 5398.388 5571.488 2435.555 4848.728 5371.556 1870.522 2372.885 3062.218 9834.782 2207.639 3204.163 5587.145 1544.921 2911.374 2795.140 3127.368 2230.074 2915.290 3374.922 3173.752 1114.980 3831.660 3806.609 5248.170 3940.656 1452.951 2332.267 2627.278 2218.510 3653.351 7949.580 3818.867 2420.577 2955.376 1908.988 1803.820 4255.799 2289.862 3801.468 2545.109 2334.777 5894.099 1510.998 2509.988 1996.677 1391.729 2624.099 4545.166 4386.126 6187.083 5160.485 5969.857 2306.704 8912.402 1864.029 1952.581 2129.405 4071.971 8116.589 1891.208 2979.279 4548.374 3727.792 3443.327 4708.246 3779.159 1203.897 4097.721 1564.748 7480.153 8575.609 1915.063
3530.115 3252.465 4108.119 4518.432 6102.719 4351.599 4807.730 4185.126 3565.059 4107.407 8438.899 9263.974 5353.438 3230.662 5162.951 10808.926 6289.436 6178.261 4973.534 4058.004 4435.474 4733.380 6271.426 1172.149 7316.203 7038.819 4528.092 4250.179 3532.994 4410.164 2832.269 4576.111 3128.493 0.000 5393.628 2312.692 3541.789 7533.949 7784.726 5979.526 4391.601 6974.502 5233.445 4227.193 4823.582 4816.754 1858.904 10514.495 3482.487 10023.477 4591.982 5482.931 4202.452 5099.829 4246.503 8284.598 7895.056 5781.535 5729.822 4213.866 4459.699 5532.760 4422.578 6741.465 7618.155 8595.531 4349.737 5567.048 5717.163 3771.681 4517.645 5501.951 10208.087 4230.855 5526.040 8603.830 4669.159 4864.271 5837.746 5397.336 4381.980 5351.932 5436.956 5285.391 2254.620 3904.544 4486.459 4826.657 7050.172 1931.946 4330.477 4537.638 4260.962 5779.472 10578.742 6925.380 4480.961 4904.318 4093.875 4209.723 6529.283 3904.493 6237.374 4622.853 4584.686 8891.248 3370.876 4371.809 4309.825 2215.421 4411.696 5835.042 3922.708 9123.383 5182.440 6326.603 4220.142 11969.122 4260.782 4189.632 4074.992 6758.490 11141.945 4121.834 5086.704 6520.281 5844.802 5309.756 4877.227 5587.402 2691.836 7212.266 2749.611 10540.470 7191.447 4133.619
4020.950 4091.464 4796.480 1896.975 2564.646 1868.620 1442.522 1541.350 3942.283 1511.190 13013.225 4165.882 1690.009 2433.027 5830.250 5430.247 2267.469 2163.262 749.519 1342.283 1733.365 1878.921 3299.193 4703.725 2346.059 9063.984 1625.215 1598.650 3961.339 2268.257 2564.212 4291.277 2483.311 5393.628 0.000 3804.138 2068.995 2434.314 2984.819 1352.331 2133.954 6695.675 6538.756 1348.419 5693.949 1010.137 4029.874 5120.893 4008.247 5159.963 1546.107 2188.569 2006.395 1594.229 1514.653 4603.609 2521.802 5549.133 825.975 1894.682 1796.342 1582.315 1813.677 5389.204 3267.970 3214.039 1906.549 4289.661 4999.540 2022.411 1587.614 1213.266 8852.706 1781.769 1467.713 3218.373 1569.788 1909.313 661.346 1514.129 1597.615 1161.969 1927.511 1769.139 3598.223 4202.141 3674.225 5526.671 1947.171 3930.884 1799.256 1919.020 1753.768 1991.406 5487.512 1818.338 1706.576 1926.051 1647.676 1387.790 2233.589 2279.005 1684.490 1680.437 1432.286 3498.827 3594.625 1975.868 1429.232 3869.806 2078.900 3528.474 4945.930 5263.446 5112.734 5455.549 1914.395 6595.371 1367.561 1557.647 1898.505 1656.265 5752.871 1592.366 1707.856 2800.716 2048.905 2219.763 4670.940 2469.091 3605.918 2127.664 3924.211 5175.959 9085.369 1598.912
1342.447 1109.892 4907.853 3770.597 5402.084 3579.578 3831.663 3163.630 1350.635 3023.497 10747.500 7953.267 4447.141 1371.787 6141.341 8979.996 5407.974 5285.032 3186.544 2668.265 3592.936 3973.780 5837.689 2510.559 6060.245 8694.654 3632.942 3291.961 1325.679 3862.055 1626.882 5018.213 1332.836 2312.692 3804.138 0.000 2671.004 6201.845 6642.262 4797.228 3770.811 7751.826 6488.647 3062.887 5841.805 2964.375 456.006 8777.248 1292.953 7872.990 3658.766 4768.821 3498.532 4182.830 3227.386 7718.682 6289.622 6456.654 3874.361 3442.122 3654.591 4550.738 3624.665 7054.388 6700.580 6816.122 3599.565 5757.371 6175.360 2981.159 3600.514 4372.075 10734.737 3390.107 4497.322 6836.435 2640.290 4111.986 4060.236 4409.385 3452.132 4222.445 4618.838 4423.400 308.795 4451.438 4648.793 5770.313 5106.737 399.701 3515.374 3801.784 3407.651 4917.812 9280.507 4993.113 3627.225 4156.796 3120.243 3071.424 5555.793 3340.247 5118.940 3762.956 3588.039 7152.721 1075.574 3662.585 3250.180 98.649 3760.871 5620.651 4842.428 6828.387 5842.260 6797.029 3461.547 10113.055 3132.385 3182.426 3280.937 5404.625 9346.007 3115.103 4221.973 5797.556 4991.903 4641.420 5421.311 4973.023 379.379 5249.360 544.879 8683.699 8808.855 3136.981
3552.644 3473.069 3074.689 1108.341 2759.360 917.728 1281.388 644.444 3502.577 588.665 10950.050 5722.323 1867.572 1635.373 4262.024 7447.753 2834.963 2715.918 1991.782 863.878 954.897 1319.312 3166.864 2693.223 3774.443 7341.164 1022.916 713.685 3502.375 1202.078 1044.127 2821.338 1572.807 3541.789 2068.995 2671.004 0.000 3995.034 4256.672 2437.791 1101.845 5544.005 4855.130 736.553 4047.875 1997.202 2671.915 7088.335 3517.067 7175.589 1073.292 2119.401 827.529 1602.645 704.927 5067.666 4437.064 4266.156 2685.363 776.536 1004.417 2020.699 971.186 4578.360 4164.405 5241.271 933.833 3288.678 3845.886 310.574 1002.620 1960.739 8266.081 743.356 2000.228 5238.949 2271.872 1458.964 2665.438 1880.640 857.505 1810.276 2000.694 1820.088 2373.933 2483.567 2288.640 3911.657 3978.453 2590.489 863.784 1137.888 767.082 2325.730 7038.876 3847.614 995.482 1503.570 552.342 706.210 3037.346 717.535 2702.302 1138.997 1048.449 5495.557 3082.984 992.791 771.236 2689.334 1090.072 2983.928 3152.952 6955.323 3707.288 4429.127 794.169 8614.543 746.339 647.963 615.334 3228.324 7748.803 580.837 1614.629 3166.776 2397.186 1980.155 3245.858 2307.746 2681.662 4157.578 3051.646 7209.536 7394.851 591.918
6444.682 6523.842 5701.103 3157.131 2219.246 3280.724 2765.720 3350.617 6364.563 3427.357 14415.181 1756.364 2339.429 4833.388 6368.386 3898.580 1742.428 1778.133 3154.270 3578.043 3167.982 2973.949 2836.676 6653.748 323.714 9588.839 3058.821 3296.773 6385.066 3415.158 4803.258 4967.403 4869.410 7533.949 2434.314 6201.845 3995.034 0.000 765.057 1569.985 3360.423 6563.754 7171.985 3314.597 6362.132 3414.798 6385.005 3382.779 6434.019 4919.526 2983.393 2499.375 3448.697 2541.000 3290.452 2929.787 1087.821 5746.123 2753.806 3399.895 3167.879 2117.735 3204.223 5035.232 1466.046 2082.945 3295.836 4421.872 5137.245 3790.385 3058.555 2048.339 7833.298 3352.284 2083.769 2037.718 3941.873 2878.208 2460.291 2228.540 3179.633 2192.907 2378.424 2439.502 5973.916 5206.633 4422.281 6171.672 2571.733 6288.282 3275.076 3150.623 3319.748 2080.125 3085.867 2537.184 3121.753 2852.355 3445.175 3328.536 1420.774 3781.472 1382.134 2993.125 2967.615 2095.943 6025.962 3305.317 3224.774 6260.639 3319.256 3425.299 5934.336 6038.537 5540.842 5349.300 3401.502 5009.449 3275.583 3347.528 3512.383 798.375 4094.589 3414.198 2595.861 2042.279 2051.571 2674.409 5208.920 2615.399 6027.024 2655.083 6353.156 3764.465 9551.698 3403.584
7000.390 7057.633 5536.993 3289.659 1997.120 3443.083 2978.813 3624.878 6922.830 3727.496 14292.890 1559.449 2444.379 5292.244 6069.939 4264.968 1604.008 1687.326 3729.703 3977.714 3351.276 3083.636 2453.480 6830.093 662.898 9227.083 3256.672 3543.076 6940.860 3480.581 5157.103 4764.675 5314.205 7784.726 2984.819 6642.262 4256.672 765.057 0.000 1853.402 3456.770 6074.040 6881.213 3640.474 6102.770 3991.819 6783.484 3684.648 6985.952 5585.143 3193.322 2449.433 3601.025 2688.907 3560.743 2187.737 1783.596 5368.092 3420.858 3576.694 3332.387 2253.570 3369.668 4529.934 780.688 2710.995 3449.483 4084.200 4765.136 4013.276 3267.388 2310.270 7136.351 3554.097 2259.302 2658.182 4540.737 2965.282 3121.580 2387.608 3405.075 2463.457 2406.386 2524.701 6394.591 5094.998 4273.688 5911.114 3335.170 6689.691 3457.273 3275.426 3523.826 2067.588 2815.433 3297.756 3305.436 2930.813 3706.704 3645.247 1303.026 3920.419 1556.791 3165.035 3208.226 2645.621 6564.947 3439.702 3508.018 6693.065 3424.823 3092.229 5788.188 6793.053 5237.436 4900.007 3572.621 5309.863 3587.305 3616.198 3710.800 1350.152 4397.208 3686.160 2713.200 1697.935 2015.864 2635.348 4952.324 2483.255 6500.805 3420.091 6841.755 4183.948 9173.919 3671.270
5238.022 5270.688 4335.385 1604.320 1319.660 1716.129 1195.896 1795.637 5164.251 1886.118 12950.213 3284.546 846.346 3459.908 5169.085 5284.862 938.292 849.513 2077.849 2129.244 1599.884 1437.759 2085.561 5084.028 1336.682 8436.196 1489.390 1731.955 5179.090 1894.950 3305.255 3671.992 3474.912 5979.526 1352.331 4797.228 2437.791 1569.985 1853.402 0.000 1821.952 5723.295 5943.425 1790.579 5104.746 2327.319 4930.414 4837.728 5219.204 5706.514 1413.441 1193.595 1885.403 996.649 1733.491 3252.861 2228.721 4702.999 2058.332 1831.801 1603.656 619.027 1639.459 4301.847 1964.207 3192.794 1733.466 3372.580 4109.997 2222.478 1488.586 479.384 7608.717 1782.310 547.967 3170.508 2894.481 1361.884 1785.424 694.063 1610.613 627.653 977.499 956.864 4544.776 3794.018 3077.425 4920.584 2682.881 4836.865 1706.693 1601.521 1749.764 827.511 4602.968 2581.868 1553.812 1344.428 1885.656 1797.730 882.330 2219.436 342.825 1428.567 1400.129 3352.190 4787.048 1749.447 1673.259 4845.593 1776.563 2464.521 4543.480 6262.709 4374.794 4468.399 1834.316 6434.235 1741.060 1790.214 1942.408 865.834 5533.108 1858.562 1070.386 1478.260 854.389 1321.341 3981.818 1422.911 4670.696 2841.259 5019.116 5097.577 8426.452 1846.163
4626.605 4561.342 2673.364 244.704 1725.796 300.009 727.617 830.324 4572.258 978.194 11142.365 4992.844 1026.298 2694.329 3701.534 7093.563 1904.374 1797.909 2426.288 1552.114 413.390 386.631 2067.718 3382.206 3088.085 6930.153 510.325 686.711 4574.440 144.832 2144.482 2165.548 2645.883 4391.601 2133.954 3770.811 1101.845 3360.423 3456.770 1821.952 0.000 4714.245 4404.914 1077.473 3559.999 2544.415 3750.732 6658.332 4593.159 7242.811 587.847 1093.909 282.376 825.609 800.451 4000.696 4031.935 3494.627 2928.917 377.095 340.548 1243.053 330.314 3594.718 3227.556 4956.156 259.891 2348.163 2993.206 791.336 551.150 1381.127 7253.030 484.207 1281.402 4940.684 2981.812 491.928 2795.216 1134.816 589.848 1274.404 1056.855 935.476 3471.570 2087.588 1553.045 3393.286 4048.013 3673.438 388.852 232.862 490.562 1400.908 6272.203 3923.367 431.472 526.057 793.372 1034.756 2165.004 489.385 1980.987 464.389 705.303 5147.653 4154.065 174.324 855.387 3786.583 55.246 1901.180 2840.449 7370.272 3011.039 3525.315 351.151 8248.305 999.605 802.470 518.829 2687.036 7350.955 834.998 764.674 2143.011 1462.053 928.017 2558.604 1235.403 3781.620 4226.631 4151.814 6893.977 6951.762 811.114
8930.765 8782.731 2908.394 4904.793 4469.217 5014.249 5285.021 5534.267 8898.108 5671.028 9481.551 7355.934 5040.551 7127.003 1837.533 10333.357 4952.271 4977.301 7121.885 6238.043 5117.374 4854.581 3749.266 5852.306 6247.492 3460.709 5190.174 5397.233 8889.449 4569.690 6363.572 2760.453 7041.415 6974.502 6695.675 7751.826 5544.005 6563.754 6074.040 5723.295 4714.245 0.000 2142.550 5787.090 2178.342 7255.844 7513.210 9734.930 8887.916 11374.938 5247.778 4568.379 4952.121 5102.067 5511.301 4509.552 7616.909 1299.116 7521.630 5069.410 5036.936 5205.027 5036.446 1545.500 5327.770 8634.429 4974.096 2406.309 1721.086 5303.549 5236.541 5564.301 3286.429 5188.070 5318.403 8593.247 7691.218 4799.355 7323.650 5228.159 5301.990 5565.569 4822.248 4947.115 7451.663 3301.579 3255.498 2150.882 8399.967 7479.315 5102.950 4874.338 5199.770 4895.931 8155.236 8293.586 5123.835 4777.641 5477.836 5742.791 5228.918 4864.995 5584.714 5091.928 5376.978 8656.979 8488.693 4888.437 5569.485 7721.013 4761.727 3260.391 3058.995 11935.421 1909.592 1255.029 5042.967 11339.871 5711.710 5506.720 5168.336 6360.363 10438.989 5527.609 4988.197 4535.528 4871.036 4496.608 2341.868 4310.076 7924.077 8562.076 8261.156 10257.817 3339.570 5505.564
7783.207 7586.329 1781.987 4643.781 4953.743 4675.121 5113.703 5094.880 7768.415 5191.599 7683.971 8355.433 5120.742 6210.790 811.775 11069.799 5431.011 5406.270 6752.842 5688.454 4807.748 4690.782 4433.546 4225.014 6849.670 2525.239 4913.730 4993.177 7752.182 4272.391 5394.127 2278.448 6104.887 5233.445 6538.756 6488.647 4855.130 7171.985 6881.213 5943.425 4404.914 2142.550 0.000 5342.663 846.913 6813.584 6162.909 10533.521 7735.969 11607.190 4992.731 4764.424 4550.932 5069.845 5097.454 5876.919 8107.186 1671.524 7324.656 4668.896 4742.672 5335.655 4726.422 2950.833 6246.078 9110.086 4636.131 2803.407 2192.281 4711.360 4952.156 5629.329 5367.432 4789.046 5429.709 9081.417 7127.001 4697.289 7200.073 5301.025 4957.524 5572.809 4965.935 5010.728 6215.925 2380.159 2890.818 1024.506 8440.328 6152.979 4750.145 4623.499 4812.560 5173.884 9368.998 8318.058 4832.775 4695.033 5006.800 5295.845 5751.298 4331.663 5927.183 4862.543 5107.441 9220.523 7390.036 4563.952 5175.432 6436.088 4460.026 3789.004 1722.135 11745.371 1643.855 2377.680 4646.219 12165.036 5286.641 5071.095 4705.348 6741.255 11248.607 5064.176 4963.369 5188.052 5180.152 4622.963 1970.297 4585.937 6737.682 8617.135 7029.225 10932.331 2553.396 5048.220
3712.060 3687.616 3568.245 923.223 2385.217 779.893 786.554 255.429 3649.239 164.180 11665.189 5059.560 1396.891 1803.111 4686.912 6711.406 2347.077 2223.911 1410.277 498.412 700.485 1058.236 2935.486 3423.388 3115.304 7857.731 672.017 390.834 3656.422 1220.597 1517.290 3174.954 1787.587 4227.193 1348.419 3062.887 736.553 3314.597 3640.474 1790.579 1077.473 5787.090 5342.663 0.000 4510.439 1490.954 3156.773 6355.717 3684.018 6491.512 658.956 1780.941 837.601 1139.803 277.036 4691.811 3706.782 4553.441 2027.974 718.632 782.789 1487.988 772.797 4662.009 3640.337 4504.769 818.812 3425.324 4066.215 680.965 627.027 1332.516 8299.858 599.048 1435.895 4502.397 1905.096 1175.493 1970.810 1346.906 511.095 1179.581 1590.989 1388.436 2792.422 2967.385 2582.004 4356.946 3282.254 3065.688 690.290 957.339 587.944 1866.095 6384.286 3151.994 710.327 1216.476 335.881 46.872 2495.755 1011.022 2088.270 803.528 554.949 4759.765 3240.518 905.250 235.807 3101.486 1033.766 2907.836 3687.426 6404.179 4044.831 4602.781 744.883 7878.224 84.138 282.199 642.657 2532.366 7013.759 278.525 1198.409 2761.133 1940.531 1693.374 3585.224 2026.827 2987.424 3462.455 3351.461 6473.034 7895.734 295.421
7104.778 6922.770 982.652 3798.163 4149.361 3832.437 4267.163 4260.810 7084.329 4361.626 8314.092 7600.542 4278.235 5459.134 341.765 10260.536 4619.705 4589.354 5920.528 4869.120 3964.282 3843.879 3672.562 3732.614 6041.188 3370.923 4069.336 4155.854 7070.364 3426.710 4648.138 1434.611 5357.200 4823.582 5693.949 5841.805 4047.875 6362.132 6102.770 5104.746 3559.999 2178.342 846.913 4510.439 0.000 5988.198 5547.498 9734.024 7058.687 10761.214 4147.843 3931.348 3710.975 4223.822 4261.406 5249.519 7280.287 1211.085 6482.772 3829.559 3898.376 4494.647 3882.674 2501.923 5495.485 8279.035 3793.228 2064.935 1567.241 3889.724 4108.175 4784.629 5459.949 3950.275 4587.385 8251.459 6317.255 3850.705 6355.182 4457.535 4116.330 4726.744 4127.633 4167.947 5557.203 1564.309 2044.644 191.658 7593.456 5527.824 3908.469 3777.588 3973.160 4344.059 8655.569 7471.251 3988.659 3848.744 4174.880 4463.573 4942.017 3500.356 5097.462 4016.654 4263.377 8397.003 6694.492 3720.173 4338.356 5796.954 3615.050 3019.740 999.406 10909.236 917.898 1936.195 3806.521 11364.952 4452.493 4236.582 3870.751 5910.391 10448.599 4231.952 4117.732 4405.053 4353.069 3785.961 1154.398 3761.988 6065.734 7770.234 6374.692 10116.048 3392.990 4215.369
3030.297 3118.981 5033.068 2352.047 3432.838 2244.883 2017.879 1746.067 2949.900 1630.613 12800.240 5117.396 2466.281 1639.061 6173.301 6044.575 3201.736 3088.876 262.218 1135.629 2138.499 2423.233 4120.806 4312.965 3347.368 9318.301 2068.234 1871.194 2970.701 2689.247 2043.348 4665.795 1720.599 4816.754 1010.137 2964.375 1997.202 3414.798 3991.819 2327.319 2544.415 7255.844 6813.584 1490.954 5988.198 0.000 3255.263 5817.280 3020.425 5307.416 2016.112 2954.706 2324.674 2290.675 1758.454 5574.508 3343.205 6037.057 924.057 2204.455 2218.937 2423.801 2219.650 6064.008 4270.301 3859.200 2285.366 4870.514 5535.545 2103.067 2021.408 2086.248 9634.531 2082.742 2319.646 3877.238 567.165 2503.036 1096.660 2321.194 1954.941 1988.273 2706.300 2516.759 2803.457 4433.523 4071.963 5838.856 2233.500 3155.622 2157.297 2383.135 2067.044 2852.603 6426.141 2108.670 2132.453 2533.733 1821.595 1537.395 3207.301 2490.940 2667.593 2174.168 1886.687 4190.242 2619.523 2370.124 1692.996 3041.432 2495.573 4240.778 5133.036 4958.724 5535.230 6051.525 2230.141 7191.866 1558.729 1772.345 2132.678 2653.938 6400.068 1766.117 2392.533 3718.411 2918.901 2935.823 5076.000 3234.066 2716.894 2397.021 3006.228 5759.613 9363.661 1784.980
1763.303 1510.342 4636.703 3780.076 5430.521 3589.626 3897.612 3223.093 1780.454 3094.684 10291.797 8141.131 4508.452 1619.948 5856.405 9296.329 5477.388 5355.650 3460.553 2812.421 3620.334 3990.999 5813.553 2097.178 6223.996 8318.663 3674.220 3339.273 1752.887 3827.882 1651.920 4810.274 1552.574 1858.904 4029.874 456.006 2671.915 6385.005 6783.484 4930.414 3750.732 7513.210 6162.909 3156.773 5547.498 3255.263 0.000 9070.324 1713.761 8272.687 3710.045 4791.073 3489.995 4241.812 3288.237 7739.243 6540.928 6225.766 4176.602 3448.046 3674.633 4631.808 3642.170 6894.290 6790.677 7114.150 3604.970 5606.826 5980.115 2975.416 3646.336 4486.239 10555.070 3411.196 4588.762 7131.442 2984.497 4130.597 4341.718 4489.541 3497.053 4334.042 4662.430 4473.837 456.517 4214.380 4485.802 5487.229 5442.055 99.791 3533.947 3809.245 3432.356 4976.176 9470.563 5324.757 3658.264 4175.264 3165.955 3158.620 5648.150 3293.845 5240.578 3798.973 3653.270 7441.471 1528.902 3660.080 3322.175 361.318 3747.443 5548.118 4550.915 7272.969 5607.553 6605.688 3464.906 10438.081 3218.838 3238.805 3287.106 5586.749 9654.816 3169.167 4269.270 5835.642 5049.308 4651.161 5201.415 4976.206 833.733 5590.771 953.662 9006.470 8438.889 3189.166
8582.024 8749.082 9083.392 6434.686 5584.671 6527.523 5991.501 6465.827 8496.665 6499.704 17779.234 2470.226 5667.906 7450.720 9725.324 655.314 5119.406 5160.262 5610.786 6458.787 6400.214 6275.301 6129.383 9779.042 3698.914 12908.840 6282.405 6452.128 8526.575 6732.342 7684.352 8348.608 7523.834 10514.495 5120.893 8777.248 7088.335 3382.779 3684.648 4837.728 6658.332 9734.930 10533.521 6355.717 9734.024 5817.280 9070.324 0.000 8588.792 3240.269 6199.043 5877.047 6697.705 5834.043 6415.213 5458.792 2653.979 9050.295 4902.919 6627.483 6417.764 5439.536 6451.597 8189.716 4408.317 1962.347 6549.910 7752.852 8445.512 6947.290 6270.965 5283.646 10357.598 6556.154 5383.578 1940.813 6165.042 6197.333 4729.035 5530.458 6366.929 5406.313 5738.758 5774.362 8620.171 8582.151 7804.571 9542.926 3754.610 8970.563 6503.136 6434.477 6522.858 5456.186 2486.275 3847.662 6355.927 6177.309 6571.408 6383.043 4795.596 7030.528 4729.313 6244.655 6151.151 1630.108 8267.136 6575.655 6336.588 8856.554 6611.743 6754.967 9314.651 5388.637 8893.873 8580.527 6634.640 1631.517 6342.088 6470.569 6711.944 3971.909 715.151 6528.245 5906.746 5352.062 5431.323 6048.351 8579.654 5997.982 8507.946 3652.505 8762.050 788.858 12857.892 6524.205
49.604 240.989 6103.687 4533.156 6064.940 4350.341 4467.295 3854.757 104.120 3699.262 11901.447 8133.877 5065.090 1901.246 7346.164 8699.197 5973.196 5850.987 3280.007 3205.884 4326.753 4710.785 6606.772 3801.822 6353.872 9978.431 4334.702 4000.813 67.839 4708.087 2548.408 6130.311 1947.847 3482.487 4008.247 1292.953 3517.067 6434.019 6985.952 5219.204 4593.159 8887.916 7735.969 3684.018 7058.687 3020.425 1713.761 8588.792 0.000 7226.710 4337.038 5464.541 4310.830 4817.518 3911.007 8355.044 6299.795 7588.808 3803.991 4228.502 4400.741 5116.995 4377.665 8069.388 7181.549 6643.625 4378.818 6770.013 7256.253 3817.635 4294.099 4862.865 11762.604 4148.391 5040.185 6674.991 2520.812 4840.068 4056.092 4983.781 4156.235 4726.989 5271.427 5067.689 1530.097 5609.845 5698.644 6974.746 4834.789 1681.930 4271.895 4567.079 4157.414 5525.272 9435.187 4741.531 4351.448 4883.330 3844.067 3707.322 6059.067 4231.950 5559.713 4469.383 4238.887 7007.956 443.510 4454.812 3907.351 1369.220 4570.483 6492.976 6061.459 5889.276 6984.252 7866.398 4252.059 9784.799 3765.233 3878.965 4075.841 5664.342 9090.215 3821.418 4881.821 6427.822 5599.170 5368.902 6546.148 5704.412 998.881 4945.437 760.106 8381.047 10089.068 3845.791
7202.404 7441.497 9913.798 6998.458 6906.738 7003.761 6517.398 6699.062 7123.189 6655.692 18099.129 5100.179 6496.967 6797.301 10853.575 2794.210 6422.697 6399.724 5226.677 6343.003 6865.465 6926.157 7631.979 9617.417 5207.739 14120.437 6749.986 6758.166 7158.909 7364.331 7343.494 9329.447 6903.904 10023.477 5159.963 7872.990 7175.589 4919.526 5585.143 5706.514 7242.811 11374.938 11607.190 6491.512 10761.214 5307.416 8272.687 3240.269 7226.710 0.000 6665.628 6899.623 7152.479 6537.399 6674.319 7742.916 3831.721 10407.358 4493.901 7045.421 6918.740 6291.156 6941.394 9884.312 6356.592 2878.589 7039.232 9072.492 9810.257 7172.108 6717.983 5980.350 12719.688 6936.386 6190.420 2934.432 5358.983 6911.489 4520.722 6312.893 6747.679 6034.470 6672.317 6605.305 7825.953 9330.356 8716.570 10583.261 3212.835 8180.441 6942.281 7014.227 6907.181 6522.517 5614.773 3342.059 6832.858 6912.594 6804.090 6533.912 6152.221 7437.137 5800.081 6778.436 6565.276 3021.264 7043.506 7099.822 6589.013 7968.270 7187.855 8128.155 10082.231 2325.807 10074.348 10128.544 7063.491 3330.268 6520.075 6716.288 7057.832 5014.579 3169.581 6747.829 6643.917 6860.618 6535.649 7017.463 9667.465 7124.312 7523.429 3032.328 7659.092 2498.256 14120.010 6755.794
4365.941 4334.133 3256.917 354.537 1748.627 344.190 218.134 496.008 4304.243 643.950 11649.183 4682.460 799.710 2446.598 4287.347 6607.878 1769.662 1648.988 1874.155 1155.302 206.858 414.043 2276.717 3671.493 2740.835 7517.969 86.583 370.830 4310.742 723.550 2058.704 2749.766 2422.090 4591.982 1546.107 3658.766 1073.292 2983.393 3193.322 1413.441 587.847 5247.778 4992.731 658.956 4147.843 2016.112 3710.045 6199.043 4337.038 6665.628 0.000 1129.410 508.242 533.021 433.741 4064.257 3552.059 4052.124 2344.132 428.454 253.256 947.961 276.526 4055.823 3094.309 4441.776 376.316 2855.282 3530.643 820.352 75.281 936.632 7667.128 368.936 934.119 4430.126 2492.935 519.528 2207.371 808.865 216.140 799.161 960.231 765.450 3375.789 2667.149 2134.718 3980.891 3465.118 3623.731 304.661 380.422 336.584 1266.130 5989.949 3339.703 168.520 559.179 544.119 631.280 1964.137 834.463 1647.197 158.455 129.510 4653.722 3893.588 434.442 429.777 3689.420 532.800 2266.393 3417.098 6788.346 3586.020 4036.189 436.509 7769.039 575.529 476.397 529.029 2252.749 6881.197 543.878 563.212 2138.997 1339.319 1034.750 3137.429 1368.931 3611.217 3644.230 3978.651 6395.238 7539.475 522.528
5492.860 5463.500 3210.494 1013.078 640.733 1202.281 1005.661 1621.184 5430.180 1772.554 11917.417 4007.050 499.883 3576.004 3982.637 6368.826 849.242 762.689 2756.624 2268.156 1176.016 800.100 1176.279 4454.007 2193.450 7247.386 1141.498 1483.044 5437.309 1076.151 3151.056 2506.265 3550.726 5482.931 2188.569 4768.821 2119.401 2499.375 2449.433 1193.595 1093.909 4568.379 4764.424 1780.941 3931.348 2954.706 4791.073 5877.047 5464.541 6899.623 1129.410 0.000 1316.926 674.314 1561.117 2951.175 3352.937 3513.580 3003.982 1344.852 1117.175 636.825 1149.066 3206.731 2143.548 4347.747 1189.389 2190.190 2925.436 1819.762 1178.166 1001.646 6688.008 1381.540 751.056 4320.560 3486.633 660.477 2779.554 675.866 1323.078 1027.024 261.321 437.947 4479.411 2707.258 1933.819 3744.835 3836.919 4708.851 1257.661 985.592 1362.280 421.218 5250.826 3728.014 1141.743 615.835 1651.818 1757.252 1148.947 1583.260 1169.017 1008.646 1226.020 4474.024 5021.032 1143.080 1558.072 4794.497 1079.428 1343.575 3437.833 7372.160 3182.756 3315.189 1329.529 7497.833 1699.352 1599.280 1504.913 1979.512 6585.756 1662.913 589.751 1053.718 449.167 186.129 2797.072 282.120 4735.576 4002.326 5103.984 6205.871 7235.027 1639.759
4344.243 4279.703 2793.833 316.080 1956.750 170.291 706.711 582.982 4289.885 720.117 11141.023 5118.666 1157.097 2411.967 3871.695 7112.600 2089.223 1976.501 2225.429 1292.225 301.619 532.498 2339.439 3230.357 3191.463 7073.848 421.939 454.044 4292.066 407.465 1871.651 2347.726 2363.661 4202.452 2006.395 3498.532 827.529 3448.697 3601.025 1885.403 282.376 4952.121 4550.932 837.601 3710.975 2324.674 3489.995 6697.705 4310.830 7152.479 508.242 1316.926 0.000 917.114 566.225 4251.730 4054.533 3715.858 2774.772 120.562 281.854 1353.039 246.686 3863.327 3421.408 4949.729 153.230 2604.968 3231.895 517.647 443.809 1418.766 7528.481 242.833 1368.558 4937.805 2739.172 667.559 2665.071 1227.699 409.274 1291.462 1237.172 1083.683 3201.073 2197.142 1747.832 3550.923 3944.779 3410.864 210.862 337.083 262.798 1577.946 6412.690 3817.745 343.616 709.889 528.763 792.374 2328.199 334.298 2084.991 456.896 590.260 5159.411 3871.690 173.966 635.119 3516.398 263.293 2183.465 2939.540 7199.834 3211.353 3777.253 95.929 8272.727 766.208 555.705 237.357 2739.486 7382.665 576.207 888.438 2370.592 1644.535 1165.122 2753.295 1486.437 3503.026 4124.705 3873.288 6901.944 7103.266 553.739
4844.336 4826.103 3399.406 616.477 1247.463 755.156 353.746 1020.909 4779.649 1159.586 11958.823 4201.576 266.776 2942.857 4323.356 6275.150 1236.689 1115.972 2102.567 1612.387 664.561 441.276 1850.592 4146.532 2276.960 7585.953 580.273 903.501 4788.046 900.993 2590.042 2792.770 2926.409 5099.829 1594.229 4182.830 1602.645 2541.000 2688.907 996.649 825.609 5102.067 5069.845 1139.803 4223.822 2290.675 4241.812 5834.043 4817.518 6537.399 533.021 674.314 917.114 0.000 956.415 3552.360 3214.624 3972.218 2420.125 887.813 643.739 436.404 681.012 3809.432 2562.227 4155.027 764.164 2696.684 3411.859 1335.192 600.708 574.964 7344.285 872.274 457.525 4136.924 2815.884 381.266 2225.651 312.663 748.504 502.975 454.405 250.331 3902.834 2837.296 2179.178 4046.149 3387.118 4154.993 769.388 609.702 843.864 735.602 5497.493 3269.113 619.426 376.397 1076.589 1122.623 1437.096 1245.333 1169.125 476.977 595.115 4334.211 4374.304 765.570 934.034 4215.650 781.240 1960.534 3591.762 6843.696 3567.704 3861.384 883.860 7427.490 1062.385 1003.829 1025.408 1862.218 6528.201 1072.991 114.088 1622.083 809.422 646.794 3142.637 947.495 4123.438 3560.861 4488.906 6080.956 7591.442 1052.698
3940.717 3904.067 3329.128 652.675 2182.366 503.084 609.377 65.363 3880.304 211.948 11525.566 5017.982 1222.132 2016.461 4430.418 6793.056 2189.473 2067.530 1663.217 763.609 431.328 804.214 2696.641 3382.678 3069.977 7616.704 423.696 114.079 3886.005 943.704 1636.458 2911.556 1989.611 4246.503 1514.653 3227.386 704.927 3290.452 3560.743 1733.491 800.451 5511.301 5097.454 277.036 4261.406 1758.454 3288.237 6415.213 3911.007 6674.319 433.741 1561.117 566.225 956.415 0.000 4497.811 3761.284 4280.754 2243.332 446.035 512.418 1346.959 499.444 4386.808 3505.116 4598.689 541.843 3148.306 3790.305 535.014 383.740 1257.610 8029.369 324.674 1313.764 4592.669 2181.755 929.811 2159.889 1204.837 247.408 1106.360 1393.073 1196.129 2946.453 2728.973 2313.876 4104.822 3461.495 3200.534 413.502 687.119 311.535 1692.011 6335.725 3332.326 447.277 972.697 157.059 235.112 2366.425 775.548 2004.288 558.376 365.152 4837.231 3467.810 628.281 85.679 3259.423 756.830 2642.906 3458.866 6648.162 3777.354 4325.766 471.832 7958.737 200.678 57.108 394.163 2527.076 7083.964 125.508 995.887 2571.571 1765.824 1457.998 3318.885 1793.680 3177.483 3642.005 3544.986 6564.646 7650.826 113.137
8379.619 8373.374 5024.576 3959.328 2316.798 4150.027 3906.067 4560.233 8311.849 4706.332 13549.942 2992.048 3296.129 6494.156 5100.110 6097.797 2391.872 2511.815 5328.812 5153.029 4126.928 3749.957 2014.812 7176.380 2721.413 7915.348 4086.291 4427.828 8322.321 3942.078 6102.199 4233.186 6478.756 8284.598 4603.609 7718.682 5067.666 2929.787 2187.737 3252.861 4000.696 4509.552 5876.919 4691.811 5249.519 5574.508 7739.243 5458.792 8355.044 7742.916 4064.257 2951.175 4251.730 3552.360 4497.811 0.000 3970.418 4212.345 5248.696 4291.263 4068.084 3239.134 4099.489 3040.042 1482.717 4864.928 4134.274 3241.984 3698.101 4764.093 4119.830 3518.470 4989.460 4332.594 3320.574 4808.560 6141.032 3610.694 4955.093 3371.316 4267.506 3643.081 3105.398 3305.348 7430.395 4789.285 3984.782 5070.819 5445.644 7658.151 4208.375 3930.008 4313.447 2830.997 3648.355 5390.704 4091.807 3565.903 4598.835 4674.940 2370.552 4478.571 2919.439 3955.763 4144.900 4748.421 7913.263 4080.254 4483.837 7745.374 3998.575 2531.688 5303.187 8967.089 4332.688 3559.828 4274.342 6994.386 4614.744 4540.063 4452.339 3257.569 6128.803 4606.056 3502.318 1930.810 2756.836 3088.182 4229.105 2766.327 7674.204 5549.771 8040.541 6092.690 7818.127 4583.643
6302.129 6425.883 6551.273 3801.831 3198.118 3884.827 3347.866 3812.125 6218.175 3848.440 15173.154 1992.067 3073.818 4928.876 7314.585 3061.654 2707.087 2713.352 3106.996 3838.804 3755.102 3654.355 3871.628 7129.563 1382.728 10563.209 3636.329 3798.477 6243.588 4115.533 5076.883 5859.064 4988.928 7895.056 2521.802 6289.622 4437.064 1087.821 1783.596 2228.721 4031.935 7616.909 8107.186 3706.782 7280.287 3343.205 6540.928 2653.979 6299.795 3831.721 3552.059 3352.937 4054.533 3214.624 3761.284 3970.418 0.000 6747.172 2495.904 3980.307 3776.546 2845.196 3809.525 6098.754 2537.157 1019.877 3908.888 5411.351 6139.300 4293.340 3623.052 2650.969 8909.976 3905.813 2776.011 983.054 3784.630 3587.708 2255.777 2921.004 3715.468 2765.964 3178.232 3183.599 6101.816 6019.514 5281.570 7092.395 1811.398 6441.460 3856.655 3804.021 3872.546 2936.790 3191.895 1825.321 3711.482 3572.003 3917.545 3732.896 2404.487 4385.712 2184.091 3605.163 3500.104 1124.612 5928.361 3939.196 3682.839 6361.164 3983.314 4426.587 6766.120 5044.973 6497.366 6389.173 3988.439 4218.698 3690.744 3816.696 4060.629 1377.241 3329.382 3874.651 3296.020 3081.539 2927.467 3508.833 6136.889 3521.368 6058.235 1835.848 6348.671 2868.862 10536.735 3870.423
7631.677 7483.959 1674.279 3701.228 3549.057 3793.118 4113.890 4298.506 7599.161 4428.723 9355.485 6787.193 3950.332 5834.802 951.122 9614.761 4040.225 4040.267 5919.631 4988.157 3905.247 3677.258 2923.193 4634.849 5422.757 3858.992 3987.817 4167.255 7590.423 3349.978 5066.473 1463.397 5747.606 5781.535 5549.133 6456.654 4266.156 5746.123 5368.092 4702.999 3494.627 1299.116 1671.524 4553.441 1211.085 6037.057 6225.766 9050.295 7588.808 10407.358 4052.124 3513.580 3715.858 3972.218 4280.754 4212.345 6747.172 0.000 6370.952 3835.224 3827.253 4138.003 3822.792 1307.256 4685.347 7765.328 3752.531 1339.015 608.928 4036.892 4032.905 4478.477 4427.424 3956.086 4245.944 7730.178 6449.488 3639.823 6194.366 4139.024 4084.366 4458.387 3752.114 3848.550 6155.529 2011.399 1985.343 1092.972 7337.720 6189.612 3880.108 3672.870 3970.595 3884.985 7746.211 7224.560 3916.524 3623.876 4234.814 4508.067 4345.338 3602.217 4617.156 3900.504 4179.599 7833.430 7190.076 3668.536 4344.170 6427.301 3544.935 2322.873 1869.009 10811.625 619.415 732.654 3809.173 10677.658 4481.328 4271.393 3922.697 5422.771 9764.047 4286.762 3858.519 3710.965 3873.761 3411.265 1042.935 3283.048 6625.570 7506.624 6963.737 9503.632 3809.758 4265.679
3806.678 3931.287 5566.975 2698.320 3339.145 2650.475 2258.618 2256.573 3722.893 2190.538 13610.525 4368.399 2508.076 2562.663 6630.449 5120.987 2996.300 2902.954 761.036 1849.786 2519.879 2695.811 4088.907 5176.236 2758.112 9848.372 2418.727 2340.947 3748.035 3067.313 2928.165 5093.744 2644.609 5729.822 825.975 3874.361 2685.363 2753.806 3420.858 2058.332 2928.917 7521.630 7324.656 2027.974 6482.772 924.057 4176.602 4902.919 3803.991 4493.901 2344.132 3003.982 2774.772 2420.125 2243.332 5248.696 2495.904 6370.952 0.000 2657.988 2588.552 2385.112 2602.126 6209.110 3839.147 2941.920 2689.857 5115.565 5824.332 2705.897 2377.966 2012.878 9641.166 2539.398 2269.082 2962.113 1291.510 2732.048 300.306 2328.119 2367.219 1977.680 2742.674 2590.804 3723.419 4968.286 4478.801 6319.350 1334.350 4077.085 2574.530 2722.573 2514.496 2778.372 5648.149 1205.620 2497.729 2749.969 2355.567 2072.825 2908.937 3018.878 2359.366 2486.188 2223.634 3280.055 3434.760 2764.444 2161.287 3954.084 2874.503 4346.717 5701.985 4446.265 5925.883 6281.307 2679.986 6267.814 2068.475 2277.384 2637.144 2079.138 5478.297 2297.837 2533.798 3536.111 2830.389 3042.451 5480.260 3282.619 3609.735 1506.223 3878.933 4835.561 9875.758 2309.482
4261.158 4202.456 2909.434 332.107 1985.467 143.379 639.405 464.862 4205.476 605.922 11227.639 5083.971 1139.692 2327.744 3991.617 7035.295 2089.819 1974.334 2104.938 1179.575 231.945 546.091 2401.854 3263.263 3149.469 7191.294 345.702 333.550 4208.403 512.887 1816.785 2468.227 2283.566 4213.866 1894.682 3442.122 776.536 3399.895 3576.694 1831.801 377.095 5069.410 4668.896 718.632 3829.559 2204.455 3448.046 6627.483 4228.502 7045.421 428.454 1344.852 120.562 887.813 446.035 4291.263 3980.307 3835.224 2657.988 0.000 245.974 1323.441 209.036 3970.230 3423.198 4865.336 157.564 2717.119 3348.842 475.106 357.496 1358.919 7630.124 122.279 1329.005 4854.519 2621.847 685.517 2552.084 1192.484 297.803 1225.375 1242.333 1075.676 3147.498 2311.805 1868.302 3670.082 3836.031 3366.960 125.337 361.353 143.664 1577.683 6383.938 3708.582 278.142 729.738 417.529 673.757 2316.466 408.941 2046.915 412.446 493.184 5080.644 3788.121 226.423 514.575 3462.972 345.261 2271.877 3051.959 7080.620 3331.826 3891.181 26.614 8196.862 646.291 437.352 161.444 2678.217 7309.528 461.932 874.039 2395.532 1646.574 1203.627 2873.839 1532.058 3435.321 4016.132 3805.536 6821.122 7221.518 438.760
4431.849 4384.219 3004.076 140.489 1755.904 112.892 430.083 557.836 4373.542 714.692 11411.952 4843.473 893.772 2500.451 4041.917 6835.893 1845.472 1729.419 2092.415 1275.815 82.600 319.223 2209.460 3503.722 2912.696 7267.844 171.140 407.440 4377.997 481.528 2034.200 2506.094 2464.290 4459.699 1796.342 3654.591 1004.417 3167.879 3332.387 1603.656 340.548 5036.936 4742.672 782.789 3898.376 2218.937 3674.633 6417.764 4400.741 6918.740 253.256 1117.175 281.854 643.739 512.418 4068.084 3776.546 3827.253 2588.552 245.974 0.000 1080.006 37.281 3881.232 3178.733 4678.621 132.342 2656.484 3316.896 712.882 210.621 1137.218 7517.663 264.636 1090.113 4665.719 2672.848 457.629 2457.683 951.183 272.663 1011.582 1000.551 830.349 3363.442 2413.929 1893.269 3732.552 3718.305 3591.965 140.712 174.792 247.781 1333.480 6141.123 3592.814 90.930 502.454 556.676 744.612 2070.494 616.128 1807.618 175.089 365.215 4883.849 3958.500 181.186 549.315 3678.709 286.652 2130.974 3163.866 7029.760 3349.839 3836.800 240.255 7995.141 700.298 531.275 395.758 2457.849 7103.815 582.004 628.155 2162.367 1402.958 987.592 2898.365 1321.342 3633.316 3897.448 4002.978 6627.572 7290.690 557.330
5141.087 5140.573 3716.670 1048.429 1009.063 1191.555 741.307 1412.322 5072.925 1537.155 12341.759 3765.753 229.051 3272.264 4567.719 5897.141 862.058 738.810 2205.035 1922.416 1097.813 857.016 1719.251 4582.879 1846.311 7835.954 1005.988 1310.672 5083.645 1299.651 2981.344 3060.513 3266.533 5532.760 1582.315 4550.738 2020.699 2117.735 2253.570 619.027 1243.053 5205.027 5335.655 1487.988 4494.647 2423.801 4631.808 5439.536 5116.995 6291.156 947.961 636.825 1353.039 436.404 1346.959 3239.134 2845.196 4138.003 2385.112 1323.441 1080.006 0.000 1117.266 3836.235 2159.018 3811.693 1200.276 2822.101 3555.105 1763.662 1020.274 372.286 7270.925 1302.226 116.276 3789.532 2976.092 762.071 2151.088 142.283 1163.256 436.323 386.123 338.412 4278.202 3175.441 2461.704 4311.758 3203.657 4542.858 1203.704 1038.664 1272.604 429.508 5061.129 3093.492 1052.075 739.019 1480.911 1479.754 1019.732 1679.553 738.271 911.492 982.629 3969.369 4675.852 1198.468 1309.635 4588.413 1202.978 1974.233 3924.508 6735.763 3783.209 3951.999 1319.992 7043.018 1418.848 1398.936 1457.830 1473.994 6138.862 1469.405 478.397 1321.248 498.270 728.162 3380.228 905.179 4469.780 3370.510 4831.024 5713.800 7830.710 1451.363
4409.030 4359.571 2984.499 156.428 1788.411 76.675 462.029 541.709 4351.145 697.774 11381.024 4880.599 930.868 2476.917 4028.903 6868.438 1881.639 1765.786 2097.108 1262.900 83.084 349.607 2234.743 3466.560 2949.504 7251.448 191.409 391.365 4355.351 473.714 2003.176 2494.321 2439.456 4422.578 1813.677 3624.665 971.186 3204.223 3369.668 1639.459 330.314 5036.446 4726.422 772.797 3882.674 2219.650 3642.170 6451.597 4377.665 6941.394 276.526 1149.066 246.686 681.012 499.444 4099.489 3809.525 3822.792 2602.126 209.036 37.281 1117.266 0.000 3889.384 3214.957 4709.422 100.972 2659.699 3315.930 677.789 226.079 1172.084 7530.011 234.890 1127.037 4696.797 2668.308 488.812 2474.896 988.306 266.786 1045.286 1035.875 866.863 3332.880 2393.073 1882.888 3717.715 3739.340 3559.791 109.301 190.895 221.000 1369.581 6178.376 3613.539 108.537 533.591 534.238 733.381 2107.474 580.923 1844.620 211.116 381.391 4915.990 3935.671 162.501 541.523 3648.211 278.210 2147.062 3141.976 7041.445 3341.353 3839.464 202.981 8028.004 691.217 514.676 360.541 2492.813 7137.164 562.396 665.003 2195.722 1438.871 1016.845 2888.742 1349.753 3605.871 3918.655 3975.667 6659.357 7275.351 537.662
8107.884 7999.407 2722.268 3741.609 3005.251 3885.047 4048.054 4422.396 8063.530 4572.581 10620.161 5819.488 3701.034 6212.322 2258.250 8787.930 3473.805 3512.317 5898.437 5146.002 3963.832 3643.747 2256.181 5570.713 4722.209 4877.044 4013.472 4275.117 8060.459 3457.563 5523.771 2167.987 6143.878 6741.465 5389.204 7054.388 4578.360 5035.232 4529.934 4301.847 3594.718 1545.500 2950.833 4662.009 2501.923 6064.008 6894.290 8189.716 8069.388 9884.312 4055.823 3206.731 3863.327 3809.432 4386.808 3040.042 6098.754 1307.256 6209.110 3970.230 3881.232 3836.235 3889.384 0.000 3782.285 7112.871 3847.562 1300.577 1049.590 4297.635 4060.786 4206.332 3693.228 4078.552 3952.269 7070.059 6548.128 3561.113 5985.870 3882.085 4153.881 4231.515 3467.689 3620.120 6745.927 2837.390 2409.066 2361.771 6983.414 6842.668 3974.242 3708.148 4082.724 3484.315 6661.305 6883.660 3959.768 3531.246 4387.638 4621.771 3732.621 3862.761 4128.143 3897.468 4184.042 7124.036 7644.753 3761.650 4430.357 7041.599 3633.460 1863.166 2971.562 10559.710 1697.126 576.425 3943.840 9796.228 4580.593 4394.609 4096.923 4877.600 8894.311 4429.665 3699.103 3025.076 3449.201 3170.689 1881.522 2931.396 7162.331 7138.763 7520.989 8713.881 4785.037 4405.700
7200.951 7228.307 5010.076 3105.792 1564.964 3281.383 2896.809 3570.459 7127.633 3696.003 13755.486 2109.414 2296.834 5393.580 5434.915 5006.459 1333.384 1449.789 4013.865 4045.068 3215.844 2888.914 1823.934 6597.487 1239.722 8538.136 3141.490 3463.116 7142.126 3219.312 5140.349 4217.687 5398.388 7618.155 3267.970 6700.580 4164.405 1466.046 780.688 1964.207 3227.556 5327.770 6246.078 3640.337 5495.485 4270.301 6790.677 4408.317 7181.549 6356.592 3094.309 2143.548 3421.408 2562.227 3505.116 1482.717 2537.157 4685.347 3839.147 3423.198 3178.733 2159.018 3214.957 3782.285 0.000 3487.079 3278.571 3443.426 4091.408 3888.977 3162.923 2337.207 6372.822 3427.397 2204.446 3435.217 4835.219 2755.517 3540.569 2301.301 3310.300 2483.119 2184.245 2348.977 6432.736 4619.250 3782.717 5304.633 3963.364 6701.452 3315.161 3084.522 3400.929 1845.534 3206.471 3909.847 3172.921 2714.741 3635.213 3635.059 1144.835 3713.687 1622.369 3028.615 3140.138 3426.217 6747.742 3249.712 3468.589 6741.216 3206.485 2478.602 5272.881 7491.406 4606.334 4178.385 3413.503 6020.932 3574.394 3556.279 3573.411 1795.403 5115.031 3626.566 2553.287 1176.842 1777.329 2323.688 4359.548 2091.242 6601.382 4067.092 6956.660 4941.299 8475.991 3607.825
6638.588 6798.279 7528.130 4718.836 4216.443 4782.619 4248.866 4643.284 6553.271 4657.310 16090.432 2403.423 4037.895 5495.719 8321.392 2216.294 3725.138 3728.274 3658.563 4556.063 4648.118 4588.555 4890.840 7911.865 2391.101 11575.193 4527.856 4650.244 6582.390 5050.371 5763.475 6852.403 5571.488 8595.531 3214.039 6816.122 5241.271 2082.945 2710.995 3192.794 4956.156 8634.429 9110.086 4504.769 8279.035 3859.200 7114.150 1962.347 6643.625 2878.589 4441.776 4347.747 4949.729 4155.027 4598.689 4864.928 1019.877 7765.328 2941.920 4865.336 4678.621 3811.693 4709.422 7112.871 3487.079 0.000 4810.168 6428.643 7157.769 5133.519 4509.080 3581.796 9841.817 4779.905 3733.168 63.654 4203.338 4534.129 2777.277 3874.684 4585.901 3681.754 4160.414 4148.816 6662.650 6983.992 6266.350 8092.214 1826.551 7014.456 4744.893 4724.614 4747.072 3936.203 3314.277 1907.510 4606.657 4522.398 4751.284 4536.550 3424.147 5274.178 3182.947 4512.449 4374.900 382.294 6313.040 4849.010 4516.152 6896.002 4905.210 5445.681 7735.149 4369.417 7507.605 7408.509 4876.310 3381.443 4501.570 4651.640 4928.682 2368.897 2548.884 4703.451 4244.296 4099.818 3931.077 4497.132 7140.367 4527.343 6545.599 1750.265 6800.920 1968.266 11551.113 4702.636
4411.058 4355.175 2890.190 176.505 1830.120 40.646 562.147 574.837 4354.634 726.204 11280.306 4965.738 1006.362 2477.629 3943.419 6968.205 1945.496 1831.503 2170.616 1298.585 174.008 393.258 2245.811 3382.758 3038.239 7160.828 290.354 428.645 4357.991 404.434 1974.340 2411.224 2435.555 4349.737 1906.549 3599.565 933.833 3295.836 3449.483 1733.466 259.891 4974.096 4636.131 818.812 3793.228 2285.366 3604.970 6549.910 4378.818 7039.232 376.316 1189.389 153.230 764.164 541.843 4134.274 3908.888 3752.531 2689.857 157.564 132.342 1200.276 100.972 3847.562 3278.571 4810.168 0.000 2606.539 3253.043 630.602 321.415 1268.681 7498.470 235.216 1215.339 4797.445 2722.349 531.782 2567.415 1074.509 332.629 1143.829 1095.045 935.677 3305.051 2297.431 1802.537 3629.530 3835.825 3524.099 129.006 204.317 235.484 1433.551 6260.498 3709.735 207.796 575.547 548.214 776.706 2179.732 486.050 1931.783 305.874 475.589 5016.067 3937.847 86.439 595.497 3620.525 215.006 2128.307 3045.180 7125.819 3263.625 3784.419 140.230 8127.481 740.228 547.047 319.000 2589.089 7236.116 584.911 738.114 2241.268 1501.244 1046.371 2809.147 1374.497 3591.180 4015.293 3961.346 6759.665 7186.181 560.497
6808.755 6698.919 1804.366 2520.436 2214.029 2645.669 2881.924 3178.016 6765.070 3323.014 10371.945 5552.503 2645.935 4919.461 1991.838 8305.222 2704.413 2701.931 4726.266 3896.607 2738.355 2455.028 1631.893 4396.529 4098.164 5167.253 2802.507 3034.765 6761.647 2206.187 4223.588 1055.466 4848.728 5567.048 4289.661 5757.371 3288.678 4421.872 4084.200 3372.580 2348.163 2406.309 2803.407 3425.324 2064.935 4870.514 5606.826 7752.852 6770.013 9072.492 2855.282 2190.190 2604.968 2696.684 3148.306 3241.984 5411.351 1339.015 5115.565 2717.119 2656.484 2822.101 2659.699 1300.577 3443.426 6428.643 2606.539 0.000 737.822 3015.151 2849.473 3173.031 4993.172 2830.887 2932.925 6394.129 5327.689 2394.762 4920.526 2834.546 2926.483 3166.094 2436.325 2549.029 5448.726 1705.041 1125.568 1876.628 6025.727 5552.806 2735.240 2488.616 2838.653 2550.507 6590.757 5915.404 2740.542 2372.161 3133.465 3382.878 3012.934 2576.762 3278.716 2697.884 2984.792 6502.791 6346.604 2520.108 3199.646 5746.214 2391.667 998.859 2082.797 9536.150 1163.305 1181.011 2690.513 9383.395 3346.517 3150.176 2833.396 4083.756 8467.790 3179.049 2582.707 2400.973 2537.074 2102.113 987.169 1949.978 5861.950 6192.035 6221.038 8184.801 5130.783 3155.779
7297.314 7166.810 1672.689 3185.608 2941.328 3293.214 3575.763 3813.659 7259.500 3951.320 9851.935 6197.279 3374.216 5451.540 1402.553 9007.763 3432.652 3434.370 5404.584 4519.748 3397.072 3142.285 2316.739 4549.878 4813.860 4463.415 3471.488 3676.231 7253.218 2848.626 4712.375 1176.596 5371.556 5717.163 4999.540 6175.360 3845.886 5137.245 4765.136 4109.997 2993.206 1721.086 2192.281 4066.215 1567.241 5535.545 5980.115 8445.512 7256.253 9810.257 3530.643 2925.436 3231.895 3411.859 3790.305 3698.101 6139.300 608.928 5824.332 3348.842 3316.896 3555.105 3315.930 1049.590 4091.408 7157.769 3253.043 737.822 0.000 3595.097 3517.648 3902.221 4578.621 3467.244 3664.922 7122.344 5970.680 3093.822 5637.490 3563.051 3581.226 3889.697 3169.017 3275.086 5869.411 1826.131 1565.006 1400.279 6758.420 5935.628 3381.882 3155.512 3478.770 3288.324 7180.983 6647.096 3404.208 3074.596 3758.414 4022.012 3736.852 3154.982 4015.358 3375.691 3659.564 7224.588 6844.893 3167.422 3848.409 6154.212 3040.832 1714.115 1923.306 10255.509 678.079 626.855 3322.371 10073.735 3990.678 3786.077 3449.848 4818.665 9159.597 3807.726 3297.787 3102.915 3274.725 2831.764 840.866 2687.633 6315.425 6925.614 6664.495 8895.309 4417.302 3785.531
3852.456 3778.091 2930.227 806.702 2460.445 618.238 1036.768 491.585 3800.824 516.930 10998.749 5500.301 1595.837 1927.347 4086.301 7327.876 2556.375 2439.190 2059.443 979.868 673.429 1021.144 2856.554 2865.761 3555.939 7215.616 757.678 498.340 3801.480 893.951 1354.310 2610.300 1870.522 3771.681 2022.411 2981.159 310.574 3790.385 4013.276 2222.478 791.336 5303.549 4711.360 680.965 3889.724 2103.067 2975.416 6947.290 3817.635 7172.108 820.352 1819.762 517.647 1335.192 535.014 4764.093 4293.340 4036.892 2705.897 475.106 712.882 1763.662 677.789 4297.635 3888.977 5133.519 630.602 3015.151 3595.097 0.000 745.966 1743.111 7980.256 463.022 1754.359 5127.637 2438.374 1160.616 2651.403 1626.697 612.805 1597.488 1713.430 1540.105 2683.434 2331.225 2051.959 3744.670 3961.936 2895.312 574.337 834.842 491.471 2044.891 6809.743 3831.833 717.125 1204.843 383.054 638.197 2772.009 440.631 2467.010 861.285 822.773 5371.938 3381.508 685.080 617.454 2998.753 779.719 2678.100 3032.827 7052.286 3493.955 4167.690 490.374 8493.442 654.855 481.954 317.251 3040.838 7617.707 434.077 1335.723 2870.613 2114.988 1675.911 3031.449 2001.258 2991.186 4142.243 3361.279 7099.633 7260.665 432.147
4323.576 4287.807 3210.378 332.220 1803.220 285.923 293.415 443.026 4262.740 595.665 11582.687 4757.598 866.745 2400.199 4252.523 6677.800 1836.284 1716.135 1888.002 1125.409 147.488 431.698 2314.877 3596.227 2816.104 7477.243 47.322 308.680 4268.708 691.430 1995.831 2716.677 2372.885 4517.645 1587.614 3600.514 1002.620 3058.555 3267.388 1488.586 551.150 5236.541 4952.156 627.027 4108.175 2021.408 3646.336 6270.965 4294.099 6717.983 75.281 1178.166 443.809 600.708 383.740 4119.830 3623.052 4032.905 2377.966 357.496 210.621 1020.274 226.079 4060.786 3162.923 4509.080 321.415 2849.473 3517.648 745.966 0.000 1011.530 7682.111 293.732 1008.398 4497.897 2487.653 549.698 2248.854 881.857 149.304 873.291 1018.969 827.522 3315.908 2618.436 2103.586 3942.745 3514.454 3560.586 235.846 362.203 261.318 1330.639 6064.799 3388.432 119.764 591.624 481.416 595.465 2034.894 765.423 1722.099 176.910 155.343 4723.201 3850.811 388.309 392.580 3629.958 497.083 2284.593 3366.567 6819.250 3559.191 4030.437 367.286 7839.391 542.901 421.286 453.832 2326.839 6952.349 486.266 623.370 2197.253 1403.398 1074.834 3108.342 1410.326 3558.257 3693.899 3926.308 6463.956 7500.689 463.827
4884.574 4899.730 3972.120 1151.825 1358.586 1248.608 720.237 1320.522 4813.739 1417.577 12523.345 3762.122 528.251 3056.374 4873.532 5712.622 1127.527 1009.947 1858.101 1708.927 1127.556 1007.193 2085.944 4605.413 1814.934 8140.091 1014.504 1253.026 4826.350 1469.244 2849.757 3350.882 3062.218 5501.951 1213.266 4372.075 1960.739 2048.339 2310.270 479.384 1381.127 5564.301 5629.329 1332.516 4784.629 2086.248 4486.239 5283.646 4862.865 5980.350 936.632 1001.646 1418.766 574.964 1257.610 3518.470 2650.969 4478.477 2012.878 1358.919 1137.218 372.286 1172.084 4206.332 2337.207 3581.796 1268.681 3173.031 3902.221 1743.111 1011.530 0.000 7639.538 1305.017 256.206 3564.474 2645.798 956.054 1779.833 339.463 1131.453 153.209 743.212 631.024 4111.392 3412.082 2741.460 4604.894 2859.459 4394.120 1233.587 1153.198 1272.280 780.423 5078.278 2746.131 1081.907 948.560 1408.400 1335.618 1199.183 1752.986 755.778 962.816 920.764 3766.853 4425.077 1292.016 1200.312 4416.325 1332.346 2343.559 4166.372 6372.452 4102.914 4312.941 1362.816 6868.292 1277.299 1314.043 1465.030 1320.751 5972.947 1382.990 671.742 1632.943 841.295 1070.949 3688.349 1274.970 4264.562 3029.351 4619.454 5513.396 8140.878 1369.833
11801.051 11691.808 6101.703 7377.181 6302.999 7534.110 7626.499 8070.237 11756.434 8224.102 11969.177 7899.545 7185.263 9901.288 5120.819 11009.152 6681.979 6760.461 9443.802 8792.911 7599.665 7253.556 5554.185 9061.793 7575.243 5714.351 7635.307 7920.630 11753.521 7121.017 9216.759 5754.356 9834.782 10208.087 8852.706 10734.737 8266.081 7833.298 7136.351 7608.717 7253.030 3286.429 5367.432 8299.858 5459.949 9634.531 10555.070 10357.598 11762.604 12719.688 7667.128 6688.008 7528.481 7344.285 8029.369 4989.460 8909.976 4427.424 9641.166 7630.124 7517.663 7270.925 7530.011 3693.228 6372.822 9841.817 7498.470 4993.172 4578.621 7980.256 7682.111 7639.538 0.000 7732.728 7385.092 9786.990 10148.633 7153.965 9384.834 7348.486 7788.763 7698.795 6943.680 7124.244 10426.983 6387.560 6086.620 5417.767 10185.094 10508.243 7621.916 7342.898 7733.670 6864.534 8199.337 10106.008 7590.052 7118.807 8045.030 8262.265 6847.436 7549.019 7353.590 7511.107 7791.591 9737.105 11337.512 7414.008 8064.842 10718.260 7287.570 5402.439 6288.145 13783.173 5034.138 3951.838 7604.151 11802.766 8216.678 8042.766 7764.703 7959.857 10988.786 8083.381 7242.039 6149.792 6811.013 6698.710 5386.322 6406.368 10852.275 10316.733 11209.072 11036.512 5508.083 8058.959
4180.222 4127.780 3027.584 386.381 2019.681 202.826 586.924 347.387 4123.148 494.061 11317.455 5049.594 1132.970 2247.193 4113.461 6956.632 2095.569 1977.700 1982.682 1067.909 212.045 583.693 2467.950 3302.646 3109.213 7310.932 297.837 211.565 4126.874 624.722 1769.628 2590.492 2207.639 4230.855 1781.769 3390.107 743.356 3352.284 3554.097 1782.310 484.207 5188.070 4789.046 599.048 3950.275 2082.742 3411.196 6556.154 4148.391 6936.386 368.936 1381.540 242.833 872.274 324.674 4332.594 3905.813 3956.086 2539.398 122.279 264.636 1302.226 234.890 4078.552 3427.397 4779.905 235.216 2830.887 3467.244 463.022 293.732 1305.017 7732.728 0.000 1297.218 4770.236 2503.662 722.265 2437.515 1166.520 194.758 1165.528 1257.471 1079.370 3098.808 2429.231 1990.414 3791.296 3725.612 3328.162 125.741 419.695 33.301 1584.859 6355.075 3597.757 254.504 767.090 313.024 554.789 2308.988 504.292 2013.048 398.816 406.222 5000.953 3706.909 318.730 392.296 3414.079 445.680 2363.191 3167.243 6959.474 3453.934 4006.503 147.485 8119.494 525.259 319.603 160.100 2618.552 7235.081 351.295 874.353 2424.811 1655.682 1251.610 2996.055 1584.643 3371.339 3905.862 3741.203 6738.899 7341.887 327.192
5063.533 5067.956 3798.407 1073.362 1114.521 1202.848 719.794 1378.892 4994.507 1496.137 12402.389 3755.077 309.238 3206.328 4665.315 5832.828 933.026 810.861 2097.833 1854.902 1099.252 895.235 1832.416 4592.265 1822.913 7933.461 999.382 1286.877 5005.826 1348.899 2941.048 3152.809 3204.163 5526.040 1467.713 4497.322 2000.228 2083.769 2259.302 547.967 1281.402 5318.403 5429.709 1435.895 4587.385 2319.646 4588.762 5383.578 5040.185 6190.420 934.119 751.056 1368.558 457.525 1313.764 3320.574 2776.011 4245.944 2269.082 1329.005 1090.113 116.276 1127.037 3952.269 2204.446 3733.168 1215.339 2932.925 3664.922 1754.359 1008.398 256.206 7385.092 1297.218 0.000 3712.382 2874.473 814.258 2034.836 147.007 1145.991 332.041 496.858 419.994 4228.311 3250.911 2550.201 4405.414 3093.502 4498.770 1206.372 1067.200 1266.343 533.916 5057.959 2982.522 1052.956 796.466 1453.870 1430.995 1060.019 1699.566 717.916 917.216 953.625 3898.865 4599.941 1221.728 1270.076 4537.070 1238.108 2090.070 4002.111 6621.109 3884.851 4065.777 1327.879 6981.935 1370.462 1367.511 1455.447 1412.521 6080.164 1438.026 523.183 1412.189 599.257 834.708 3478.194 1021.043 4408.032 3261.162 4767.470 5644.731 7930.015 1421.351
6670.364 6828.108 7505.273 4704.148 4181.122 4770.288 4235.771 4637.916 6585.072 4654.080 16077.643 2339.786 4016.258 5512.402 8291.490 2212.771 3690.019 3694.938 3673.874 4560.650 4636.248 4571.565 4851.334 7912.856 2347.861 11543.494 4516.068 4642.826 6614.002 5033.536 5771.576 6826.027 5587.145 8603.830 3218.373 6836.435 5238.949 2037.718 2658.182 3170.508 4940.684 8593.247 9081.417 4502.397 8251.459 3877.238 7131.442 1940.813 6674.991 2934.432 4430.126 4320.560 4937.805 4136.924 4592.669 4808.560 983.054 7730.178 2962.113 4854.519 4665.719 3789.532 4696.797 7070.059 3435.217 63.654 4797.445 6394.129 7122.344 5127.637 4497.897 3564.474 9786.990 4770.236 3712.382 0.000 4228.031 4515.417 2792.148 3854.514 4576.481 3666.389 4135.742 4127.061 6680.559 6963.260 6241.747 8064.343 1864.754 7031.714 4733.633 4709.478 4737.333 3907.809 3254.952 1942.849 4594.509 4503.106 4745.755 4533.690 3387.282 5263.218 3154.367 4498.814 4364.837 338.186 6341.864 4835.287 4510.461 6915.803 4890.010 5409.613 7713.752 4433.071 7476.479 7369.008 4865.180 3379.075 4498.011 4645.909 4919.768 2341.110 2538.436 4698.364 4225.151 4059.542 3901.609 4471.390 7111.411 4497.343 6568.305 1792.941 6825.983 1972.073 11518.332 4697.216
2526.000 2641.276 5346.301 2810.786 3984.568 2682.824 2522.149 2157.022 2443.257 2021.536 12829.493 5618.952 3005.857 1439.099 6522.754 6344.753 3765.357 3651.540 821.407 1464.485 2590.558 2906.255 4659.003 4300.475 3890.727 9608.348 2534.974 2295.769 2466.862 3125.410 2044.474 5044.256 1544.921 4669.159 1569.788 2640.290 2271.872 3941.873 4540.737 2894.481 2981.812 7691.218 7127.001 1905.096 6317.255 567.165 2984.497 6165.042 2520.812 5358.983 2492.935 3486.633 2739.172 2815.884 2181.755 6141.032 3784.630 6449.488 1291.510 2621.847 2672.848 2976.092 2668.308 6548.128 4835.219 4203.338 2722.349 5327.689 5970.680 2438.374 2487.653 2645.798 10148.633 2503.662 2874.473 4228.031 0.000 2997.803 1535.390 2868.424 2401.618 2542.464 3243.668 3049.569 2528.171 4753.378 4468.451 6177.395 2466.492 2887.062 2593.396 2843.558 2493.029 3405.563 6915.511 2353.627 2591.166 3031.597 2215.293 1948.897 3774.368 2857.605 3234.663 2651.090 2365.443 4552.724 2143.868 2808.656 2128.085 2726.431 2936.776 4747.228 5421.941 4758.905 5924.440 6506.588 2648.311 7473.686 1982.207 2184.611 2526.920 3196.176 6715.862 2164.369 2913.019 4278.739 3473.135 3455.517 5462.376 3763.133 2347.974 2609.864 2598.027 6045.402 9665.093 2186.096
4870.079 4829.634 3018.822 355.431 1300.518 542.464 489.088 985.311 4809.977 1141.101 11588.346 4501.095 538.996 2942.996 3957.676 6646.281 1425.168 1314.929 2340.911 1673.327 520.894 139.673 1766.925 3869.864 2601.066 7216.243 506.824 840.232 4815.511 537.581 2491.759 2422.809 2911.374 4864.271 1909.313 4111.986 1458.964 2878.208 2965.282 1361.884 491.928 4799.355 4697.289 1175.493 3850.705 2503.036 4130.597 6197.333 4840.068 6911.489 519.528 660.477 667.559 381.266 929.811 3610.694 3587.708 3639.823 2732.048 685.517 457.629 762.071 488.812 3561.113 2755.517 4534.129 531.782 2394.762 3093.822 1160.616 549.698 956.054 7153.965 722.265 814.258 4515.417 2997.803 0.000 2557.074 667.821 683.836 879.332 572.810 444.140 3821.067 2456.061 1806.839 3674.564 3749.393 4048.450 597.700 330.803 704.375 916.274 5780.682 3629.492 490.902 44.825 1003.330 1144.987 1676.357 963.015 1496.444 372.816 639.367 4709.101 4397.030 494.634 942.087 4136.325 460.024 1751.607 3210.496 7172.206 3214.163 3571.182 671.274 7796.104 1091.508 961.226 844.870 2226.763 6894.390 1020.467 291.729 1710.023 980.602 532.566 2781.811 868.040 4087.084 3924.611 4456.383 6455.613 7224.789 996.453
4060.813 4174.571 5456.882 2557.744 3082.190 2529.307 2098.943 2181.387 3977.768 2134.991 13613.778 4093.578 2289.975 2721.863 6489.971 4978.778 2723.368 2633.824 881.840 1866.912 2394.420 2533.740 3838.320 5230.508 2458.985 9725.306 2286.558 2249.176 4001.776 2929.133 3014.218 4950.767 2795.140 5837.746 661.346 4060.236 2665.438 2460.291 3121.580 1785.424 2795.216 7323.650 7200.073 1970.810 6355.182 1096.660 4341.718 4729.035 4056.092 4520.722 2207.371 2779.554 2665.071 2225.651 2159.889 4955.093 2255.777 6194.366 300.306 2552.084 2457.683 2151.088 2474.896 5985.870 3540.569 2777.277 2567.415 4920.526 5637.490 2651.403 2248.854 1779.833 9384.834 2437.515 2034.836 2792.148 1535.390 2557.074 0.000 2105.656 2255.877 1760.567 2519.118 2378.770 3892.815 4861.808 4333.342 6187.629 1313.529 4241.937 2458.941 2579.406 2410.259 2530.683 5382.614 1182.835 2367.882 2571.163 2285.282 2013.206 2623.851 2930.704 2076.940 2340.588 2093.515 3099.783 3675.999 2637.137 2075.287 4136.378 2740.142 4122.811 5604.039 4618.270 5767.380 6077.685 2572.350 6134.566 2000.170 2199.614 2548.845 1778.921 5324.663 2228.614 2339.731 3263.272 2579.273 2830.826 5327.882 3054.712 3812.300 1493.184 4095.293 4704.124 9746.360 2237.360
5008.305 5005.140 3660.142 929.139 1118.583 1063.544 600.133 1270.198 4940.674 1394.904 12256.155 3892.292 188.849 3134.296 4540.823 5978.676 1001.176 877.895 2109.163 1785.620 964.602 748.480 1805.151 4454.829 1964.650 7808.365 869.318 1169.661 4951.028 1201.949 2839.062 3023.017 3127.368 5397.336 1514.129 4409.385 1880.640 2228.540 2387.608 694.063 1134.816 5228.159 5301.025 1346.906 4457.535 2321.194 4489.541 5530.458 4983.781 6312.893 808.865 675.866 1227.699 312.663 1204.837 3371.316 2921.004 4139.024 2328.119 1192.484 951.183 142.283 988.306 3882.085 2301.301 3874.684 1074.509 2834.546 3563.051 1626.697 881.857 339.463 7348.486 1166.520 147.007 3854.514 2868.424 667.821 2105.656 0.000 1023.516 352.239 414.576 292.967 4136.386 3109.456 2417.312 4276.535 3198.842 4400.620 1071.202 922.090 1136.392 547.323 5191.659 3085.594 918.544 650.999 1339.463 1338.145 1161.661 1557.309 857.331 780.042 840.711 4043.346 4542.192 1078.123 1167.366 4446.760 1091.909 2019.083 3861.517 6707.503 3766.213 3977.908 1190.237 7128.287 1277.215 1256.959 1323.317 1559.184 6226.815 1327.450 376.430 1448.032 619.550 732.553 3354.591 955.208 4330.275 3368.521 4692.031 5789.493 7807.220 1309.537
4186.255 4146.898 3202.871 412.702 1950.734 291.991 426.263 301.483 4126.269 457.517 11512.166 4887.553 1014.950 2259.741 4271.587 6764.388 1984.769 1864.375 1837.987 1006.600 190.072 556.890 2450.700 3474.356 2943.208 7481.171 181.617 160.334 4131.718 734.632 1846.533 2741.653 2230.074 4381.980 1597.615 3452.132 857.505 3179.633 3405.075 1610.613 589.848 5301.990 4957.524 511.095 4116.330 1954.941 3497.053 6366.929 4156.235 6747.679 216.140 1323.078 409.274 748.504 247.408 4267.506 3715.468 4084.366 2367.219 297.803 272.663 1163.256 266.786 4153.881 3310.300 4585.901 332.629 2926.483 3581.226 612.805 149.304 1131.453 7788.763 194.758 1145.991 4576.481 2401.618 683.836 2255.877 1023.516 0.000 987.687 1167.967 976.822 3167.034 2606.405 2134.449 3954.590 3538.240 3411.282 208.805 446.607 162.737 1479.726 6197.797 3410.824 200.500 727.148 332.327 474.256 2180.153 697.977 1855.460 315.090 216.209 4808.472 3713.195 415.833 276.736 3481.188 540.635 2398.216 3348.421 6797.705 3596.051 4106.229 316.814 7927.660 428.102 277.736 345.168 2437.333 7044.422 339.841 772.639 2345.976 1552.563 1213.968 3141.148 1549.847 3412.514 3718.334 3780.917 6545.580 7509.147 316.734
4749.358 4760.515 3897.024 1038.448 1444.777 1121.237 586.342 1168.920 4679.256 1264.548 12414.170 3912.064 530.634 2911.293 4825.485 5826.550 1251.498 1131.291 1768.729 1561.949 995.582 912.460 2151.359 4461.896 1964.315 8088.747 879.738 1104.847 4691.335 1371.768 2696.750 3295.702 2915.290 5351.932 1161.969 4222.445 1810.276 2192.907 2463.457 627.653 1274.404 5565.569 5572.809 1179.581 4726.744 1988.273 4334.042 5406.313 4726.989 6034.470 799.161 1027.024 1291.462 502.975 1106.360 3643.081 2765.964 4458.387 1977.680 1225.375 1011.582 436.323 1045.286 4231.515 2483.119 3681.754 1143.829 3166.094 3889.697 1597.488 873.291 153.209 7698.795 1165.528 332.041 3666.389 2542.464 879.332 1760.567 352.239 987.687 0.000 765.782 618.590 3960.578 3329.499 2682.102 4549.123 2888.472 4242.085 1100.211 1043.117 1132.519 864.352 5229.392 2771.800 950.679 878.397 1258.061 1182.448 1341.932 1624.757 908.850 839.304 774.738 3876.743 4288.168 1173.446 1047.949 4266.053 1223.624 2369.049 4084.630 6370.548 4065.706 4317.818 1230.822 6984.651 1124.094 1162.962 1325.104 1453.590 6092.368 1231.608 611.190 1742.415 930.885 1070.337 3643.621 1307.157 4118.308 3061.239 4474.326 5622.179 8093.626 1218.853
5298.405 5278.482 3373.041 921.593 794.253 1099.551 804.756 1456.042 5233.883 1600.981 12042.299 3952.456 241.615 3393.783 4192.554 6214.709 852.547 742.331 2503.664 2066.690 1045.801 704.695 1415.460 4439.023 2084.983 7460.256 988.780 1327.629 5242.180 1074.197 3013.601 2695.675 3374.922 5436.956 1927.511 4618.838 2000.694 2378.424 2406.386 977.499 1056.855 4822.248 4965.935 1590.989 4127.633 2706.300 4662.430 5738.758 5271.427 6672.317 960.231 261.321 1237.172 454.405 1393.073 3105.398 3178.232 3752.114 2742.674 1242.333 1000.551 386.123 1035.875 3467.689 2184.245 4160.414 1095.045 2436.325 3169.017 1713.430 1018.969 743.212 6943.680 1257.471 496.858 4135.742 3243.668 572.810 2519.118 414.576 1167.967 765.782 0.000 204.114 4334.865 2847.964 2106.014 3943.217 3589.593 4577.569 1139.655 900.382 1233.770 344.179 5220.769 3479.088 1005.848 533.680 1500.292 1571.830 1109.066 1535.352 1009.654 863.766 1040.153 4302.420 4828.145 1065.809 1378.713 4648.846 1029.989 1604.602 3590.034 7115.502 3402.679 3570.201 1231.345 7352.397 1512.155 1436.623 1396.285 1800.998 6443.579 1503.735 397.187 1178.774 407.846 345.343 3005.073 541.808 4568.825 3756.608 4935.374 6041.771 7452.512 1481.934
5094.573 5075.540 3380.381 768.622 997.459 935.201 601.892 1259.771 5029.947 1402.407 12005.730 4057.406 111.154 3191.504 4248.696 6234.828 1016.327 899.291 2319.680 1862.703 867.454 559.048 1610.459 4306.490 2158.765 7516.489 800.448 1135.290 5038.309 977.012 2823.264 2733.337 3173.752 5285.391 1769.139 4423.400 1820.088 2439.502 2524.701 956.864 935.476 4947.115 5010.728 1388.436 4167.947 2516.759 4473.837 5774.362 5067.689 6605.305 765.450 437.947 1083.683 250.331 1196.129 3305.348 3183.599 3848.550 2590.804 1075.676 830.349 338.412 866.863 3620.120 2348.977 4148.816 935.677 2549.029 3275.086 1540.105 827.522 631.024 7124.244 1079.370 419.994 4127.061 3049.569 444.140 2378.770 292.967 976.822 618.590 204.114 0.000 4141.164 2837.209 2130.207 3986.325 3490.093 4388.095 966.187 752.207 1053.768 505.671 5339.640 3376.161 825.265 414.354 1308.507 1370.096 1244.518 1396.575 1057.511 681.251 839.605 4307.781 4624.444 917.577 1178.676 4454.668 901.050 1760.758 3586.721 6988.653 3473.246 3699.249 1067.262 7379.768 1310.170 1241.223 1224.461 1811.718 6474.801 1309.231 205.490 1376.322 577.244 452.232 3062.179 718.179 4369.152 3660.288 4735.222 6052.164 7514.719 1287.978
1578.661 1370.410 4616.914 3477.188 5114.699 3286.043 3553.329 2882.151 1574.802 2745.307 10657.972 7728.531 4168.152 1173.838 5853.422 8842.019 5132.378 5009.728 3012.707 2416.882 3303.480 3682.376 5539.153 2313.755 5822.580 8449.120 3347.142 3007.238 1554.027 3560.598 1330.712 4714.198 1114.980 2254.620 3598.223 308.795 2373.933 5973.916 6394.591 4544.776 3471.570 7451.663 6215.925 2792.422 5557.203 2803.457 456.517 8620.171 1530.097 7825.953 3375.789 4479.411 3201.073 3902.834 2946.453 7430.395 6101.816 6155.529 3723.419 3147.498 3363.442 4278.202 3332.880 6745.927 6432.736 6662.650 3305.051 5448.726 5869.411 2683.434 3315.908 4111.392 10426.983 3098.808 4228.311 6680.559 2528.171 3821.067 3892.815 4136.386 3167.034 3960.578 4334.865 4141.164 0.000 4152.733 4340.764 5482.102 4985.698 358.955 3223.679 3507.972 3117.246 4638.389 9057.300 4868.566 3338.733 3865.892 2834.738 2798.637 5288.058 3036.557 4861.994 3475.945 3309.103 6992.021 1246.933 3366.516 2972.744 315.475 3462.812 5315.223 4557.919 6869.768 5542.104 6490.561 3166.410 9982.784 2859.482 2900.075 2986.116 5175.658 9201.681 2831.939 3938.618 5512.969 4712.256 4348.964 5118.830 4679.377 538.330 5134.265 817.614 8551.338 8559.053 2853.324
5654.033 5494.166 600.864 2332.066 3100.871 2334.549 2814.011 2722.641 5626.133 2814.208 9212.929 6648.379 2947.680 3928.812 1790.492 9062.636 3508.424 3447.088 4376.394 3308.915 2471.349 2418.750 2874.061 2733.382 4899.454 4890.372 2584.027 2628.104 5615.301 1968.719 3129.539 672.690 3831.660 3904.544 4202.141 4451.438 2483.567 5206.633 5094.998 3794.018 2087.588 3301.579 2380.159 2967.385 1564.309 4433.523 4214.380 8582.151 5609.845 9330.356 2667.149 2707.258 2197.142 2837.296 2728.973 4789.285 6019.514 2011.399 4968.286 2311.805 2413.929 3175.441 2393.073 2837.390 4619.250 6983.992 2297.431 1705.041 1826.131 2331.225 2618.436 3412.082 6387.560 2429.231 3250.911 6963.260 4753.378 2456.061 4861.808 3109.456 2606.405 3329.499 2847.964 2837.209 4152.733 0.000 838.131 1431.892 6132.218 4178.698 2402.946 2317.003 2454.833 3127.068 7823.910 6006.582 2501.402 2464.539 2631.653 2920.689 3828.669 1957.162 3856.654 2551.977 2773.015 7144.051 5223.913 2232.770 2809.098 4419.629 2142.513 2268.473 755.214 9371.522 1393.390 2447.859 2290.675 10199.295 2914.140 2699.666 2335.093 4644.239 9289.135 2689.314 2742.661 3448.127 3155.458 2533.892 1001.250 2617.604 4633.888 6311.377 4965.030 8886.864 4930.780 2674.220
5739.053 5615.520 1278.835 1780.492 2276.657 1843.024 2235.726 2326.584 5699.635 2451.028 10021.241 5822.477 2241.100 3886.622 2157.172 8302.278 2701.504 2648.804 3970.599 3005.178 1965.928 1805.866 2040.685 3323.871 4109.365 5409.666 2061.456 2201.852 5694.094 1412.323 3151.609 618.015 3806.609 4486.459 3674.225 4648.793 2288.640 4422.281 4273.688 3077.425 1553.045 3255.498 2890.818 2582.004 2044.644 4071.963 4485.802 7804.571 5698.644 8716.570 2134.718 1933.819 1747.832 2179.178 2313.876 3984.782 5281.570 1985.343 4478.801 1868.302 1893.269 2461.704 1882.888 2409.066 3782.717 6266.350 1802.537 1125.568 1565.006 2051.959 2103.586 2741.460 6086.620 1990.414 2550.201 6241.747 4468.451 1806.839 4333.342 2417.312 2134.449 2682.102 2106.014 2130.207 4340.764 838.131 0.000 1867.728 5553.871 4433.653 1926.333 1756.639 2007.919 2354.545 6988.334 5432.803 1984.168 1804.215 2257.311 2535.937 3024.531 1616.917 3100.610 1994.304 2256.576 6404.630 5283.864 1722.533 2382.226 4634.147 1606.617 1453.436 1517.569 8922.577 1463.524 2167.974 1842.943 9428.416 2513.250 2300.018 1944.549 3904.845 8515.071 2310.677 2073.316 2613.983 2374.803 1772.820 1006.715 1811.719 4769.518 5729.845 5123.879 8139.199 5420.547 2290.442
7020.375 6843.839 873.858 3629.912 3958.301 3669.012 4096.179 4105.973 6997.916 4210.031 8498.911 7409.353 4096.396 5348.252 371.503 10070.163 4429.251 4399.534 5766.162 4724.537 3799.694 3670.663 3481.497 3717.441 5850.587 3542.644 3903.268 3998.158 6984.784 3258.497 4541.052 1254.031 5248.170 4826.657 5526.671 5770.313 3911.657 6171.672 5911.114 4920.584 3393.286 2150.882 1024.506 4356.946 191.658 5838.856 5487.229 9542.926 6974.746 10583.261 3980.891 3744.835 3550.923 4046.149 4104.822 5070.819 7092.395 1092.972 6319.350 3670.082 3732.552 4311.758 3717.715 2361.771 5304.633 8092.214 3629.530 1876.628 1400.279 3744.670 3942.745 4604.894 5417.767 3791.296 4405.414 8064.343 6177.395 3674.564 6187.629 4276.535 3954.590 4549.123 3943.217 3986.325 5482.102 1431.892 1867.728 0.000 7420.210 5464.344 3746.282 3608.660 3813.508 4156.645 8466.700 7298.532 3823.077 3671.716 4021.907 4310.077 4751.405 3348.605 4910.101 3847.686 4097.748 8208.476 6604.338 3555.261 4180.766 5728.193 3448.192 2828.461 940.643 10750.701 738.388 1804.167 3646.675 11173.916 4297.443 4081.382 3715.791 5723.402 10257.543 4078.680 3939.346 4213.395 4164.986 3600.910 963.289 3573.167 5985.037 7596.586 6299.654 9926.448 3558.736 4061.596
4827.615 4998.329 6721.231 3805.043 3985.568 3799.471 3328.654 3486.598 4742.260 3446.361 14924.674 3800.451 3387.445 3850.102 7707.069 3886.812 3543.225 3486.158 2094.603 3167.670 3661.819 3749.674 4749.231 6510.137 2729.934 10962.854 3548.240 3545.613 4772.323 4174.468 4260.892 6171.127 3940.656 7050.172 1947.171 5106.737 3978.453 2571.733 3335.170 2682.881 4048.013 8399.967 8440.328 3282.254 7593.456 2233.500 5442.055 3754.610 4834.789 3212.835 3465.118 3836.919 3944.779 3387.118 3461.495 5445.644 1811.398 7337.720 1334.350 3836.031 3718.305 3203.657 3739.340 6983.414 3963.364 1826.551 3835.825 6025.727 6758.420 3961.936 3514.454 2859.459 10185.094 3725.612 3093.502 1864.754 2466.492 3749.393 1313.529 3198.842 3538.240 2888.472 3589.593 3490.093 4985.698 6132.218 5553.871 7420.210 0.000 5343.595 3735.322 3822.927 3696.795 3507.238 4948.850 130.902 3630.927 3755.609 3591.943 3324.011 3343.295 4225.212 2870.406 3584.918 3360.526 2202.685 4521.023 3899.452 3376.179 5192.473 3992.810 5145.451 6881.001 3603.917 6954.086 7145.072 3854.674 5008.109 3308.687 3503.635 3845.376 2230.309 4266.931 3535.888 3498.165 4054.811 3537.173 3927.346 6529.233 4090.112 4809.733 180.511 5039.399 3581.940 10973.874 3543.526
1731.533 1486.639 4610.120 3698.830 5347.809 3508.143 3809.837 3135.477 1744.190 3005.728 10358.632 8044.299 4421.519 1520.159 5834.179 9196.960 5389.971 5268.063 3360.764 2717.045 3536.720 3908.930 5738.033 2120.546 6128.474 8326.854 3589.011 3253.092 1717.962 3752.680 1565.038 4768.070 1452.951 1931.946 3930.884 399.701 2590.489 6288.282 6689.691 4836.865 3673.438 7479.315 6152.979 3065.688 5527.824 3155.622 99.791 8970.563 1681.930 8180.441 3623.731 4708.851 3410.864 4154.993 3200.534 7658.151 6441.460 6189.612 4077.085 3366.960 3591.965 4542.858 3559.791 6842.668 6701.452 7014.456 3524.099 5552.806 5935.628 2895.312 3560.586 4394.120 10508.243 3328.162 4498.770 7031.714 2887.062 4048.450 4241.937 4400.620 3411.282 4242.085 4577.569 4388.095 358.955 4178.698 4433.653 5464.344 5343.595 0.000 3451.339 3728.283 3348.900 4889.778 9373.687 5226.127 3574.244 4093.164 3079.783 3068.159 5558.432 3219.915 5148.067 3714.473 3565.403 7341.694 1474.680 3580.299 3233.346 313.575 3669.221 5479.954 4529.968 7194.433 5572.086 6560.566 3384.169 10338.967 3128.500 3151.533 3205.822 5489.976 9555.262 3082.078 4183.772 5751.898 4963.046 4570.461 5162.204 4896.535 769.158 5492.632 923.737 8907.306 8444.758 3102.301
4303.507 4252.431 2998.188 261.498 1896.579 89.602 514.122 448.811 4246.048 602.273 11346.857 4961.436 1025.256 2370.851 4062.826 6912.494 1982.267 1865.460 2045.005 1172.740 107.333 458.713 2342.639 3386.299 3025.635 7274.154 220.794 300.922 4250.002 533.261 1894.097 2532.947 2332.267 4330.477 1799.256 3515.374 863.784 3275.076 3457.273 1706.693 388.852 5102.950 4750.145 690.290 3908.469 2157.297 3533.947 6503.136 4271.895 6942.281 304.661 1257.661 210.862 769.388 413.502 4208.375 3856.655 3880.108 2574.530 125.337 140.712 1203.704 109.301 3974.242 3315.161 4744.893 129.006 2735.240 3381.882 574.337 235.846 1233.587 7621.916 125.741 1206.372 4733.633 2593.396 597.700 2458.941 1071.202 208.805 1100.211 1139.655 966.187 3223.679 2402.946 1926.333 3746.282 3735.322 3451.339 0.000 295.222 114.825 1470.626 6262.837 3608.502 153.704 642.507 430.933 648.558 2202.520 529.984 1924.142 292.436 379.459 4958.216 3830.162 215.262 466.560 3538.996 343.574 2245.442 3147.390 7006.409 3388.449 3913.309 131.858 8073.699 611.353 421.171 258.337 2552.918 7185.729 463.167 762.411 2303.034 1540.652 1126.146 2933.047 1458.972 3497.046 3915.157 3866.893 6699.395 7301.390 438.507
4598.640 4547.434 2900.170 34.575 1626.303 222.323 497.013 731.584 4541.047 888.070 11371.834 4801.357 832.061 2666.065 3911.421 6865.637 1752.718 1640.660 2249.659 1450.589 256.856 195.795 2048.631 3554.822 2884.456 7148.465 315.989 581.117 4545.087 351.632 2177.327 2372.822 2627.278 4537.638 1919.020 3801.784 1137.888 3150.623 3275.426 1601.521 232.862 4874.338 4623.499 957.339 3777.588 2383.135 3809.245 6434.477 4567.079 7014.227 380.422 985.592 337.083 609.702 687.119 3930.008 3804.021 3672.870 2722.573 361.353 174.792 1038.664 190.895 3708.148 3084.522 4724.614 204.317 2488.616 3155.512 834.842 362.203 1153.198 7342.898 419.695 1067.200 4709.478 2843.558 330.803 2579.406 922.090 446.607 1043.117 900.382 752.207 3507.972 2317.003 1756.639 3608.660 3822.927 3728.283 295.222 0.000 409.690 1241.916 6089.415 3698.925 252.428 373.686 724.667 919.367 1995.715 645.001 1776.156 239.069 506.800 4918.285 4125.290 165.902 723.325 3823.434 180.635 1956.884 3070.659 7167.722 3205.822 3669.429 344.517 8021.470 874.637 704.766 522.677 2464.847 7125.490 753.283 563.965 2038.144 1307.971 842.276 2757.950 1171.420 3789.339 4001.145 4159.356 6664.309 7167.338 728.550
4188.951 4138.645 3052.733 375.746 1999.409 199.730 554.681 340.008 4131.387 490.732 11349.869 5018.032 1105.564 2256.462 4134.483 6923.482 2069.637 1951.405 1963.594 1063.294 188.176 566.715 2455.738 3334.910 3077.222 7334.938 267.164 197.463 4135.399 632.894 1788.902 2609.753 2218.510 4260.962 1753.768 3407.651 767.082 3319.748 3523.826 1749.764 490.562 5199.770 4812.560 587.944 3973.160 2067.044 3432.356 6522.858 4157.414 6907.181 336.584 1362.280 262.798 843.864 311.535 4313.447 3872.546 3970.595 2514.496 143.664 247.781 1272.604 221.000 4082.724 3400.929 4747.072 235.484 2838.653 3478.770 491.471 261.318 1272.280 7733.670 33.301 1266.343 4737.333 2493.029 704.375 2410.259 1136.392 162.737 1132.519 1233.770 1053.768 3117.246 2454.833 2007.919 3813.508 3696.795 3348.900 114.825 409.690 0.000 1559.412 6324.014 3569.071 228.548 749.173 316.218 544.604 2280.881 535.392 1981.745 372.571 373.078 4967.831 3715.600 321.083 374.481 3432.409 449.341 2359.659 3194.007 6937.202 3471.319 4015.294 166.899 8086.305 512.012 312.164 192.754 2585.445 7201.823 349.945 848.493 2403.302 1630.537 1235.250 3014.028 1569.123 3385.614 3877.001 3755.316 6705.896 7365.168 325.412
5550.429 5542.426 3631.609 1261.904 580.631 1435.871 1086.287 1756.504 5483.526 1894.315 12335.323 3618.199 470.741 3665.265 4387.125 5947.825 512.153 398.811 2631.747 2322.032 1372.867 1046.135 1310.722 4783.111 1776.857 7647.695 1305.130 1636.919 5493.393 1414.778 3324.740 2922.921 3653.351 5779.472 1991.406 4917.812 2325.730 2080.125 2067.588 827.511 1400.908 4895.931 5173.884 1866.095 4344.059 2852.603 4976.176 5456.186 5525.272 6522.517 1266.130 421.218 1577.946 735.602 1692.011 2830.997 2936.790 3884.985 2778.372 1577.683 1333.480 429.508 1369.581 3484.315 1845.534 3936.203 1433.551 2550.507 3288.324 2044.891 1330.639 780.423 6864.534 1584.859 533.916 3907.809 3405.563 916.274 2530.683 547.323 1479.726 864.352 344.179 505.671 4638.389 3127.068 2354.545 4156.645 3507.238 4889.778 1470.626 1241.916 1559.412 0.000 4880.313 3403.961 1330.889 877.674 1810.231 1852.133 766.877 1879.188 753.461 1186.919 1329.789 4056.279 5083.071 1407.688 1667.875 4951.095 1374.139 1638.258 3858.933 7075.426 3579.776 3640.985 1568.004 7076.644 1791.394 1739.271 1728.638 1567.404 6164.671 1808.227 711.102 902.833 74.441 594.491 3204.356 602.306 4853.374 3667.265 5217.537 5786.065 7631.120 1787.663
9441.288 9543.937 8213.989 6102.940 4740.376 6252.635 5772.990 6398.273 9358.723 6487.594 16947.572 1329.507 5257.597 7909.636 8564.873 3110.723 4401.586 4493.602 6172.632 6663.599 6156.104 5898.350 5010.105 9642.967 3269.336 11534.001 6057.252 6328.635 9382.059 6294.711 7884.681 7418.532 7949.580 10578.742 5487.512 9280.507 7038.876 3085.867 2815.433 4602.968 6272.203 8155.236 9368.998 6384.286 8655.569 6426.141 9470.563 2486.275 9435.187 5614.773 5989.949 5250.826 6412.690 5497.493 6335.725 3648.355 3191.895 7746.211 5648.149 6383.938 6141.123 5061.129 6178.376 6661.305 3206.471 3314.277 6260.498 6590.757 7180.983 6809.743 6064.799 5078.278 8199.337 6355.075 5057.959 3254.952 6915.511 5780.682 5382.614 5191.659 6197.797 5229.392 5220.769 5339.640 9057.300 7823.910 6988.334 8466.700 4948.850 9373.687 6262.837 6089.415 6324.014 4880.313 0.000 4984.996 6109.951 5746.240 6486.553 6394.979 4113.672 6734.351 4342.780 5971.530 5994.056 2961.999 9044.334 6253.156 6276.225 9341.309 6240.119 5662.797 8478.271 7558.846 7749.263 7148.951 6381.007 3660.635 6339.847 6392.256 6513.398 3883.889 2954.183 6461.000 5526.268 4376.164 4826.148 5436.881 7538.658 5254.128 9093.267 4932.347 9410.067 3272.317 11446.136 6448.084
4735.306 4901.766 6596.293 3680.716 3889.739 3673.214 3205.328 3357.073 4649.949 3316.119 14793.775 3817.357 3274.354 3729.314 7586.963 3993.774 3452.839 3392.854 1966.317 3036.963 3535.729 3627.870 4654.562 6380.739 2681.871 10841.134 3422.560 3416.950 4679.589 4050.532 4133.075 6050.301 3818.867 6925.380 1818.338 4993.113 3847.614 2537.184 3297.756 2581.868 3923.367 8293.586 8318.058 3151.994 7471.251 2108.670 5324.757 3847.662 4741.531 3342.059 3339.703 3728.014 3817.745 3269.113 3332.326 5390.704 1825.321 7224.560 1205.620 3708.582 3592.814 3093.492 3613.539 6883.660 3909.847 1907.510 3709.735 5915.404 6647.096 3831.833 3388.432 2746.131 10106.008 3597.757 2982.522 1942.849 2353.627 3629.492 1182.835 3085.594 3410.824 2771.800 3479.088 3376.161 4868.566 6006.582 5432.803 7298.532 130.902 5226.127 3608.502 3698.925 3569.071 3403.961 4984.996 0.000 3505.184 3636.347 3462.277 3193.840 3260.354 4096.871 2778.599 3460.675 3234.295 2279.667 4421.815 3773.915 3247.062 5078.225 3868.145 5041.644 6754.807 3691.551 6836.692 7038.935 3727.376 5120.106 3178.787 3374.234 3716.769 2159.747 4370.487 3406.149 3380.585 3968.712 3435.488 3815.438 6410.313 3983.529 4699.401 310.474 4933.436 3691.992 10853.191 3413.908
4381.880 4339.206 3092.479 220.114 1776.071 176.414 364.503 498.482 4322.505 655.514 11483.869 4807.957 878.717 2453.087 4132.766 6769.118 1841.277 1723.257 2003.398 1206.821 46.372 359.354 2255.507 3539.949 2871.933 7357.903 82.880 350.665 4327.593 572.275 2012.358 2597.019 2420.577 4480.961 1706.576 3627.225 995.482 3121.753 3305.436 1553.812 431.472 5123.835 4832.775 710.327 3988.659 2132.453 3658.264 6355.927 4351.448 6832.858 168.520 1141.743 343.616 619.426 447.277 4091.807 3711.482 3916.524 2497.729 278.142 90.930 1052.075 108.537 3959.768 3172.921 4606.657 207.796 2740.542 3404.208 717.125 119.764 1081.907 7590.052 254.504 1052.956 4594.509 2591.166 490.902 2367.882 918.544 200.500 950.679 1005.848 825.265 3338.733 2501.402 1984.168 3823.077 3630.927 3574.244 153.704 252.428 228.548 1330.889 6109.951 3505.184 0.000 535.102 512.555 674.371 2055.240 674.626 1770.628 144.314 274.721 4815.811 3908.665 269.430 474.864 3653.615 377.558 2197.979 3250.472 6938.831 3440.462 3921.221 280.914 7929.451 626.805 473.294 406.060 2402.050 7039.971 530.262 620.064 2177.680 1401.989 1023.326 2989.180 1358.930 3597.064 3810.215 3966.169 6558.351 7381.097 506.062
4913.244 4873.425 3023.804 399.078 1256.023 586.800 516.904 1028.626 4852.989 1184.174 11606.279 4468.798 513.234 2986.631 3951.993 6629.289 1385.358 1276.009 2368.752 1713.956 565.493 184.267 1723.948 3906.659 2573.036 7212.544 549.316 884.010 4858.617 562.976 2536.575 2418.970 2955.376 4904.318 1926.051 4156.796 1503.570 2852.355 2930.813 1344.428 526.057 4777.641 4695.033 1216.476 3848.744 2533.733 4175.264 6177.309 4883.330 6912.594 559.179 615.835 709.889 376.397 972.697 3565.903 3572.003 3623.876 2749.969 729.738 502.454 739.019 533.591 3531.246 2714.741 4522.398 575.547 2372.161 3074.596 1204.843 591.624 948.560 7118.807 767.090 796.466 4503.106 3031.597 44.825 2571.163 650.999 727.148 878.397 533.680 414.354 3865.892 2464.539 1804.215 3671.716 3755.609 4093.164 642.507 373.686 749.173 877.674 5746.240 3636.347 535.102 0.000 1047.618 1186.503 1639.634 1001.695 1470.241 414.941 677.069 4694.210 4440.241 536.532 983.648 4181.150 496.712 1716.384 3218.345 7187.749 3203.899 3547.112 715.238 7777.953 1132.582 1004.700 889.304 2208.101 6875.340 1064.321 278.238 1665.903 941.097 488.228 2774.009 823.863 4131.599 3930.313 4500.864 6440.447 7219.676 1040.361
3875.210 3828.427 3232.503 690.406 2282.053 514.778 739.668 108.581 3817.065 193.918 11380.246 5170.122 1343.365 1943.868 4353.055 6947.428 2313.201 2192.173 1746.084 763.464 483.994 869.730 2765.162 3225.667 3222.338 7521.957 512.700 173.320 3821.409 930.416 1514.821 2845.186 1908.988 4093.875 1647.676 3120.243 552.342 3445.175 3706.704 1885.656 793.372 5477.836 5006.800 335.881 4174.880 1821.595 3165.955 6571.408 3844.067 6804.090 544.119 1651.818 528.763 1076.589 157.059 4598.835 3917.545 4234.814 2355.567 417.529 556.676 1480.911 534.238 4387.638 3635.213 4751.284 548.214 3133.465 3758.414 383.054 481.416 1408.400 8045.030 313.024 1453.870 4745.755 2215.293 1003.330 2285.282 1339.463 332.327 1258.061 1500.292 1308.507 2834.738 2631.653 2257.311 4021.907 3591.943 3079.783 430.933 724.667 316.218 1810.231 6486.553 3462.277 512.555 1047.618 0.000 289.101 2500.411 675.145 2151.248 643.475 500.254 4991.842 3401.857 631.451 235.517 3148.947 757.460 2675.537 3353.280 6739.986 3718.387 4305.989 444.006 8113.302 287.129 100.866 312.766 2683.459 7239.438 57.918 1104.728 2678.240 1883.360 1535.845 3257.790 1871.356 3084.817 3772.411 3453.788 6717.815 7559.855 49.271
3735.809 3708.221 3521.546 885.099 2365.726 738.116 768.885 209.608 3673.622 123.506 11626.751 5071.197 1382.056 1822.181 4640.095 6741.829 2336.820 2213.788 1457.122 532.460 662.633 1025.405 2907.749 3396.683 3125.676 7811.020 639.595 348.138 3680.408 1177.489 1515.180 3128.442 1803.820 4209.723 1387.790 3071.424 706.210 3328.536 3645.247 1797.730 1034.756 5742.791 5295.845 46.872 4463.573 1537.395 3158.620 6383.043 3707.322 6533.912 631.280 1757.252 792.374 1122.623 235.112 4674.940 3732.896 4508.067 2072.825 673.757 744.612 1479.754 733.381 4621.771 3635.059 4536.550 776.706 3382.878 4022.012 638.197 595.465 1335.618 8262.265 554.789 1430.995 4533.690 1948.897 1144.987 2013.206 1338.145 474.256 1182.448 1571.830 1370.096 2798.637 2920.689 2535.937 4310.077 3324.011 3068.159 648.558 919.367 544.604 1852.133 6394.979 3193.840 674.371 1186.503 289.101 0.000 2490.986 964.221 2091.244 772.347 532.667 4789.368 3263.817 863.127 202.904 3108.659 991.711 2872.349 3641.122 6450.904 3998.642 4559.871 700.088 7908.583 60.968 236.684 595.921 2548.834 7042.643 231.681 1177.573 2744.679 1926.529 1665.966 3538.930 2000.188 3001.548 3504.275 3366.500 6504.769 7848.931 248.577
6080.039 6098.481 4300.867 2012.985 800.865 2177.788 1760.746 2431.779 6008.341 2554.102 13040.668 2858.581 1177.274 4253.125 4948.272 5319.240 324.184 386.550 2959.436 2902.955 2099.669 1801.016 1480.558 5546.182 1099.183 8176.086 2016.952 2329.656 6021.598 2181.652 3999.138 3554.078 4255.799 6529.283 2233.589 5555.793 3037.346 1420.774 1303.026 882.330 2165.004 5228.918 5751.298 2495.755 4942.017 3207.301 5648.150 4795.596 6059.067 6152.221 1964.137 1148.947 2328.199 1437.096 2366.425 2370.552 2404.487 4345.338 2908.937 2316.466 2070.494 1019.732 2107.474 3732.621 1144.835 3424.147 2179.732 3012.934 3736.852 2772.009 2034.894 1199.183 6847.436 2308.988 1060.019 3387.282 3774.368 1676.357 2623.851 1161.661 2180.153 1341.932 1109.066 1244.518 5288.058 3828.669 3024.531 4751.405 3343.295 5558.432 2202.520 1995.715 2280.881 766.877 4113.672 3260.354 2055.240 1639.634 2500.411 2490.986 0.000 2638.216 552.425 1911.517 2002.341 3489.890 5622.363 2161.444 2327.127 5596.398 2136.140 2023.033 4541.670 6946.911 4121.770 3991.548 2309.447 6425.164 2430.415 2418.617 2460.243 1150.823 5509.260 2489.102 1442.712 719.253 713.024 1334.305 3788.454 1213.222 5459.331 3481.949 5816.078 5182.880 8143.268 2471.095
4268.044 4182.794 2557.927 631.880 2214.424 504.378 1039.029 765.763 4218.854 861.464 10818.750 5444.724 1476.809 2352.817 3682.535 7442.304 2386.727 2277.679 2421.191 1393.171 630.640 837.742 2521.143 2909.959 3521.931 6847.196 749.535 681.543 4218.213 537.659 1724.833 2186.867 2289.862 3904.493 2279.005 3340.247 717.535 3781.472 3920.419 2219.436 489.385 4864.995 4331.663 1011.022 3500.356 2490.940 3293.845 7030.528 4231.950 7437.137 834.463 1583.260 334.298 1245.333 775.548 4478.571 4385.712 3602.217 3018.878 408.941 616.128 1679.553 580.923 3862.761 3713.687 5274.178 486.050 2576.762 3154.982 440.631 765.423 1752.986 7549.019 504.292 1699.566 5263.218 2857.605 963.015 2930.704 1557.309 697.977 1624.757 1535.352 1396.575 3036.557 1957.162 1616.917 3348.605 4225.212 3219.915 529.984 645.001 535.392 1879.188 6734.351 4096.871 674.626 1001.695 675.145 964.221 2638.216 0.000 2414.426 791.113 901.460 5488.170 3799.223 481.563 858.121 3349.781 507.205 2284.056 2683.518 7414.911 3067.130 3727.163 398.198 8603.246 957.067 743.288 382.309 3073.728 7714.445 732.591 1208.307 2631.895 1942.736 1416.627 2604.909 1718.056 3378.181 4405.599 3746.800 7229.337 6884.711 717.109
5578.856 5609.142 4374.517 1784.872 1122.910 1920.229 1430.243 2068.286 5505.371 2171.257 13050.831 3037.342 957.492 3789.695 5139.261 5207.012 675.278 617.132 2416.554 2451.239 1816.954 1595.228 1880.969 5310.178 1108.300 8397.530 1715.392 1989.391 5519.988 2033.105 3605.531 3674.976 3801.468 6237.374 1684.490 5118.940 2702.302 1382.134 1556.791 342.825 1980.987 5584.714 5927.183 2088.270 5097.462 2667.593 5240.578 4729.313 5559.713 5800.081 1647.197 1169.017 2084.991 1169.125 2004.288 2919.439 2184.091 4617.156 2359.366 2046.915 1807.618 738.271 1844.620 4128.143 1622.369 3182.947 1931.783 3278.716 4015.358 2467.010 1722.099 755.778 7353.590 2013.048 717.916 3154.367 3234.663 1496.444 2076.940 857.331 1855.460 908.850 1009.654 1057.511 4861.994 3856.654 3100.610 4910.101 2870.406 5148.067 1924.142 1776.156 1981.745 753.461 4342.780 2778.599 1770.628 1470.241 2151.248 2091.244 552.425 2414.426 0.000 1635.081 1654.328 3305.074 5126.741 1934.454 1951.244 5165.198 1941.237 2329.063 4596.153 6469.997 4329.086 4333.459 2045.743 6342.946 2032.721 2059.921 2171.928 814.582 5433.927 2129.754 1216.525 1204.133 749.745 1328.704 3957.427 1347.076 5000.226 3019.164 5350.857 5038.829 8378.545 2115.149
4499.069 4461.509 3137.115 220.213 1639.143 287.705 266.041 615.650 4438.523 770.183 11579.062 4671.811 734.674 2574.127 4149.825 6665.320 1697.077 1578.969 2030.057 1301.787 188.152 257.656 2138.647 3675.262 2739.075 7387.526 134.683 474.551 4444.319 590.378 2151.412 2610.967 2545.109 4622.853 1680.437 3762.956 1138.997 2993.125 3165.035 1428.567 464.389 5091.928 4862.543 803.528 4016.654 2174.168 3798.973 6244.655 4469.383 6778.436 158.455 1008.646 456.896 476.977 558.376 3955.763 3605.163 3900.504 2486.188 412.446 175.089 911.492 211.116 3897.468 3028.615 4512.449 305.874 2697.884 3375.691 861.285 176.910 962.816 7511.107 398.816 917.216 4498.814 2651.090 372.816 2340.588 780.042 315.090 839.304 863.766 681.251 3475.945 2551.977 1994.304 3847.686 3584.918 3714.473 292.436 239.069 372.571 1186.919 5971.530 3460.675 144.314 414.941 643.475 772.347 1911.517 791.113 1635.081 0.000 287.544 4714.272 4026.182 336.589 569.448 3790.556 409.519 2111.545 3304.720 6932.045 3440.378 3878.690 410.665 7823.861 719.439 592.568 548.904 2283.232 6931.575 654.728 475.927 2038.141 1258.207 899.711 2994.106 1235.488 3727.048 3763.309 4095.618 6458.765 7406.343 631.359
4266.997 4240.884 3365.393 479.287 1833.535 438.945 244.500 430.434 4204.170 564.572 11719.932 4681.067 859.203 2354.705 4406.831 6550.411 1824.847 1702.741 1745.072 1045.272 301.690 540.812 2384.431 3687.512 2734.995 7632.545 195.168 335.064 4211.370 844.277 2001.564 2870.413 2334.777 4584.686 1432.286 3588.039 1048.449 2967.615 3208.226 1400.129 705.303 5376.978 5107.441 554.949 4263.377 1886.687 3653.270 6151.151 4238.887 6565.276 129.510 1226.020 590.260 595.115 365.152 4144.900 3500.104 4179.599 2223.634 493.184 365.215 982.629 381.391 4184.042 3140.138 4374.900 475.589 2984.792 3659.564 822.773 155.343 920.764 7791.591 406.222 953.625 4364.837 2365.443 639.367 2093.515 840.711 216.209 774.738 1040.153 839.605 3309.103 2773.015 2256.576 4097.748 3360.526 3565.403 379.459 506.800 373.078 1329.789 5994.056 3234.295 274.721 677.069 500.254 532.667 2002.341 901.460 1654.328 287.544 0.000 4594.754 3795.381 543.651 339.166 3621.498 650.877 2389.869 3520.521 6666.004 3710.401 4165.699 506.994 7713.298 473.865 416.334 560.807 2221.976 6829.247 486.780 645.004 2215.747 1403.864 1142.784 3260.582 1474.389 3529.560 3540.087 3895.643 6333.031 7655.813 468.883
7003.748 7159.353 7675.396 4914.847 4289.820 4990.538 4453.982 4884.737 6918.488 4908.327 16290.000 2131.182 4197.844 5821.646 8424.469 1956.323 3801.772 3817.086 3981.328 4839.765 4858.579 4772.714 4931.841 8178.560 2416.458 11664.469 4738.949 4882.217 6947.224 5234.483 6059.627 6979.199 5894.099 8891.248 3498.827 7152.721 5495.557 2095.943 2645.621 3352.190 5147.653 8656.979 9220.523 4759.765 8397.003 4190.242 7441.471 1630.108 7007.956 3021.264 4653.722 4474.024 5159.411 4334.211 4837.231 4748.421 1124.612 7833.430 3280.055 5080.644 4883.849 3969.369 4915.990 7124.036 3426.217 382.294 5016.067 6502.791 7224.588 5371.938 4723.201 3766.853 9737.105 5000.953 3898.865 338.186 4552.724 4709.101 3099.783 4043.346 4808.472 3876.743 4302.420 4307.781 6992.021 7144.051 6404.630 8208.476 2202.685 7341.694 4958.216 4918.285 4967.831 4056.279 2961.999 2279.667 4815.811 4694.210 4991.842 4789.368 3489.890 5488.170 3305.074 4714.272 4594.754 0.000 6671.928 5049.758 4756.328 7231.068 5098.221 5510.584 7890.719 4658.770 7603.402 7445.224 5090.055 3121.508 4751.359 4891.422 5153.138 2501.489 2256.503 4946.093 4417.582 4137.436 4044.408 4631.816 7250.655 4635.433 6889.067 2130.795 7150.633 1746.756 11633.092 4943.762
473.359 499.603 5731.244 4091.308 5621.752 3909.049 4023.928 3411.731 419.633 3256.113 11809.771 7736.911 4622.314 1460.378 6975.252 8401.611 5532.957 5410.601 2876.229 2762.952 3884.234 4268.017 6163.830 3559.477 5937.557 9671.484 3891.505 3558.008 420.376 4270.308 2132.563 5728.730 1510.998 3370.876 3594.625 1075.574 3082.984 6025.962 6564.947 4787.048 4154.065 8488.693 7390.036 3240.518 6694.492 2619.523 1528.902 8267.136 443.510 7043.506 3893.588 5021.032 3871.690 4374.304 3467.810 7913.263 5928.361 7190.076 3434.760 3788.121 3958.500 4675.852 3935.671 7644.753 6747.742 6313.040 3937.847 6346.604 6844.893 3381.508 3850.811 4425.077 11337.512 3706.909 4599.941 6341.864 2143.868 4397.030 3675.999 4542.192 3713.195 4288.168 4828.145 4624.444 1246.933 5223.913 5283.864 6604.338 4521.023 1474.680 3830.162 4125.290 3715.600 5083.071 9044.334 4421.815 3908.665 4440.241 3401.857 3263.817 5622.363 3799.223 5126.741 4026.182 3795.381 6671.928 0.000 4014.321 3463.886 1167.706 4130.698 6054.628 5700.720 5834.516 6589.533 7451.728 3811.840 9502.276 3321.723 3436.021 3636.219 5250.533 8786.707 3378.756 4438.369 5985.476 5157.025 4925.634 6147.156 5261.101 715.001 4640.999 647.719 8088.757 9775.631 3403.161
4487.397 4428.815 2823.219 150.318 1783.082 125.927 601.585 660.856 4431.555 811.509 11242.739 4963.227 995.569 2553.947 3866.890 6999.993 1918.278 1806.459 2253.162 1384.376 244.607 361.571 2177.982 3390.391 3042.484 7088.998 351.574 515.043 4434.580 319.138 2036.132 2332.950 2509.988 4371.809 1975.868 3662.585 992.791 3305.317 3439.702 1749.447 174.324 4888.437 4563.952 905.250 3720.173 2370.124 3660.080 6575.655 4454.812 7099.822 434.442 1143.080 173.966 765.570 628.281 4080.254 3939.196 3668.536 2764.444 226.423 181.186 1198.468 162.501 3761.650 3249.712 4849.010 86.439 2520.108 3167.422 685.080 388.309 1292.016 7414.008 318.730 1221.728 4835.287 2808.656 494.634 2637.137 1078.123 415.833 1173.446 1065.809 917.577 3366.516 2232.770 1722.533 3555.261 3899.452 3580.299 215.262 165.902 321.083 1407.688 6253.156 3773.915 269.430 536.532 631.451 863.127 2161.444 481.563 1934.454 336.589 543.651 5049.758 4014.321 0.000 681.454 3681.954 128.596 2047.661 2982.704 7203.038 3182.394 3698.054 203.726 8157.782 826.595 633.042 383.841 2609.660 7264.211 669.623 726.908 2196.704 1473.523 992.666 2728.823 1316.238 3660.033 4078.614 4030.289 6794.622 7112.853 645.329
3936.188 3905.695 3408.929 689.438 2171.390 555.531 581.588 129.424 3874.469 227.733 11610.574 4956.647 1197.136 2018.552 4504.632 6711.913 2159.705 2037.161 1590.453 733.822 466.758 822.970 2705.412 3456.598 3008.666 7695.599 436.915 182.616 3880.970 999.812 1672.046 2982.769 1996.677 4309.825 1429.232 3250.180 771.236 3224.774 3508.018 1673.259 855.387 5569.485 5175.432 235.807 4338.356 1692.996 3322.175 6336.588 3907.351 6589.013 429.777 1558.072 635.119 934.034 85.679 4483.837 3682.839 4344.170 2161.287 514.575 549.315 1309.635 541.523 4430.357 3468.589 4516.152 595.497 3199.646 3848.409 617.454 392.580 1200.312 8064.842 392.296 1270.076 4510.461 2128.085 942.087 2075.287 1167.366 276.736 1047.949 1378.713 1178.676 2972.744 2809.098 2382.226 4180.766 3376.179 3233.346 466.560 723.325 374.481 1667.875 6276.225 3247.062 474.864 983.648 235.517 202.904 2327.127 858.121 1951.244 569.448 339.166 4756.328 3463.886 681.454 0.000 3284.564 809.103 2672.049 3540.698 6570.883 3845.686 4378.584 539.538 7877.785 151.985 135.502 475.972 2457.231 7004.101 192.684 982.626 2554.893 1742.066 1463.910 3388.135 1798.504 3190.483 3556.688 3556.728 6482.505 7728.701 187.663
1418.813 1177.902 4868.239 3792.635 5429.471 3601.492 3865.561 3195.275 1430.679 3057.337 10651.174 8013.422 4480.676 1436.862 6098.897 9063.202 5443.830 5321.064 3260.719 2716.411 3618.518 3997.681 5854.238 2432.634 6115.243 8629.023 3661.480 3321.279 1404.598 3874.925 1646.187 4993.557 1391.729 2215.421 3869.806 98.649 2689.334 6260.639 6693.065 4845.593 3786.583 7721.013 6436.088 3101.486 5796.954 3041.432 361.318 8856.554 1369.220 7968.270 3689.420 4794.497 3516.398 4215.650 3259.423 7745.374 6361.164 6427.301 3954.084 3462.972 3678.709 4588.413 3648.211 7041.599 6741.216 6896.002 3620.525 5746.214 6154.212 2998.753 3629.958 4416.325 10718.260 3414.079 4537.070 6915.803 2726.431 4136.325 4136.378 4446.760 3481.188 4266.053 4648.846 4454.668 315.475 4419.629 4634.147 5728.193 5192.473 313.575 3538.996 3823.434 3432.409 4951.095 9341.309 5078.225 3653.615 4181.150 3148.947 3108.659 5596.398 3349.781 5165.198 3790.556 3621.498 7231.068 1167.706 3681.954 3284.564 0.000 3778.046 5626.671 4797.840 6927.015 5811.772 6777.012 3481.883 10197.753 3169.569 3213.460 3301.591 5462.908 9428.007 3145.542 4252.409 5827.163 5025.038 4664.372 5394.102 4994.842 477.408 5336.105 613.039 8767.924 8744.913 3167.065
4603.527 4541.334 2728.535 190.309 1714.999 254.018 673.294 789.269 4548.466 939.310 11191.805 4957.951 988.987 2670.478 3755.992 7044.967 1880.217 1772.122 2375.217 1512.547 361.109 346.120 2076.836 3410.050 3049.012 6985.264 455.786 643.637 4551.050 195.533 2134.028 2219.653 2624.099 4411.696 2078.900 3760.871 1090.072 3319.256 3424.823 1776.563 55.246 4761.727 4460.026 1033.766 3615.050 2495.573 3747.443 6611.743 4570.483 7187.855 532.800 1079.428 263.293 781.240 756.830 3998.575 3983.314 3544.935 2874.503 345.261 286.652 1202.978 278.210 3633.460 3206.485 4905.210 215.006 2391.667 3040.832 779.719 497.083 1332.346 7287.570 445.680 1238.108 4890.010 2936.776 460.024 2740.142 1091.909 540.635 1223.624 1029.989 901.050 3462.812 2142.513 1606.617 3448.192 3992.810 3669.221 343.574 180.635 449.341 1374.139 6240.119 3868.145 377.558 496.712 757.460 991.711 2136.140 507.205 1941.237 409.519 650.877 5098.221 4130.698 128.596 809.103 3778.046 0.000 1926.998 2895.210 7316.333 3063.700 3569.839 320.313 8200.291 954.900 761.441 494.707 2641.050 7303.617 796.953 724.817 2131.349 1436.706 918.317 2611.813 1232.256 3766.270 4171.443 4136.536 6844.370 7006.717 772.779
6526.858 6456.182 2570.935 1991.453 1230.748 2160.791 2225.973 2688.467 6473.090 2844.824 11285.014 4580.971 1838.924 4595.333 2977.718 7306.367 1721.994 1731.402 4061.436 3404.788 2211.586 1853.927 654.911 4696.822 3101.680 6165.301 2238.260 2538.000 6474.983 1785.175 4008.866 1768.850 4545.166 5835.042 3528.474 5620.651 2983.928 3425.299 3092.229 2464.521 1901.180 3260.391 3789.004 2907.836 3019.740 4240.778 5548.118 6754.967 6492.976 8128.155 2266.393 1343.575 2183.465 1960.534 2642.906 2531.688 4426.587 2322.873 4346.717 2271.877 2130.974 1974.233 2147.062 1863.166 2478.602 5445.681 2128.307 998.859 1714.115 2678.100 2284.593 2343.559 5402.439 2363.191 2090.070 5409.613 4747.228 1751.607 4122.811 2019.083 2398.216 2369.049 1604.602 1760.758 5315.223 2268.473 1453.436 2828.461 5145.451 5479.954 2245.442 1956.884 2359.659 1638.258 5662.797 5041.644 2197.979 1716.384 2675.537 2872.349 2023.033 2284.056 2329.063 2111.545 2389.869 5510.584 6054.628 2047.661 2672.049 5626.671 1926.998 0.000 2843.373 8705.546 2145.207 2006.508 2247.237 8385.814 2823.989 2661.610 2419.861 3119.505 7469.996 2708.307 1853.280 1402.933 1611.066 1315.461 1881.064 1069.055 5661.199 5305.407 6030.251 7186.929 6126.411 2683.595
6107.735 5923.989 279.014 3085.104 3791.306 3081.593 3567.553 3448.275 6088.233 3530.376 8504.905 7332.696 3697.495 4490.981 1306.661 9803.123 4218.887 4164.564 5090.314 4000.087 3219.184 3173.961 3481.804 2793.319 5623.445 4188.364 3333.266 3361.488 6073.860 2723.215 3675.462 1076.948 4386.126 3922.708 4945.930 4842.428 3152.952 5934.336 5788.188 4543.480 2840.449 3058.995 1722.135 3687.426 999.406 5133.036 4550.915 9314.651 6061.459 10082.231 3417.098 3437.833 2939.540 3591.762 3458.866 5303.187 6766.120 1869.009 5701.985 3051.959 3163.866 3924.508 3141.976 2971.562 5272.881 7735.149 3045.180 2082.797 1923.306 3032.827 3366.567 4166.372 6288.145 3167.243 4002.111 7713.752 5421.941 3210.496 5604.039 3861.517 3348.421 4084.630 3590.034 3586.721 4557.919 755.214 1517.569 940.643 6881.001 4529.968 3147.390 3070.659 3194.007 3858.933 8478.271 6754.807 3250.472 3218.345 3353.280 3641.122 4541.670 2683.518 4596.153 3304.720 3520.521 7890.719 5700.720 2982.704 3540.698 4797.840 2895.210 2843.373 0.000 10084.963 1298.281 2479.300 3031.764 10935.447 3638.674 3426.422 3064.878 5389.612 10023.589 3411.186 3496.302 4115.788 3883.459 3268.962 1130.957 3328.538 5067.517 7060.466 5375.368 9631.679 4243.325 3397.555
5853.523 6126.294 9972.386 7142.851 7577.506 7085.826 6703.938 6650.624 5786.988 6557.830 17495.848 6772.541 6894.909 6068.810 11069.120 5040.800 7144.387 7083.426 4995.736 6094.277 6958.642 7141.034 8343.328 8982.594 6253.654 14261.893 6861.136 6753.383 5823.737 7510.274 6784.243 9535.720 6187.083 9123.383 5263.446 6828.387 6955.323 6038.537 6793.053 6262.709 7370.272 11935.421 11745.371 6404.179 10909.236 4958.724 7272.969 5388.637 5889.276 2325.807 6788.346 7372.160 7199.834 6843.696 6648.162 8967.089 5044.973 10811.625 4446.265 7080.620 7029.760 6735.763 7041.445 10559.710 7491.406 4369.417 7125.819 9536.150 10255.509 7052.286 6819.250 6372.452 13783.173 6959.474 6621.109 4433.071 4758.905 7172.206 4618.270 6707.503 6797.705 6370.548 7115.502 6988.653 6869.768 9371.522 8922.577 10750.701 3603.917 7194.433 7006.409 7167.722 6937.202 7075.426 7558.846 3691.551 6938.831 7187.749 6739.986 6450.904 6946.911 7414.911 6469.997 6932.045 6666.004 4658.770 5834.516 7203.038 6570.883 6927.015 7316.333 8705.546 10084.963 0.000 10372.119 10685.255 7104.050 5655.971 6458.876 6674.306 7040.025 5823.319 5438.710 6682.398 6957.754 7658.633 7111.792 7438.815 9925.664 7638.617 6451.231 3467.007 6482.129 4718.556 14298.762 6697.866
7027.578 6875.642 1077.426 3231.660 3321.697 3304.211 3670.228 3789.468 6996.582 3911.765 9231.022 6715.083 3580.068 5250.603 832.561 9435.705 3804.267 3786.444 5433.338 4459.975 3424.427 3234.029 2790.325 4029.089 5217.716 4068.459 3515.882 3665.375 6987.149 2868.367 4472.376 885.949 5160.485 5182.440 5112.734 5842.260 3707.288 5540.842 5237.436 4374.794 3011.039 1909.592 1643.855 4044.831 917.898 5535.230 5607.553 8893.873 6984.252 10074.348 3586.020 3182.756 3211.353 3567.704 3777.354 4332.688 6497.366 619.415 5925.883 3331.826 3349.839 3783.209 3341.353 1697.126 4606.334 7507.605 3263.625 1163.305 678.079 3493.955 3559.191 4102.914 5034.138 3453.934 3884.851 7476.479 5924.440 3214.163 5767.380 3766.213 3596.051 4065.706 3402.679 3473.246 5542.104 1393.390 1463.524 738.388 6954.086 5572.086 3388.449 3205.822 3471.319 3579.776 7749.263 6836.692 3440.462 3203.899 3718.387 3998.642 4121.770 3067.130 4329.086 3440.378 3710.401 7603.402 6589.533 3182.394 3845.686 5811.772 3063.700 2145.207 1298.281 10372.119 0.000 1182.585 3306.460 10525.311 3976.596 3763.020 3405.721 5143.164 9609.023 3772.344 3456.110 3545.267 3579.346 3057.358 462.506 2982.043 6016.359 7126.901 6352.044 9304.583 4052.346 3752.454
7906.919 7780.980 2246.942 3701.139 3221.900 3823.827 4059.448 4353.882 7867.607 4496.886 10053.618 6253.417 3790.905 6046.828 1683.644 9164.746 3708.009 3728.910 5906.301 5069.441 3918.521 3634.798 2517.694 5162.473 5029.781 4389.216 3983.488 4211.979 7862.050 3382.402 5319.577 1803.282 5969.857 6326.603 5455.549 6797.029 4429.127 5349.300 4900.007 4468.399 3525.315 1255.029 2377.680 4602.781 1936.195 6051.525 6605.688 8580.527 7866.398 10128.544 4036.189 3315.189 3777.253 3861.384 4325.766 3559.828 6389.173 732.654 6281.307 3891.181 3836.800 3951.999 3839.464 576.425 4178.385 7408.509 3784.419 1181.011 626.855 4167.690 4030.437 4312.941 3951.838 4006.503 4065.777 7369.008 6506.588 3571.182 6077.685 3977.908 4106.229 4317.818 3570.201 3699.249 6490.561 2447.859 2167.974 1804.167 7145.072 6560.566 3913.309 3669.429 4015.294 3640.985 7148.951 7038.935 3921.221 3547.112 4305.989 4559.871 3991.548 3727.163 4333.459 3878.690 4165.699 7445.224 7451.728 3698.054 4378.584 6777.012 3569.839 2006.508 2479.300 10685.255 1182.585 0.000 3864.571 10198.364 4524.645 4326.080 4002.326 5114.787 9290.209 4352.854 3747.928 3310.224 3616.505 3247.712 1452.416 3055.421 6931.844 7307.060 7282.841 9074.185 4311.981 4329.890
4284.822 4225.273 2887.908 316.477 1970.251 132.158 644.492 491.300 4229.323 632.533 11215.820 5082.352 1133.367 2351.483 3967.619 7044.352 2080.148 1965.202 2129.684 1206.170 235.380 532.256 2380.901 3264.696 3149.418 7168.903 352.260 359.026 4232.147 486.420 1835.734 2443.484 2306.704 4220.142 1914.395 3461.547 794.169 3401.502 3572.621 1834.316 351.151 5042.967 4646.219 744.883 3806.521 2230.141 3464.906 6634.640 4252.059 7063.491 436.509 1329.529 95.929 883.860 471.832 4274.342 3988.439 3809.173 2679.986 26.614 240.255 1319.992 202.981 3943.840 3413.503 4876.310 140.230 2690.513 3322.371 490.374 367.286 1362.816 7604.151 147.485 1327.879 4865.180 2648.311 671.274 2572.350 1190.237 316.814 1230.822 1231.345 1067.262 3166.410 2290.675 1842.943 3646.675 3854.674 3384.169 131.858 344.517 166.899 1568.004 6381.007 3727.376 280.914 715.238 444.006 700.088 2309.447 398.198 2045.743 410.665 506.994 5090.055 3811.840 203.726 539.538 3481.883 320.313 2247.237 3031.764 7104.050 3306.460 3864.571 0.000 8205.546 672.224 463.762 180.815 2682.842 7317.469 488.541 866.738 2381.116 1636.453 1186.308 2848.650 1513.674 3456.626 4034.714 3826.868 6831.140 7198.684 465.374
9772.124 9965.291 10706.944 8019.839 7215.615 8103.177 7566.192 8006.137 9687.450 8028.119 19384.230 4010.757 7271.968 8829.739 11356.815 1166.863 6748.717 6787.576 7009.023 7937.173 7972.821 7868.365 7758.421 11291.851 5327.317 14536.593 7853.713 8003.339 9719.759 8328.125 9138.842 9976.750 8912.402 11969.122 6595.371 10113.055 8614.543 5009.449 5309.863 6434.235 8248.305 11339.871 12165.036 7878.224 11364.952 7191.866 10438.081 1631.517 9784.799 3330.268 7769.039 7497.833 8272.727 7427.490 7958.737 6994.386 4218.698 10677.658 6267.814 8196.862 7995.141 7043.018 8028.004 9796.228 6020.932 3381.443 8127.481 9383.395 10073.735 8493.442 7839.391 6868.292 11802.766 8119.494 6981.935 3379.075 7473.686 7796.104 6134.566 7128.287 7927.660 6984.651 7352.397 7379.768 9982.784 10199.295 9428.416 11173.916 5008.109 10338.967 8073.699 8021.470 8086.305 7076.644 3660.635 5120.106 7929.451 7777.953 8113.302 7908.583 6425.164 8603.246 6342.946 7823.861 7713.298 3121.508 9502.276 8157.782 7877.785 10197.753 8200.291 8385.814 10935.447 5655.971 10525.311 10198.364 8205.546 0.000 7871.414 8012.905 8272.610 5569.905 916.466 8067.408 7504.612 6982.881 7053.832 7666.943 10210.628 7624.674 9817.719 4872.420 10041.529 1432.253 14483.623 8065.189
3793.510 3767.240 3514.833 840.624 2306.193 700.882 708.692 191.762 3731.008 157.701 11650.914 5016.659 1321.411 1881.655 4625.164 6704.792 2275.854 2152.821 1468.787 582.549 617.854 974.103 2852.226 3439.185 3070.513 7803.822 587.882 314.597 3737.993 1143.320 1574.537 3109.216 1864.029 4260.782 1367.561 3132.385 746.339 3275.583 3587.305 1741.060 999.605 5711.710 5286.641 84.138 4452.493 1558.729 3218.838 6342.088 3765.233 6520.075 575.529 1699.352 766.208 1062.385 200.678 4614.744 3690.744 4481.328 2068.475 646.291 700.298 1418.848 691.217 4580.593 3574.394 4501.570 740.228 3346.517 3990.678 654.855 542.901 1277.299 8216.678 525.259 1370.462 4498.011 1982.207 1091.508 2000.170 1277.215 428.102 1124.094 1512.155 1310.170 2859.482 2914.140 2513.250 4297.443 3308.687 3128.500 611.353 874.637 512.012 1791.394 6339.847 3178.787 626.805 1132.582 287.129 60.968 2430.415 957.067 2032.721 719.439 473.865 4751.359 3321.723 826.595 151.985 3169.569 954.900 2823.989 3638.674 6458.876 3976.596 4524.645 672.224 7871.414 0.000 216.079 581.762 2497.821 7003.574 229.535 1118.410 2684.370 1865.797 1610.182 3517.709 1943.927 3062.166 3489.087 3426.978 6469.581 7839.988 241.295
3909.156 3869.162 3300.219 670.192 2223.818 509.837 659.604 27.854 3849.487 183.419 11476.320 5074.738 1270.114 1982.029 4409.163 6847.097 2238.584 2116.896 1684.866 751.681 452.437 832.440 2727.815 3325.980 3126.757 7588.857 458.360 123.862 3854.738 944.014 1586.885 2894.226 1952.581 4189.632 1557.647 3182.426 647.963 3347.528 3616.198 1790.214 802.470 5506.720 5071.095 282.199 4236.582 1772.345 3238.805 6470.569 3878.965 6716.288 476.397 1599.280 555.705 1003.829 57.108 4540.063 3816.696 4271.393 2277.384 437.352 531.275 1398.936 514.676 4394.609 3556.279 4651.640 547.047 3150.176 3786.077 481.954 421.286 1314.043 8042.766 319.603 1367.511 4645.909 2184.611 961.226 2199.614 1256.959 277.736 1162.962 1436.623 1241.223 2900.075 2699.666 2300.018 4081.382 3503.635 3151.533 421.171 704.766 312.164 1739.271 6392.256 3374.234 473.294 1004.700 100.866 236.684 2418.617 743.288 2059.921 592.568 416.334 4891.422 3436.021 633.042 135.502 3213.460 761.441 2661.610 3426.422 6674.306 3763.020 4326.080 463.762 8012.905 216.079 0.000 365.847 2584.121 7138.755 70.550 1039.597 2615.393 1812.894 1491.703 3303.655 1827.584 3136.997 3684.140 3505.022 6617.945 7624.473 56.064
4108.970 4047.012 2935.412 493.011 2145.320 302.656 746.973 390.183 4054.150 506.520 11173.419 5208.814 1283.090 2176.141 4044.495 7109.165 2240.412 2123.749 2050.370 1069.901 360.889 705.227 2561.609 3142.646 3269.011 7223.567 456.596 299.908 4056.584 644.114 1655.405 2533.285 2129.405 4074.992 1898.505 3280.937 615.334 3512.383 3710.800 1942.408 518.829 5168.336 4705.348 642.657 3870.751 2132.678 3287.106 6711.944 4075.841 7057.832 529.029 1504.913 237.357 1025.408 394.163 4452.339 4060.629 3922.697 2637.144 161.444 395.758 1457.830 360.541 4096.923 3573.411 4928.682 319.000 2833.396 3449.848 317.251 453.832 1465.030 7764.703 160.100 1455.447 4919.768 2526.920 844.870 2548.845 1323.317 345.168 1325.104 1396.285 1224.461 2986.116 2335.093 1944.549 3715.791 3845.376 3205.822 258.337 522.677 192.754 1728.638 6513.398 3716.769 406.060 889.304 312.766 595.921 2460.243 382.309 2171.928 548.904 560.807 5153.138 3636.219 383.841 475.972 3301.591 494.707 2419.861 3064.878 7040.025 3405.721 4002.326 180.815 8272.610 581.762 365.847 0.000 2777.748 7389.588 366.825 1020.745 2554.445 1798.428 1364.938 2945.251 1693.496 3276.194 4025.824 3646.451 6889.465 7258.737 347.716
5676.723 5746.842 5174.037 2466.373 1893.060 2569.353 2038.814 2585.037 5597.737 2651.993 13814.337 2554.408 1703.045 4037.202 5953.841 4423.158 1408.210 1388.128 2391.841 2781.099 2447.466 2303.441 2621.667 5906.069 694.566 9211.617 2332.867 2543.171 5617.101 2760.700 4009.875 4485.406 4071.971 6758.490 1656.265 5404.625 3228.324 798.375 1350.152 865.834 2687.036 6360.363 6741.255 2532.366 5910.391 2653.938 5586.749 3971.909 5664.342 5014.579 2252.749 1979.512 2739.486 1862.218 2527.076 3257.569 1377.241 5422.771 2079.138 2678.217 2457.849 1473.994 2492.813 4877.600 1795.403 2368.897 2589.089 4083.756 4818.665 3040.838 2326.839 1320.751 7959.857 2618.552 1412.521 2341.110 3196.176 2226.763 1778.921 1559.184 2437.333 1453.590 1800.998 1811.718 5175.658 4644.239 3904.845 5723.402 2230.309 5489.976 2552.918 2464.847 2585.445 1567.404 3883.889 2159.747 2402.050 2208.101 2683.459 2548.834 1150.823 3073.728 814.582 2283.232 2221.976 2501.489 5250.533 2609.660 2457.231 5462.908 2641.050 3119.505 5389.612 5823.319 5143.164 5114.787 2682.842 5569.905 2497.821 2584.121 2777.748 0.000 4667.645 2648.804 1935.611 1869.584 1563.985 2132.451 4771.740 2161.164 5233.744 2357.251 5562.917 4242.632 9191.620 2639.933
9080.615 9260.434 9793.782 7124.749 6299.245 7212.736 6675.970 7132.980 8995.423 7160.854 18480.516 3137.096 6367.604 8038.694 10440.461 419.317 5832.919 5872.586 6204.983 7094.691 7083.807 6969.406 6843.750 10434.327 4411.812 13622.790 6965.275 7124.815 9026.535 7427.987 8309.680 9061.497 8116.589 11141.945 5752.871 9346.007 7748.803 4094.589 4397.208 5533.108 7350.955 10438.989 11248.607 7013.759 10448.599 6400.068 9654.816 715.151 9090.215 3169.581 6881.197 6585.756 7382.665 6528.201 7083.964 6128.803 3329.382 9764.047 5478.297 7309.528 7103.815 6138.862 7137.164 8894.311 5115.031 2548.884 7236.116 8467.790 9159.597 7617.707 6952.349 5972.947 10988.786 7235.081 6080.164 2538.436 6715.862 6894.390 5324.663 6226.815 7044.422 6092.368 6443.579 6474.801 9201.681 9289.135 8515.071 10257.543 4266.931 9555.262 7185.729 7125.490 7201.823 6164.671 2954.183 4370.487 7039.971 6875.340 7239.438 7042.643 5509.260 7714.445 5433.927 6931.575 6829.247 2256.503 8786.707 7264.211 7004.101 9428.007 7303.617 7469.996 10023.589 5438.710 9609.023 9290.209 7317.469 916.466 7003.574 7138.755 7389.588 4667.645 0.000 7194.860 6603.245 6067.076 6140.939 6755.885 9294.258 6709.984 9063.802 4146.548 9303.705 762.215 13571.042 7191.741
3852.025 3809.174 3290.155 718.781 2289.484 549.674 729.800 63.767 3793.024 144.033 11432.700 5142.961 1339.445 1922.831 4409.324 6901.321 2308.266 2186.675 1688.801 717.772 505.776 889.463 2785.738 3263.920 3194.926 7579.582 521.420 180.436 3797.874 973.992 1517.264 2900.062 1891.208 4121.834 1592.366 3115.103 580.837 3414.198 3686.160 1858.562 834.998 5527.609 5064.176 278.525 4231.952 1766.117 3169.167 6528.245 3821.418 6747.829 543.878 1662.913 576.207 1072.991 125.508 4606.056 3874.651 4286.762 2297.837 461.932 582.004 1469.405 562.396 4429.665 3626.566 4703.451 584.911 3179.049 3807.726 434.077 486.266 1382.990 8083.381 351.295 1438.026 4698.364 2164.369 1020.467 2228.614 1327.450 339.841 1231.608 1503.735 1309.231 2831.939 2689.314 2310.677 4078.680 3535.888 3082.078 463.167 753.283 349.945 1808.227 6461.000 3406.149 530.262 1064.321 57.918 231.681 2489.102 732.591 2129.754 654.728 486.780 4946.093 3378.756 669.623 192.684 3145.542 796.953 2708.307 3411.186 6682.398 3772.344 4352.854 488.541 8067.408 229.535 70.550 366.825 2648.804 7194.860 0.000 1106.960 2682.466 1881.756 1552.132 3312.002 1887.984 3072.701 3716.339 3441.077 6670.432 7617.281 24.736
4909.440 4885.650 3300.474 576.672 1188.775 735.111 416.511 1058.885 4845.838 1204.023 11879.948 4237.422 268.823 2999.701 4214.332 6354.574 1221.226 1103.502 2208.302 1680.702 662.600 378.726 1763.220 4117.032 2324.195 7478.063 595.321 931.708 4853.540 825.956 2619.147 2685.573 2979.279 5086.704 1707.856 4221.973 1614.629 2595.861 2713.200 1070.386 764.674 4988.197 4963.369 1198.409 4117.732 2392.533 4269.270 5906.746 4881.821 6643.917 563.212 589.751 888.438 114.088 995.887 3502.318 3296.020 3858.519 2533.798 874.039 628.155 478.397 665.003 3699.103 2553.287 4244.296 738.114 2582.707 3297.787 1335.723 623.370 671.742 7242.039 874.353 523.183 4225.151 2913.019 291.729 2339.731 376.430 772.639 611.190 397.187 205.490 3938.618 2742.661 2073.316 3939.346 3498.165 4183.772 762.411 563.965 848.493 711.102 5526.268 3380.585 620.064 278.238 1104.728 1177.573 1442.712 1208.307 1216.525 475.927 645.004 4417.582 4438.369 726.908 982.626 4252.409 724.817 1853.280 3496.302 6957.754 3456.110 3747.928 866.738 7504.612 1118.410 1039.597 1020.745 1935.611 6603.245 1106.960 0.000 1575.848 782.727 543.402 3032.543 854.986 4172.048 3671.529 4538.828 6164.035 7482.475 1085.343
6453.117 6443.332 3858.025 2064.766 417.950 2252.391 1975.827 2634.721 6386.323 2778.653 12613.707 3220.340 1365.398 4563.346 4377.696 5906.162 539.972 637.529 3486.077 3223.560 2215.309 1849.472 794.431 5467.918 1720.981 7563.620 2165.891 2505.920 6396.125 2111.377 4189.539 3075.665 4548.374 6520.281 2800.716 5797.556 3166.776 2042.279 1697.935 1478.260 2143.011 4535.528 5188.052 2761.133 4405.053 3718.411 5835.642 5352.062 6427.822 6860.618 2138.997 1053.718 2370.592 1622.083 2571.571 1930.810 3081.539 3710.965 3536.111 2395.532 2162.367 1321.248 2195.722 3025.076 1176.842 4099.818 2241.268 2400.973 3102.915 2870.613 2197.253 1632.943 6149.792 2424.811 1412.189 4059.542 4278.739 1710.023 3263.272 1448.032 2345.976 1742.415 1178.774 1376.322 5512.969 3448.127 2613.983 4213.395 4054.811 5751.898 2303.034 2038.144 2403.302 902.833 4376.164 3968.712 2177.680 1665.903 2678.240 2744.679 719.253 2631.895 1204.133 2038.141 2215.747 4137.436 5985.476 2196.704 2554.893 5827.163 2131.349 1402.933 4115.788 7658.633 3545.267 3310.224 2381.116 6982.881 2684.370 2615.393 2554.445 1869.584 6067.076 2682.466 1575.848 0.000 829.288 1215.303 3254.407 938.122 5745.239 4196.330 6110.949 5792.774 7520.203 2660.585
5624.255 5616.642 3653.126 1328.691 517.292 1504.394 1160.484 1830.256 5557.258 1968.416 12366.375 3569.519 544.969 3739.663 4390.372 5928.339 444.755 335.986 2696.253 2396.210 1443.642 1112.206 1259.226 4843.867 1744.465 7647.797 1377.395 1710.040 5567.189 1471.354 3398.013 2936.278 3727.792 5844.802 2048.905 4991.903 2397.186 2051.571 2015.864 854.389 1462.053 4871.036 5180.152 1940.531 4353.069 2918.901 5049.308 5431.323 5599.170 6535.649 1339.319 449.167 1644.535 809.422 1765.824 2756.836 2927.467 3873.761 2830.389 1646.574 1402.958 498.270 1438.871 3449.201 1777.329 3931.077 1501.244 2537.074 3274.725 2114.988 1403.398 841.295 6811.013 1655.682 599.257 3901.609 3473.135 980.602 2579.273 619.550 1552.563 930.885 407.846 577.244 4712.256 3155.458 2374.803 4164.986 3537.173 4963.046 1540.652 1307.971 1630.537 74.441 4826.148 3435.488 1401.989 941.097 1883.360 1926.529 713.024 1942.736 749.745 1258.207 1403.864 4044.408 5157.025 1473.523 1742.066 5025.038 1436.706 1611.066 3883.459 7111.792 3579.346 3616.505 1636.453 7053.832 1865.797 1812.894 1798.428 1563.985 6140.939 1881.756 782.727 829.288 0.000 629.820 3209.948 597.335 4927.799 3695.583 5291.975 5770.324 7628.998 1861.103
5398.409 5360.852 3045.819 872.250 797.822 1063.352 942.043 1515.186 5337.479 1669.869 11740.882 4192.695 544.227 3473.679 3847.867 6534.589 1035.315 948.314 2749.359 2187.715 1053.283 668.570 1242.142 4274.171 2371.161 7115.337 1034.376 1371.730 5343.525 899.879 3018.628 2355.761 3443.327 5309.756 2219.763 4641.420 1980.155 2674.409 2635.348 1321.341 928.017 4496.608 4622.963 1693.374 3785.961 2935.823 4651.161 6048.351 5368.902 7017.463 1034.750 186.129 1165.122 646.794 1457.998 3088.182 3508.833 3411.265 3042.451 1203.627 987.592 728.162 1016.845 3170.689 2323.688 4497.132 1046.371 2102.113 2831.764 1675.911 1074.834 1070.949 6698.710 1251.610 834.708 4471.390 3455.517 532.566 2830.826 732.553 1213.968 1070.337 345.343 452.232 4348.964 2533.892 1772.820 3600.910 3927.346 4570.461 1126.146 842.276 1235.250 594.491 5436.881 3815.438 1023.326 488.228 1535.845 1665.966 1334.305 1416.627 1328.704 899.711 1142.784 4631.816 4925.634 992.666 1463.910 4664.372 918.317 1315.461 3268.962 7438.815 3057.358 3247.712 1186.308 7666.943 1610.182 1491.703 1364.938 2132.451 6755.885 1552.132 543.402 1215.303 629.820 0.000 2660.510 335.889 4619.526 4095.566 4988.883 6367.455 7107.227 1528.266
6588.939 6442.547 861.720 2782.895 2995.015 2849.655 3229.023 3329.968 6556.262 3450.989 9410.223 6459.130 3170.759 4796.886 1187.575 9107.490 3466.575 3438.368 4977.132 3997.892 2971.817 2794.542 2535.958 3711.147 4887.625 4455.740 3065.659 3207.315 6547.581 2416.932 4024.451 425.378 4708.246 4877.227 4670.940 5421.311 3245.858 5208.920 4952.324 3981.818 2558.604 2341.868 1970.297 3585.224 1154.398 5076.000 5201.415 8579.654 6546.148 9667.465 3137.429 2797.072 2753.295 3142.637 3318.885 4229.105 6136.889 1042.935 5480.260 2873.839 2898.365 3380.228 2888.742 1881.522 4359.548 7140.367 2809.147 987.169 840.866 3031.449 3108.342 3688.349 5386.322 2996.055 3478.194 7111.411 5462.376 2781.811 5327.882 3354.591 3141.148 3643.621 3005.073 3062.179 5118.830 1001.250 1006.715 963.289 6529.233 5162.204 2933.047 2757.950 3014.028 3204.356 7538.658 6410.313 2989.180 2774.009 3257.790 3538.930 3788.454 2604.909 3957.427 2994.106 3260.582 7250.655 6147.156 2728.823 3388.135 5394.102 2611.813 1881.064 1130.957 9925.664 462.506 1452.416 2848.650 10210.628 3517.709 3303.655 2945.251 4771.740 9294.258 3312.002 3032.543 3254.407 3209.948 2660.510 0.000 2615.681 5584.762 6703.394 5924.807 8965.424 4452.664 3292.304
5733.795 5696.738 3089.156 1202.431 527.448 1393.494 1265.580 1851.032 5672.648 2005.584 11828.079 4041.428 781.784 3809.538 3794.153 6506.909 891.247 838.076 3037.792 2519.650 1388.325 1002.935 910.812 4529.869 2299.830 7050.500 1370.132 1707.593 5678.831 1186.625 3348.703 2353.493 3779.159 5587.402 2469.091 4973.023 2307.746 2615.399 2483.255 1422.911 1235.403 4310.076 4585.937 2026.827 3761.988 3234.066 4976.206 5997.982 5704.412 7124.312 1368.931 282.120 1486.437 947.495 1793.680 2766.327 3521.368 3283.048 3282.619 1532.058 1321.342 905.179 1349.753 2931.396 2091.242 4527.343 1374.497 1949.978 2687.633 2001.258 1410.326 1274.970 6406.368 1584.643 1021.043 4497.343 3763.133 868.040 3054.712 955.208 1549.847 1307.157 541.808 718.179 4679.377 2617.604 1811.719 3573.167 4090.112 4896.535 1458.972 1171.420 1569.123 602.306 5254.128 3983.529 1358.930 823.863 1871.356 2000.188 1213.222 1718.056 1347.076 1235.488 1474.389 4635.433 5261.101 1316.238 1798.504 4994.842 1232.256 1069.055 3328.538 7638.617 2982.043 3055.421 1513.674 7624.674 1943.927 1827.584 1693.496 2161.164 6709.984 1887.984 854.986 938.122 597.335 335.889 2615.681 0.000 4954.317 4253.171 5323.807 6355.584 7031.778 1864.097
1046.657 860.476 5115.867 3756.813 5359.798 3567.566 3769.816 3115.883 1038.509 2968.085 11125.375 7770.058 4383.577 1210.789 6356.540 8692.251 5331.440 5208.154 2951.776 2556.445 3566.246 3951.382 5836.991 2845.692 5902.052 8985.101 3594.116 3252.547 1019.028 3883.550 1655.159 5173.688 1203.897 2691.836 3605.918 379.379 2681.662 6027.024 6500.805 4670.696 3781.620 7924.077 6737.682 2987.424 6065.734 2716.894 833.733 8507.946 998.881 7523.429 3611.217 4735.576 3503.026 4123.438 3177.483 7674.204 6058.235 6625.570 3609.735 3435.321 3633.316 4469.780 3605.871 7162.331 6601.382 6545.599 3591.180 5861.950 6315.425 2991.186 3558.257 4264.562 10852.275 3371.339 4408.032 6568.305 2347.974 4087.084 3812.300 4330.275 3412.514 4118.308 4568.825 4369.152 538.330 4633.888 4769.518 5985.037 4809.733 769.158 3497.046 3789.339 3385.614 4853.374 9093.267 4699.401 3597.064 4131.599 3084.817 3001.548 5459.331 3378.181 5000.226 3727.048 3529.560 6889.067 715.001 3660.033 3190.483 477.408 3766.270 5661.199 5067.517 6451.231 6016.359 6931.844 3456.626 9817.719 3062.166 3136.997 3276.194 5233.744 9063.802 3072.701 4172.048 5745.239 4927.799 4619.526 5584.762 4954.317 0.000 4947.082 370.277 8391.213 9093.740 3095.817
4936.828 5113.918 6899.954 3983.474 4137.660 3979.028 3506.462 3667.090 4851.537 3626.576 15102.781 3812.818 3556.916 4005.428 7882.171 3760.813 3689.811 3635.906 2264.941 3344.399 3841.294 3926.355 4899.720 6682.402 2829.322 11139.190 3727.498 3726.072 4882.220 4352.620 4429.572 6346.877 4097.721 7212.266 2127.664 5249.360 4157.578 2655.083 3420.091 2841.259 4226.631 8562.076 8617.135 3462.455 7770.234 2397.021 5590.771 3652.505 4945.437 3032.328 3644.230 4002.326 4124.705 3560.861 3642.005 5549.771 1835.848 7506.624 1506.223 4016.132 3897.448 3370.510 3918.655 7138.763 4067.092 1750.265 4015.293 6192.035 6925.614 4142.243 3693.899 3029.351 10316.733 3905.862 3261.162 1792.941 2609.864 3924.611 1493.184 3368.521 3718.334 3061.239 3756.608 3660.288 5134.265 6311.377 5729.845 7596.586 180.511 5492.632 3915.157 4001.145 3877.001 3667.265 4932.347 310.474 3810.215 3930.313 3772.411 3504.275 3481.949 4405.599 3019.164 3763.309 3540.087 2130.795 4640.999 4078.614 3556.688 5336.105 4171.443 5305.407 7060.466 3467.007 7126.901 7307.060 4034.714 4872.420 3489.087 3684.140 4025.824 2357.251 4146.548 3716.339 3671.529 4196.330 3695.583 4095.566 6703.394 4253.171 4947.082 0.000 5169.631 3450.702 11149.374 3724.003
809.657 565.486 5434.036 4126.788 5727.012 3937.638 4135.186 3483.680 828.711 3335.136 11184.519 8090.032 4748.193 1563.096 6670.991 8926.192 5692.992 5569.711 3249.275 2913.603 3935.607 4320.884 6207.152 3044.273 6236.383 9239.255 3962.486 3621.073 800.132 4253.421 2022.756 5516.691 1564.748 2749.611 3924.211 544.879 3051.646 6353.156 6841.755 5019.116 4151.814 8261.156 7029.225 3351.461 6374.692 3006.228 953.662 8762.050 760.106 7659.092 3978.651 5103.984 3873.288 4488.906 3544.986 8040.541 6348.671 6963.737 3878.933 3805.536 4002.978 4831.024 3975.667 7520.989 6956.660 6800.920 3961.346 6221.038 6664.495 3361.279 3926.308 4619.454 11209.072 3741.203 4767.470 6825.983 2598.027 4456.383 4095.293 4692.031 3780.917 4474.326 4935.374 4735.222 817.614 4965.030 5123.879 6299.654 5039.399 923.737 3866.893 4159.356 3755.316 5217.537 9410.067 4933.436 3966.169 4500.864 3453.788 3366.500 5816.078 3746.800 5350.857 4095.618 3895.643 7150.633 647.719 4030.289 3556.728 613.039 4136.536 6030.251 5375.368 6482.129 6352.044 7282.841 3826.868 10041.529 3426.978 3505.022 3646.451 5562.917 9303.705 3441.077 4538.828 6110.949 5291.975 4988.883 5924.807 5323.807 370.277 5169.631 0.000 8619.838 9353.707 3464.291
8369.904 8556.713 9413.096 6660.535 5982.960 6733.544 6197.523 6609.988 8284.926 6625.442 18036.143 3138.498 5942.529 7397.536 10130.885 342.899 5501.708 5527.080 5577.410 6516.186 6600.715 6519.441 6583.345 9877.723 4088.016 13352.045 6480.809 6614.098 8316.651 6981.231 7711.581 8706.414 7480.153 10540.470 5175.959 8683.699 7209.536 3764.465 4183.948 5097.577 6893.977 10257.817 10932.331 6473.034 10116.048 5759.613 9006.470 788.858 8381.047 2498.256 6395.238 6205.871 6901.944 6080.956 6564.646 6092.690 2868.862 9503.632 4835.561 6821.122 6627.572 5713.800 6659.357 8713.881 4941.299 1968.266 6759.665 8184.801 8895.309 7099.633 6463.956 5513.396 11036.512 6738.899 5644.731 1972.073 6045.402 6455.613 4704.124 5789.493 6545.580 5622.179 6041.771 6052.164 8551.338 8886.864 8139.199 9926.448 3581.940 8907.306 6699.395 6664.309 6705.896 5786.065 3272.317 3691.992 6558.351 6440.447 6717.815 6504.769 5182.880 7229.337 5038.829 6458.765 6333.031 1746.756 8088.757 6794.622 6482.505 8767.924 6844.370 7186.929 9631.679 4718.556 9304.583 9074.185 6831.140 1432.253 6469.581 6617.945 6889.465 4242.632 762.215 6670.432 6164.035 5792.774 5770.324 6367.455 8965.424 6355.584 8391.213 3450.702 8619.838 0.000 13312.208 6669.285
10137.699 9918.559 4330.677 7188.648 7343.353 7225.415 7653.870 7648.228 10132.233 7744.139 6463.636 10563.126 7623.077 8685.863 3268.143 13424.492 7832.356 7823.469 9305.783 8235.554 7357.076 7226.252 6732.903 6377.411 9228.057 228.984 7461.535 7546.396 10112.489 6817.231 7868.264 4802.897 8575.609 7191.447 9085.369 8808.855 7394.851 9551.698 9173.919 8426.452 6951.762 3339.570 2553.396 7895.734 3392.990 9363.661 8438.889 12857.892 10089.068 14120.010 7539.475 7235.027 7103.266 7591.442 7650.826 7818.127 10536.735 3809.758 9875.758 7221.518 7290.690 7830.710 7275.351 4785.037 8475.991 11551.113 7186.181 5130.783 4417.302 7260.665 7500.689 8140.878 5508.083 7341.887 7930.015 11518.332 9665.093 7224.789 9746.360 7807.220 7509.147 8093.626 7452.512 7514.719 8559.053 4930.780 5420.547 3558.736 10973.874 8444.758 7301.390 7167.338 7365.168 7631.120 11446.136 10853.191 7381.097 7219.676 7559.855 7848.931 8143.268 6884.711 8378.545 7406.343 7655.813 11633.092 9775.631 7112.853 7728.701 8744.913 7006.717 6126.411 4243.325 14298.762 4052.346 4311.981 7198.684 14483.623 7839.988 7624.473 7258.737 9191.620 13571.042 7617.281 7482.475 7520.203 7628.998 7107.227 4452.664 7031.778 9093.740 11149.374 9353.707 13312.208 0.000 7601.430
3876.440 3833.233 3275.013 694.049 2266.979 525.132 711.045 59.452 3817.499 167.286 11429.516 5130.699 1319.291 1947.035 4391.534 6899.249 2288.469 2167.017 1705.169 741.310 481.251 865.177 2761.470 3270.742 3182.732 7564.304 498.351 156.829 3822.314 950.424 1537.347 2880.894 1915.063 4133.619 1598.912 3136.981 591.918 3403.584 3671.270 1846.163 811.114 5505.564 5048.220 295.421 4215.369 1784.980 3189.166 6524.205 3845.791 6755.794 522.528 1639.759 553.739 1052.698 113.137 4583.643 3870.423 4265.679 2309.482 438.760 557.330 1451.363 537.662 4405.700 3607.825 4702.636 560.497 3155.779 3785.531 432.147 463.827 1369.833 8058.959 327.192 1421.351 4697.216 2186.096 996.453 2237.360 1309.537 316.734 1218.853 1481.934 1287.978 2853.324 2674.220 2290.442 4061.596 3543.526 3102.301 438.507 728.550 325.412 1787.663 6448.084 3413.908 506.062 1040.361 49.271 248.577 2471.095 717.109 2115.149 631.359 468.883 4943.762 3403.161 645.329 187.663 3167.065 772.779 2683.595 3397.555 6697.866 3752.454 4329.890 465.374 8065.189 241.295 56.064 347.716 2639.933 7191.741 24.736 1085.343 2660.585 1861.103 1528.266 3292.304 1864.097 3095.817 3724.003 3464.291 6669.285 7601.430 0.000
NODE_COORD_SECTION
1 -3474.274770 5148.687373
2 -3202.567919 5230.798450
3 1599.438169 1674.643299
4 -1270.156343 1151.438836
5 -1195.466151 -500.662857
6 -1309.110233 1338.584323
7 -1730.755516 1006.065126
8 -1723.843475 1680.586020
9 -3500.967555 5067.607950
10 -1812.877989 1810.154300
11 8268.931714 7349.266482
12 -3723.956199 -2989.008311
13 -1649.456658 395.909600
14 -2499.247775 3479.061192
15 2662.082882 1027.598430
16 -6836.894880 -2863.029066
17 -1681.482562 -573.513654
18 -1701.775534 -451.908597
19 -3374.333676 1859.786229
20 -2278.662111 2145.675543
21 -1440.697706 1294.766129
22 -1299.247557 935.783374
23 -479.664815 -774.251758
24 289.122528 4330.035413
25 -2959.210944 -1197.342352
26 5887.309273 1556.134071
27 -1544.631664 1234.039056
28 -1626.376466 1565.952492
29 -3471.124252 5089.142145
30 -898.999592 1166.657733
31 -1713.399951 3251.822021
32 1122.766296 1029.218388
33 -2381.215544 3495.168275
34 40.674617 5475.551033
35 -3167.093796 1139.487883
36 -2174.755759 4811.916810
37 -1421.041441 2249.461112
38 -3268.558703 -1292.710202
39 -2704.168468 -1809.214001
40 -2407.917632 20.358425
41 -1034.570760 1217.616505
42 3268.994212 -706.813810
43 3365.045370 1433.582551
44 -1967.878654 1756.024733
45 2523.326615 1339.927879
46 -3413.977101 2118.990419
47 -1728.076887 4903.676383
48 -6194.181919 -2990.922081
49 -3425.549796 5139.392959
50 -8100.988991 -371.107251
51 -1621.988535 1195.148118
52 -1220.292145 139.588544
53 -1185.831045 1456.063141
54 -1645.843492 662.661303
55 -1729.163347 1615.439658
56 -739.773849 -2772.203634
57 -4338.069386 -1093.963174
58 2293.269287 150.894620
59 -3959.360924 1373.042833
60 -1303.601436 1481.857460
61 -1373.921113 1246.149506
62 -1842.923313 273.292872
63 -1358.888984 1280.265632
64 1760.470363 -1042.857788
65 -1927.078655 -1884.084058
66 -5350.210625 -1219.336020
67 -1269.882219 1327.943314
68 964.484464 -14.312325
69 1702.051229 5.104989
70 -1317.175580 1956.769563
71 -1584.074382 1260.185024
72 -2175.877130 439.842278
73 4125.208694 -3879.747945
74 -1423.451576 1506.108975
75 -1949.296254 320.249586
76 -5306.090778 -1265.219906
77 -3660.886079 2629.590038
78 -1288.840172 796.499130
79 -3827.446683 1103.260893
80 -1837.290499 415.464208
81 -1592.419346 1409.255988
82 -2143.481960 589.587534
83 -1457.558968 249.100604
84 -1544.884340 433.591357
85 -2014.337136 4548.059854
86 998.780087 1690.383348
87 504.959386 1013.179729
88 2358.628251 1241.910814
89 -5031.935220 579.271307
90 -1775.072579 4815.644263
91 -1384.865451 1386.435049
92 -1248.130067 1124.787436
93 -1447.262402 1482.827353
94 -1585.404596 -70.453565
95 -4064.638496 -4274.124922
96 -4914.861929 637.830379
97 -1464.426295 1254.925102
98 -1280.323064 752.490602
99 -1632.420639 1739.167051
100 -1921.280419 1750.970449
101 -1959.820467 -739.716897
102 -958.353150 1701.030313
103 -2301.279057 -305.459530
104 -1486.876093 1112.368456
105 -1739.110766 1250.422682
106 -5341.625320 -1601.533996
107 -3247.446828 4733.214876
108 -1196.402342 1282.418990
109 -1808.244287 1582.468322
110 -2086.135990 4855.255576
111 -1089.425810 1211.054405
112 27.157209 -359.475191
113 1715.518083 1928.363954
114 -8369.439247 1939.154895
115 1921.824604 646.580056
116 2026.287230 -531.382396
117 -1281.048144 1467.728266
118 -7675.766045 -3674.116971
119 -1915.359633 1690.291090
120 -1700.766947 1664.986948
121 -1335.770210 1640.064259
122 -3088.472762 -514.910515
123 -6847.319359 -3282.216076
124 -1690.168490 1734.735908
125 -1534.277145 638.807661
126 -1261.830161 -913.310064
127 -1569.317197 -143.135031
128 -1115.030129 293.094236
129 1492.875683 819.537915
130 -985.492281 -16.810889
131 -2533.792555 4689.357712
132 -5204.035754 524.814300
133 -2673.002222 5032.469621
134 -6827.252742 -2520.265268
135 5916.298664 1328.992077
136 -1675.327249 1714.946767
DEMAND_SECTION
1 0
2 97
3 73
4 89
5 57
6 97
7 61
8 66
9 80
10 74
11 61
12 60
13 51
14 85
15 57
16 74
17 68
18 59
19 81
20 53
21 65
22 76
23 68
24 74
25 98
26 69
27 86
28 58
29 60
30 63
31 58
32 98
33 56
34 57
35 83
36 77
37 74
38 55
39 78
40 75
41 69
42 98
43 65
44 92
45 89
46 92
47 54
48 78
49 92
50 99
51 56
52 68
53 52
54 55
55 65
56 50
57 62
58 65
59 92
60 87
61 85
62 50
63 84
64 51
65 73
66 79
67 74
68 80
69 68
70 67
71 53
72 72
73 80
74 94
75 74
76 85
77 81
78 74
79 92
80 72
81 78
82 61
83 56
84 66
85 98
86 68
87 89
88 86
89 51
90 70
91 51
92 75
93 55
94 63
95 81
96 52
97 57
98 69
99 90
100 66
101 99
102 63
103 64
104 59
105 79
106 97
107 51
108 99
109 95
110 88
111 95
112 60
113 90
114 69
115 92
116 86
117 82
118 83
119 97
120 98
121 97
122 92
123 100
124 68
125 92
126 89
127 57
128 74
129 78
130 76
131 94
132 64
133 59
134 65
135 72
136 76
DEPOT_SECTION
1
-1
EOF
