NAME : mamut-besancon-n183-k10-poi
COMMENT : Mamut2026 shortest metric; city besancon; No of trucks: 10 (lower bound, fleet not fixed); 3-decimal seconds/meters; ENU ref in mamut-besancon-n183-k10-poi.vrp.json
TYPE : CVRP
DIMENSION : 184
EDGE_WEIGHT_TYPE : EXPLICIT
EDGE_WEIGHT_FORMAT : FULL_MATRIX
CAPACITY : 1001
EDGE_WEIGHT_SECTION
0.000 2731.144 2242.241 11731.507 2620.881 14076.710 2447.784 3163.002 2328.614 3836.793 2774.868 3547.724 2292.974 3678.082 2090.256 12833.862 2654.986 2455.317 15174.490 2243.168 1250.932 3247.227 3285.886 6287.092 3021.814 2665.830 4891.817 2888.408 2371.633 7542.942 2610.099 5377.399 2573.146 3281.942 3471.484 11385.083 2536.945 2779.665 14468.588 8368.093 3649.712 1877.841 9102.530 7476.021 1915.965 6237.897 3605.377 11091.784 8223.386 1570.499 5150.284 5501.568 1479.213 14061.365 3196.210 2928.473 2740.825 2741.305 3358.820 6222.296 1388.411 9465.318 10549.321 4928.756 6498.508 1753.548 10634.603 676.957 2507.926 2073.328 3507.577 3469.569 10295.691 4422.319 2248.416 4812.805 3199.654 2465.149 4166.779 2683.544 2068.415 2074.575 9123.623 2420.076 2320.260 2147.180 5359.688 1979.426 1780.203 2898.600 2968.049 7089.075 15117.588 7632.920 7791.849 2260.664 3556.143 2531.541 4904.492 674.862 2683.196 10056.667 4764.528 3931.542 3410.572 2229.495 356.674 10215.835 3662.135 2439.664 4358.238 18094.161 13687.748 3286.850 1951.287 2118.274 2977.030 4033.712 2803.911 1935.575 4759.802 2178.581 3480.596 11707.924 2812.533 1553.160 6226.898 2771.545 1228.709 2427.421 1506.134 5006.684 2911.221 12055.147 2666.271 2960.136 2829.112 4313.527 5905.843 2496.865 3732.462 3276.604 3752.498 3811.570 3275.429 6377.802 3152.544 5984.920 2333.335 7014.245 2983.238 4832.084 10460.748 2964.988 4946.727 664.238 5434.299 11449.508 3416.049 4121.322 3889.109 10971.107 3460.232 5320.461 3589.910 3158.508 3099.084 3057.709 3118.935 15187.335 6824.514 13444.165 2230.393 2476.098 2646.066 5601.476 2435.239 12861.648 3829.940 2660.314 1751.764 11242.057 9201.724 7434.107
2664.552 0.000 1410.050 14032.438 1788.690 16377.640 2672.927 2410.757 1496.422 3787.541 1835.908 3273.012 1460.783 4624.000 809.551 12145.846 2084.125 1623.126 17475.420 884.138 2074.694 2972.514 3244.150 5197.524 3768.985 2070.866 3802.249 1996.510 1539.442 9843.872 1777.908 6589.764 1740.954 2529.698 3914.147 10697.067 1704.754 1565.906 16130.324 9580.458 2811.642 2732.186 10314.895 9776.951 4216.895 5549.881 2713.479 12304.149 7897.390 3460.790 4060.716 4412.000 3299.557 15723.101 2443.966 2062.488 1908.634 1909.114 3317.084 7014.888 2135.172 10677.683 12850.251 4268.657 5810.493 1511.709 12935.533 2523.933 1675.735 1241.137 2107.573 2970.406 9130.360 5613.201 1416.224 3723.237 2447.410 1632.958 5631.414 1851.353 1330.627 1694.165 10335.988 1625.726 461.305 1683.631 4671.672 1789.313 1514.130 1499.682 2693.337 8423.944 17418.518 8012.345 6702.281 1428.473 4541.264 1699.349 7205.422 3166.843 1851.005 9730.671 3674.960 6232.472 2518.674 4441.725 2848.656 7690.175 1136.475 1607.472 5724.348 20395.091 15349.484 1576.357 1193.873 1286.083 1384.776 5924.004 2529.198 3825.866 4071.787 3613.592 2588.698 10542.592 803.089 3472.737 3701.238 762.101 3148.286 1595.229 2585.976 3917.116 2158.976 10889.815 4504.035 1401.669 303.452 3625.511 4816.274 4407.085 4675.927 3001.891 4191.937 2561.490 749.769 5288.234 5453.475 6873.563 1501.143 8713.330 1899.900 3742.516 12761.678 2073.090 3857.159 2000.313 4368.881 10284.176 3374.313 3229.424 2723.777 12183.472 3418.496 4519.910 4729.259 2266.610 2207.186 3008.457 1943.105 17488.266 5734.945 12278.834 2613.582 2516.504 1707.106 4511.907 2748.649 11696.316 5647.429 1794.329 1489.317 13542.987 11232.144 6268.775
1786.019 1747.168 0.000 13137.679 402.858 15482.881 1322.528 1024.925 192.705 2437.142 556.845 1922.614 128.967 3273.601 1028.270 13162.954 698.293 237.294 16580.661 1377.391 1539.076 1622.116 1893.752 6492.797 2437.169 685.034 5097.522 670.385 153.610 8949.113 392.076 5239.366 355.122 1143.866 4783.703 11714.175 318.922 561.642 14779.926 8230.059 1485.517 1438.429 8964.497 8882.192 3322.137 6566.989 1387.354 10953.751 8914.498 2925.172 5355.989 5707.273 2404.798 14372.702 1058.134 710.449 522.802 523.282 1966.685 5664.489 1256.640 9327.285 11955.493 5285.765 6827.601 652.985 12040.775 1988.316 289.903 454.753 1941.163 1584.574 8287.207 4262.803 112.507 5018.510 1061.578 247.126 4281.015 465.521 1525.071 362.349 8985.589 293.910 1461.505 351.815 5688.780 457.497 210.413 2516.791 1342.939 7073.546 16523.759 8987.593 7997.554 42.641 3190.865 313.517 6310.664 2288.311 465.173 10747.779 4970.233 5337.714 1192.548 3447.734 1970.123 9024.600 2470.900 275.657 4373.950 19500.332 13999.086 2903.726 1183.478 499.699 2401.884 5388.386 1178.800 3290.249 5088.895 3490.799 1262.573 9699.440 1533.590 2478.745 5035.663 1492.603 2154.294 263.414 1292.219 5212.389 773.144 10046.663 3172.219 2418.777 1744.232 4642.619 6111.547 3147.438 3325.528 1651.493 2841.538 1803.086 2084.195 6583.507 4558.716 5523.164 115.311 8368.919 765.214 5037.789 11866.920 746.964 5152.432 1121.780 5664.154 9441.024 2023.915 1903.298 1880.625 10833.073 2068.097 5685.637 3378.861 940.484 881.061 1658.058 900.912 16593.507 7030.218 11435.681 3407.526 1184.688 428.043 5807.180 1398.251 10853.164 4315.613 442.290 651.201 12648.228 10696.527 5425.622
12003.671 14615.027 13929.235 0.000 13698.096 7729.758 13103.334 14161.962 13762.876 14584.480 14127.016 14457.380 13699.138 13793.148 13777.250 23456.060 13653.946 13807.465 8777.487 14120.030 13254.603 14156.882 13631.351 18037.707 13158.936 13664.790 16642.432 14240.556 13723.781 5687.192 13752.650 15492.466 13774.888 14280.902 14429.353 22007.281 13889.093 14131.813 12718.441 18483.159 14648.672 12533.391 19217.597 5722.328 10321.125 17631.121 14635.897 21206.851 15762.686 12905.416 16595.205 16852.965 11271.648 13878.826 14195.170 14280.620 13835.108 14046.470 13704.284 16337.363 12484.040 19580.385 2162.770 16197.494 17891.732 13440.542 2248.052 12584.609 13860.074 13760.322 15194.570 14468.529 21294.651 14537.386 13682.679 16563.420 14198.614 13817.297 14281.846 13988.709 13755.408 13085.947 19238.689 13431.448 14204.143 13158.552 16752.912 12990.798 13467.196 14806.252 13901.009 17204.141 7865.643 14695.263 19542.463 13612.812 13671.209 13760.905 7681.420 12048.557 13945.073 17310.806 16515.143 8216.432 14441.091 10502.565 12296.092 21990.536 15436.836 13474.067 14473.304 9633.882 14236.777 15194.502 13638.280 13805.268 14884.682 11073.848 13802.871 13224.428 16510.417 13136.449 14832.744 22706.884 14499.526 11614.969 18001.599 14458.539 11612.783 13584.908 12161.684 16757.299 13910.181 23054.107 12665.721 14867.788 14710.168 15979.602 17257.239 12420.089 13847.528 14275.564 13867.565 14810.530 15050.130 18128.416 9175.879 16099.987 13685.482 13186.018 14335.385 16582.699 1898.277 14317.135 16697.341 12667.910 16716.745 22448.468 13761.514 15473.469 14888.069 21086.173 13733.591 16589.199 13704.976 14510.655 14451.232 13749.741 14471.083 8790.333 18575.128 24443.126 14138.045 13465.797 13998.214 16952.872 13090.789 23860.608 13945.006 14012.461 13438.758 6250.814 7581.269 18433.067
2525.788 2245.499 1363.435 13397.551 0.000 15742.754 919.670 803.451 932.474 2034.284 881.094 1519.756 868.736 2870.743 1768.039 13902.723 295.435 554.400 16840.533 2117.160 2278.845 1219.258 1490.894 7030.281 2075.892 289.646 5635.006 946.694 545.669 9208.986 377.506 4836.508 399.743 922.392 5523.472 12453.944 641.444 850.036 14377.068 7827.201 1290.162 1698.301 8561.639 9142.064 3582.009 7306.758 1277.386 10550.893 9654.267 3664.941 5893.473 6244.757 2664.671 13969.845 836.660 986.759 476.597 671.325 1563.827 5261.631 1618.027 8924.427 12215.365 6025.534 7567.370 1392.754 12300.647 2728.085 501.791 1194.522 2156.566 1181.801 7936.141 3859.945 852.276 5555.994 840.104 571.375 3878.158 613.565 2264.840 1082.213 8582.732 1033.679 2201.274 1091.584 6428.549 987.065 950.182 3256.559 940.081 6670.688 16783.632 9727.362 8535.037 770.475 2788.007 385.761 6570.536 3028.080 569.929 11487.548 5507.717 5597.586 1082.580 3651.319 2709.892 9522.931 2969.232 1015.425 3971.092 19760.205 13596.228 3409.113 1923.247 1239.468 3141.653 6128.155 775.942 4030.018 5828.664 4230.568 1538.883 9348.373 2031.921 2682.330 5533.994 1990.934 2414.167 1003.183 1552.091 5749.873 551.670 9695.596 2994.806 3158.546 2242.564 5382.388 6649.031 2970.026 2922.670 1248.635 2438.681 1452.019 2582.526 7120.991 4818.588 5120.307 676.383 9108.688 1041.524 5575.273 12126.792 1023.274 5689.916 1861.549 6201.637 9089.957 1621.057 2179.608 1529.558 10430.215 1665.239 6352.667 2976.003 1216.794 1157.370 1255.200 1177.221 16853.379 7567.702 11084.615 4147.295 1067.838 752.292 6344.664 995.393 10502.097 3977.347 718.600 1390.970 12908.101 11056.222 5074.556
13734.442 16256.344 15799.664 7763.783 15628.775 0.000 15034.012 16092.640 15693.555 16515.158 16057.695 16388.058 15629.817 16060.247 15647.679 23086.470 15584.624 15738.143 1097.780 15768.368 14808.355 16087.561 15872.115 18888.662 15426.035 15595.469 17493.387 16171.234 15654.459 9160.946 15683.329 17759.564 15705.566 16211.581 15236.354 21637.690 15819.772 16062.492 18793.475 20750.257 16579.351 14464.069 21484.695 9196.083 12251.803 17823.244 16566.575 23473.949 15208.053 13707.168 17446.161 17703.921 13202.327 19953.860 16125.849 16211.299 15765.786 15977.148 15945.048 18604.461 14414.719 21847.483 8164.077 17048.449 18083.855 15310.971 8249.359 13859.979 15790.752 15630.751 17065.000 16399.208 23225.330 16804.484 15613.357 17414.376 16129.293 15747.975 16548.944 15919.388 15625.838 15016.625 21505.788 15362.126 15845.460 15089.230 16757.427 14921.477 15337.626 16057.401 15831.688 19471.239 2349.469 14140.629 20393.419 15543.490 15938.308 15691.584 10122.026 13272.214 15875.752 16756.173 17366.098 10483.530 16371.770 12769.663 13611.128 23622.861 16998.161 15404.745 16740.403 15708.916 20311.811 16445.651 15508.710 15675.697 16135.831 11270.861 15733.549 14026.180 17361.373 13987.405 16763.423 24637.563 16369.955 13882.068 18965.670 16328.968 13635.240 15515.586 14092.363 17608.254 15840.859 24984.786 14932.820 16118.937 16354.312 16830.558 18108.195 14687.188 16114.626 16206.242 16134.663 16741.209 16800.629 18979.372 11106.558 18367.085 15616.161 11456.044 16266.064 17433.654 8075.504 16247.814 17548.297 14221.661 17567.701 24379.146 16002.278 17404.148 16818.748 23353.272 16000.690 17440.155 15972.075 16441.334 16381.910 15736.074 16401.761 1110.625 19426.084 26373.804 15077.794 15396.475 15928.893 17803.828 15021.467 25791.286 16212.105 15943.140 15309.187 5220.620 5810.269 20363.745
2342.184 2940.856 1873.963 12997.085 1102.040 15358.295 0.000 1565.905 1443.002 1481.146 1660.182 1354.046 1379.264 2317.605 2103.078 14171.687 1057.889 1333.488 16456.075 2445.858 2095.242 1053.548 937.755 7501.530 1381.381 1068.734 6106.255 1725.782 1324.756 8808.520 1156.594 4283.369 1178.831 1684.846 5339.869 12722.908 1420.532 1629.124 13823.929 7274.063 1870.123 1030.771 8008.500 8741.598 3197.550 7575.722 1857.347 9997.754 9923.230 3481.338 6364.722 6716.006 2280.212 13416.706 1599.114 1765.847 1239.051 1450.413 1010.689 4708.493 1233.568 8371.289 11814.899 6294.498 7836.333 1320.933 11900.181 2544.481 1280.879 1705.050 2736.527 1448.269 8516.102 3306.806 1362.804 6027.243 1602.558 1350.463 3325.019 1392.653 2081.237 766.072 8029.593 1111.573 2529.972 838.678 6697.513 670.924 1347.588 3585.257 797.675 6117.549 16399.173 9543.759 9006.286 1292.937 2234.869 1164.849 6186.077 2844.476 1349.017 11756.512 5978.966 4975.439 1662.542 2933.562 2526.288 10274.897 3721.197 1154.193 3417.953 19359.739 13043.089 3972.193 1964.109 1749.996 3470.351 5944.552 782.610 3846.414 6097.628 4046.965 2317.970 9928.334 2783.887 1964.573 6285.960 2742.900 2029.708 1265.033 1167.632 6221.122 1314.124 10275.557 2277.050 3487.244 2994.529 5651.352 7120.280 2252.269 2369.532 1255.303 1885.542 2031.981 3334.491 7592.239 4434.129 4567.168 1365.608 8925.085 1820.612 6046.522 11726.326 1802.362 6161.165 1677.946 6672.886 9669.918 1067.918 2910.695 2109.520 9877.077 1112.101 6694.370 2422.865 1995.882 1936.458 702.062 1956.309 16468.920 8038.951 11664.576 3963.692 370.561 1531.380 6815.913 277.636 11082.058 3282.836 1497.688 1319.149 12523.642 10671.763 5654.517
2622.392 2302.658 1460.040 13694.094 625.862 16039.297 1216.213 0.000 1029.079 2256.732 938.253 1580.445 965.341 3167.286 1864.644 13999.328 591.978 658.147 17137.076 2213.765 2375.450 1279.948 1787.437 7087.439 2372.435 568.407 5692.164 755.907 690.704 9505.529 465.547 5133.051 578.127 118.940 5620.077 12550.548 569.376 704.386 14673.611 8123.744 882.276 1994.844 8858.182 9438.607 3878.552 7403.363 869.500 10847.436 9750.871 3761.546 5950.631 6301.915 2961.213 14266.388 33.208 265.092 390.103 480.538 1860.370 5484.079 1914.569 9220.970 12511.908 6122.139 7663.974 1489.359 12597.190 2824.689 611.095 1291.127 1748.680 773.916 7528.255 4156.488 948.881 5613.152 36.652 641.173 4174.700 422.777 2361.445 1198.722 8879.274 1130.283 2297.878 1188.189 6525.154 1283.607 1046.787 3353.164 1221.346 6967.231 17080.174 9823.967 8592.196 867.080 3084.550 564.145 6867.079 3124.684 379.142 11584.152 5564.875 5894.129 674.695 3947.861 2806.496 9395.418 3026.390 1112.030 4267.635 20056.747 13892.771 3466.272 2019.851 1336.073 3238.257 6224.760 1072.485 4126.622 5925.268 4327.173 1348.095 8940.488 2089.080 2978.873 5406.481 2048.093 2710.709 1099.787 1848.634 5807.031 329.025 9287.711 3291.349 3255.151 2299.722 5478.992 6706.190 3266.569 3219.213 1020.559 2735.223 1044.134 2639.684 7178.149 5115.131 5342.755 772.987 9205.293 850.737 5632.431 12423.335 832.487 5747.074 1958.154 6258.796 8682.071 1917.600 1922.848 1121.673 10726.758 1961.782 6409.826 3272.546 1026.007 966.583 1551.743 986.434 17149.922 7624.861 10676.729 4243.900 1364.380 809.451 6401.823 1291.936 10094.211 4273.890 527.813 1487.575 13204.643 11352.765 4666.670
1593.314 1679.683 430.961 12961.200 809.601 15306.402 1582.462 1431.668 0.000 2697.076 963.588 2293.923 481.694 3533.535 835.565 12970.249 1105.036 644.037 16404.182 1184.686 1346.371 1993.426 2153.686 6300.092 2588.863 1091.777 4904.817 1077.128 560.353 8772.634 798.819 5499.300 761.866 1550.609 4590.998 11521.470 725.665 968.385 15039.860 8489.993 1892.260 1435.971 9224.431 8705.713 3145.657 6374.284 1794.097 11213.685 8721.792 2732.467 5163.284 5514.568 2228.319 14632.637 1464.877 1117.192 929.545 930.025 2226.619 5924.423 1063.934 9587.219 11779.013 5093.060 6634.895 460.280 11864.295 1795.610 696.646 262.048 2252.885 1991.317 8693.950 4522.737 342.593 4825.805 1468.321 653.869 4540.950 872.264 1332.366 715.076 9245.524 646.637 1268.800 704.542 5496.075 810.224 17.708 2324.085 1714.248 7333.480 16347.280 8794.888 7804.848 449.384 3450.799 720.260 6134.184 2095.605 871.916 10555.074 4777.528 5161.234 1599.291 3370.487 1777.417 9048.851 2495.151 628.383 4633.884 19323.853 14259.020 2711.021 990.772 306.994 2209.179 5195.681 1550.109 3097.543 4896.190 3298.094 1669.316 10106.183 1557.841 2401.499 5059.914 1516.854 2077.048 616.141 1289.761 5019.684 1179.887 10453.406 3237.580 2226.072 1768.483 4449.914 5918.842 3212.799 3585.462 2022.803 3101.473 2209.829 2108.445 6390.801 4382.236 5783.099 522.054 8176.214 1171.957 4845.084 11690.440 1153.707 4959.726 929.075 5471.448 9847.767 2283.849 2310.041 2287.368 11093.007 2328.032 5492.932 3638.795 1347.227 1287.804 1917.992 1307.655 16417.028 6837.513 11842.424 3214.821 1336.382 834.786 5614.475 1641.674 11259.907 4401.249 849.033 458.496 12471.749 10503.822 5832.365
3856.361 4043.767 3161.703 14071.390 2121.220 16564.712 1514.177 2585.085 2730.742 0.000 2679.362 1308.570 2667.004 1515.766 3566.307 15685.864 2077.069 2352.668 17662.492 3915.428 3609.419 1008.072 1124.632 8828.548 1639.255 2087.913 7433.273 2744.962 2343.936 9882.824 2175.774 3318.233 2198.011 2643.734 6854.045 14237.085 2439.712 2648.304 12858.793 6308.927 2275.777 2214.300 7043.364 9815.903 4457.594 9089.899 2263.001 9032.618 11437.407 4995.515 7691.740 8043.025 3540.255 12451.570 2618.294 2785.027 2258.231 2469.593 1197.566 3227.347 2747.745 7406.153 12889.203 7808.675 9350.510 2835.110 12974.485 4058.658 2300.059 2992.790 3142.181 1853.923 8921.756 2341.670 2650.544 7354.262 2621.738 2369.643 2595.921 2411.832 3595.414 2280.249 7064.457 2625.750 3999.541 2352.854 8211.690 2185.101 2748.450 5054.827 1270.399 5152.413 17605.590 11057.936 10333.305 2568.743 1505.771 2184.029 7336.983 4358.653 2368.197 13270.688 7305.984 6049.743 2068.196 4007.866 4040.465 10788.919 4767.499 2668.369 2452.817 20434.043 12077.953 5207.381 3478.286 3037.736 4939.921 7458.729 1335.574 5360.591 7611.804 5561.142 2780.455 10333.988 3830.189 3038.878 6799.982 3789.202 3167.521 2779.210 2427.676 7548.140 2333.304 10681.211 2929.029 4956.814 4040.831 7165.529 8447.299 2904.249 1547.085 1660.957 1292.940 2437.635 4380.794 8919.258 5694.173 3086.022 2474.650 10439.261 2839.792 7373.540 12800.631 2686.095 7488.183 3192.123 7999.905 10075.572 1067.428 3316.349 2515.174 8911.941 1064.600 8150.935 1693.767 2481.194 2820.191 1099.421 2975.489 17675.338 9365.970 12070.230 5477.869 1884.738 2550.560 8142.932 1461.165 11487.712 2756.566 2516.868 2833.326 13730.059 11873.162 6060.171
1958.793 1574.613 796.441 13310.453 396.934 15655.656 1316.604 1019.002 365.479 2431.219 0.000 1916.690 301.741 3267.677 1182.848 13335.729 692.369 231.370 16753.435 1550.165 1711.851 1616.192 1887.828 6359.394 2472.826 679.110 4964.119 664.461 147.686 9121.888 386.153 5233.442 349.199 1137.942 4956.477 11886.949 312.999 555.718 14774.002 8224.136 1479.593 1611.203 8958.573 9054.966 3494.911 6739.764 1381.431 10947.827 9087.272 3097.947 5222.586 5573.870 2577.572 14366.779 1052.210 704.526 516.878 517.358 1960.762 5658.566 1429.414 9321.361 12128.267 5458.539 7000.375 825.760 12213.549 2161.090 283.979 627.527 1768.607 1578.651 8281.284 4256.879 285.282 4885.107 1055.654 241.202 4275.092 459.598 1697.846 535.123 8979.666 466.684 1634.279 524.589 5861.555 630.272 383.188 2689.565 1337.015 7067.622 16696.533 9160.368 7864.151 203.480 3184.941 307.594 6483.438 2461.085 459.249 10920.553 4836.830 5510.488 1186.625 3620.508 2142.897 8852.045 2298.345 448.431 4368.026 19673.106 13993.162 2738.227 1356.252 672.473 2574.658 5561.161 1172.876 3463.023 5261.669 3663.574 1256.649 9693.516 1361.035 2651.520 4863.108 1320.047 2327.068 436.188 1464.993 5078.986 767.221 10040.739 3344.993 2591.552 1571.677 4815.393 5978.145 3320.213 3319.605 1645.569 2835.615 1797.162 1911.639 6450.104 4731.490 5517.241 109.388 8541.693 759.291 4904.386 12039.694 741.041 5019.029 1294.555 5530.751 9435.100 2017.991 1897.375 1874.701 10827.150 2062.174 5681.780 3372.937 934.561 875.137 1652.135 894.988 16766.281 6896.815 11429.758 3580.301 1357.462 422.120 5673.777 1392.327 10847.240 4374.281 436.367 823.976 12821.003 10869.301 5419.699
3263.679 3213.295 2331.231 13829.239 1290.748 16322.561 1272.026 1754.613 1900.270 1067.282 1848.890 0.000 1836.532 2092.006 2735.835 14870.519 1246.597 1522.196 17420.341 3084.956 3016.736 534.183 1080.877 7998.076 1595.500 1257.441 6602.801 1914.490 1513.464 9640.673 1345.302 4050.783 1367.539 1873.554 6261.363 13421.740 1609.240 1817.832 13591.343 7041.476 1801.888 1972.149 7775.914 9573.752 4187.363 8274.554 1789.113 9765.168 10622.062 4402.832 6861.268 7212.553 3270.024 13184.119 1787.822 1954.555 1427.759 1639.121 1153.811 4294.629 2223.380 8138.702 12647.052 6993.330 8535.165 2242.428 12732.335 3465.976 1469.587 2162.318 2668.292 1380.034 8447.867 3074.219 1820.072 6523.790 1791.266 1539.171 3099.421 1581.360 3002.731 1687.567 7797.006 2001.474 3169.069 1760.172 7396.345 1592.418 1917.978 4224.355 724.647 5884.963 17363.439 10465.253 9502.833 1738.271 2009.270 1353.557 7094.832 3765.971 1537.725 12455.344 6475.512 5807.592 1594.307 3765.715 3447.783 10315.030 3937.027 1983.221 3185.367 20191.892 12810.503 4376.909 2885.603 2207.264 4109.448 6866.046 789.822 4767.909 6796.459 4968.459 2306.566 9860.100 2999.717 2796.727 6326.093 2958.730 2925.370 1970.978 2157.445 6717.668 1502.832 10207.323 2686.878 4126.342 3210.359 6350.184 7616.827 2662.098 2143.933 1187.068 1659.944 1963.746 3550.322 8088.786 5423.942 4153.304 1644.178 9846.579 2009.320 6543.068 12558.480 1991.070 6657.711 2599.440 7169.433 9601.684 1023.674 2842.460 2041.285 9644.490 1020.845 7320.463 2197.266 2007.305 2125.166 857.270 2145.017 17433.187 8535.498 11596.341 4885.186 1642.587 1720.088 7312.460 1219.014 11013.823 3260.065 1686.396 2240.644 13487.908 11631.011 5586.282
2089.685 2050.834 927.332 13008.712 706.524 15353.914 1212.144 1328.591 496.371 2326.758 860.511 1812.229 0.000 3163.217 1331.936 13466.620 919.491 540.960 16451.694 1681.057 1842.742 1511.731 1783.367 6796.463 2308.202 930.335 5401.188 974.051 457.276 8820.146 695.742 5128.981 658.789 1447.532 5087.369 12017.841 622.588 865.308 14669.541 8119.675 1789.183 1309.462 8854.112 8753.225 3193.169 6870.656 1691.020 10843.366 9218.164 3228.838 5659.655 6010.939 2275.831 14262.318 1361.800 1014.115 826.468 826.948 1856.301 5554.105 1229.187 9216.900 11826.525 5589.431 7131.267 956.651 11911.807 2291.982 593.569 758.419 2244.829 1734.074 8560.196 4152.418 416.174 5322.176 1365.244 550.792 4170.631 769.187 1828.737 233.382 8875.205 164.943 1765.171 222.848 5992.447 328.530 514.079 2820.457 1232.554 6963.161 16394.792 9291.259 8301.220 346.307 3080.481 617.183 6181.696 2591.977 768.839 11051.445 5273.899 5208.746 1496.214 3318.767 2273.789 9328.266 2774.566 146.689 4263.565 19371.365 13888.701 3207.392 1487.144 803.365 2705.550 5692.052 1068.415 3593.915 5392.561 3794.465 1566.239 9972.429 1837.256 2349.778 5339.329 1796.269 2025.327 134.446 1163.252 5516.055 1076.810 10319.652 3043.252 2722.444 2047.898 4946.285 6415.213 3018.471 3215.144 1541.108 2731.154 2076.075 2387.861 6887.173 4429.749 5412.780 418.977 8672.585 1068.880 5341.455 11737.952 1050.630 5456.098 1425.446 5967.820 9714.013 1913.530 2206.964 2153.614 10722.689 1957.713 5989.304 3268.476 1244.150 1184.727 1547.674 1204.578 16464.540 7333.884 11708.670 3711.192 1055.721 731.709 6110.846 1287.866 11126.152 4186.646 745.956 954.867 12519.261 10667.383 5698.611
3758.828 4900.270 3833.378 13753.110 3055.423 16246.432 1959.415 3519.289 3402.417 1552.587 3613.565 2338.010 3338.679 0.000 4062.493 16131.102 3011.273 3286.871 17344.212 4405.273 4054.657 2037.512 1421.812 9460.944 1106.844 3022.117 8065.669 3679.166 3278.140 9564.544 3109.977 2154.160 3132.214 3638.229 7166.059 14682.322 3373.916 3582.507 11694.720 5144.853 3305.217 2433.343 5879.291 9497.623 4245.725 9535.137 3292.442 7868.545 11882.645 5265.073 8324.136 8675.420 3328.386 11287.497 3552.497 3719.230 3192.434 3403.797 1456.518 2999.057 3101.762 6242.079 12570.924 8253.913 9795.748 3280.348 12656.206 4371.532 3234.262 3664.464 4171.621 2883.363 9951.196 1177.597 3322.219 7986.657 3555.941 3303.846 1212.089 3346.036 4040.651 2725.487 5900.384 3070.988 4489.386 2798.092 8656.928 2630.338 3307.002 5544.672 2299.839 3988.340 17287.310 11327.494 10965.701 3252.352 121.939 3118.232 7018.703 4369.436 3302.400 13715.926 7938.380 5731.463 3097.636 3689.586 4051.248 11818.359 5680.612 3113.607 1288.744 19341.546 10913.880 5931.608 3923.523 3709.411 5429.765 7728.287 2365.014 5630.149 8057.042 5873.155 3809.895 11363.429 4743.302 2720.598 7829.422 4702.314 2849.241 3224.448 2646.718 8180.536 3267.508 11710.652 1835.822 5446.659 4953.944 7610.766 9079.695 2109.149 240.322 2690.397 432.063 3467.075 5293.906 9551.654 5482.304 2761.681 3325.023 10708.820 3773.995 8005.936 12482.351 3715.535 8120.579 3637.361 8632.301 11105.013 1253.502 4345.789 3544.614 7747.868 1209.319 8653.785 309.935 3510.634 3849.631 1721.906 3909.693 17357.058 9998.366 13099.670 5923.106 2329.976 3484.763 8775.328 1906.403 12517.152 1372.734 3451.071 3278.564 13411.779 11554.882 7089.611
2004.120 935.854 722.411 13372.006 1079.982 15717.209 1985.288 1702.049 808.783 3099.902 1026.357 2585.373 773.144 3936.361 0.000 12776.311 1375.417 914.418 16814.988 990.747 1520.169 2284.875 2556.511 5720.635 3081.346 1362.158 4325.360 1186.959 830.734 9183.441 1069.200 5902.125 1032.247 1820.990 4544.611 11327.531 996.046 756.355 15442.685 8892.819 2002.091 2071.755 9627.256 9116.519 3556.464 6180.346 1903.928 11616.510 8527.854 2906.265 4583.827 4935.111 2639.125 15035.462 1735.258 1252.937 1199.926 1151.288 2629.445 6327.249 1474.741 9990.044 12189.820 4899.121 6390.018 851.277 12275.102 1969.409 967.027 553.498 1417.320 2261.698 8440.107 4925.562 728.586 4246.348 1738.702 924.250 4943.775 1093.528 1223.908 1006.526 9648.349 938.087 1074.861 995.992 5302.137 1101.674 826.491 2130.147 2005.698 7736.305 16758.086 8642.809 7225.392 740.834 3853.625 990.641 6544.991 2506.412 1142.297 10361.135 4198.071 5572.041 1709.122 3781.294 2188.224 8213.286 1659.586 919.833 5036.709 19734.659 14661.845 2099.468 796.834 598.444 2015.240 5369.479 1841.559 3271.341 4702.251 3471.892 1779.147 9852.339 722.276 2812.305 4224.349 681.289 2487.854 907.591 1925.544 4440.227 1450.268 10199.562 3816.396 2032.134 932.918 4255.975 5339.386 3746.653 3988.288 2314.252 3504.298 1871.237 1272.880 5811.345 4793.043 6185.924 792.435 8350.012 1090.349 4265.627 12101.247 1263.539 4380.270 1339.881 4891.992 9593.923 2686.674 2419.873 2033.525 11495.833 2730.857 5043.022 4041.620 1457.058 1397.635 2320.818 1133.554 16827.834 6258.057 11588.581 3167.848 1828.865 897.555 5035.019 2061.010 11006.063 4959.790 984.778 828.886 12882.555 10677.620 5578.522
12989.262 11993.419 12904.110 23246.026 13282.750 23367.528 14166.986 13904.817 12990.482 15281.601 13329.968 14767.072 12954.843 16118.059 12303.611 0.000 13578.185 13117.185 24465.307 12106.587 12933.524 14466.574 14738.210 7514.324 15263.044 13564.925 9504.993 13490.570 13033.502 19057.460 13271.968 18083.824 13235.014 14023.757 10560.969 1503.246 13198.814 13059.965 27413.530 21074.517 14305.702 14109.897 21808.955 18990.539 14427.389 6998.694 14207.539 23798.209 9028.380 12202.033 8843.321 8448.413 14424.155 27006.307 13938.025 13556.548 13402.694 13403.173 14811.144 18508.948 13469.806 22171.743 22063.839 8506.990 7484.090 13005.768 22149.122 12443.811 13169.795 12735.197 13720.931 14464.466 17180.951 17107.261 12910.284 9430.652 13941.469 13127.018 17111.722 13345.413 12533.745 13188.224 21830.048 13119.785 11627.491 13177.691 7923.215 13283.373 13008.190 10608.682 14187.397 19918.004 25497.922 9165.883 7708.920 12922.532 16035.323 13193.409 16424.029 13149.064 13345.064 7563.443 9382.374 15446.061 14012.733 15146.431 12904.459 13638.387 11588.154 13101.532 17218.408 29608.679 26632.690 10940.058 12546.610 12780.143 10687.112 12559.427 14023.258 12521.045 9346.386 11449.909 14082.758 20713.364 12796.508 14498.102 10945.729 12755.520 14173.651 13089.289 13946.741 9506.703 13653.036 18940.407 15611.213 10670.218 12091.386 8901.853 9231.440 15441.807 16169.987 14495.951 15685.997 14174.848 11848.247 7433.559 15064.683 18367.623 12995.203 12596.547 13393.960 9304.264 21975.267 13567.149 9134.883 12980.480 8964.861 20454.948 14868.373 14723.483 14337.135 23677.532 14912.556 8742.030 16223.319 13760.669 13701.246 14502.516 13437.165 24478.153 6986.848 22654.123 11040.809 14010.563 13201.166 8323.150 14242.709 22071.606 16774.882 13288.389 12983.377 21011.020 17855.420 17882.133
2439.460 2159.172 1277.108 13485.153 416.922 15830.356 1007.272 891.053 846.147 2121.886 794.767 1607.358 782.409 2958.345 1681.712 13816.396 0.000 468.073 16928.135 2030.833 2192.518 1306.860 1578.496 6943.953 2163.494 359.467 5548.678 825.795 495.072 9296.588 256.606 4924.110 369.186 1009.993 5437.145 12367.616 555.117 763.708 14464.670 7914.803 1377.764 1785.903 8649.241 9229.666 3669.611 7220.431 1364.988 10638.495 9567.939 3578.614 5807.145 6158.429 2752.273 14057.447 924.261 865.859 181.162 550.426 1651.429 5349.233 1705.628 9012.029 12302.967 5939.207 7481.042 1306.427 12388.249 2641.757 415.464 1108.195 2178.897 1269.403 8023.742 3947.547 765.949 5469.666 927.705 485.048 3965.760 492.665 2178.513 1015.790 8670.334 947.351 2114.946 1005.257 6342.222 1074.666 863.855 3170.232 1027.683 6758.290 16871.233 9641.035 8448.710 684.148 2875.609 355.204 6658.138 2941.752 449.029 11401.220 5421.389 5685.188 1170.182 3738.920 2623.564 9436.604 2882.904 929.098 4058.694 19847.806 13683.830 3322.786 1836.919 1153.141 3055.325 6041.828 863.544 3943.690 5742.336 4144.241 1417.983 9435.975 1945.594 2769.932 5447.667 1904.607 2501.769 916.855 1639.693 5663.545 639.272 9783.198 3082.408 3072.219 2156.236 5296.060 6562.704 3057.628 3010.272 1336.237 2526.283 1539.621 2496.198 7034.663 4906.190 5207.909 590.055 9022.361 920.624 5488.945 12214.394 902.374 5603.588 1775.222 6115.310 9177.559 1708.659 2058.708 1617.160 10517.817 1752.841 6266.340 3063.605 1095.894 1036.471 1342.802 1056.322 16940.981 7481.375 11172.217 4060.968 1155.440 665.965 6258.337 1082.995 10589.699 4064.949 597.700 1304.643 12995.703 11143.824 5162.158
1971.388 1691.099 809.035 13323.048 331.313 15668.250 1152.230 844.316 378.074 2266.844 326.694 1752.315 314.336 3103.303 1213.639 13348.323 527.995 0.000 16766.030 1562.760 1724.445 1451.817 1723.453 6475.880 2308.451 504.424 5080.605 440.234 160.281 9134.482 211.466 5069.067 283.578 963.256 4969.072 11899.544 88.771 331.491 14609.627 8059.761 1255.366 1623.798 8794.198 9067.561 3507.505 6752.358 1157.203 10783.452 9099.866 3110.541 5339.072 5690.357 2590.167 14202.404 877.524 480.298 342.192 293.131 1796.387 5494.191 1442.008 9156.986 12140.861 5471.134 7012.969 838.354 12226.143 2173.684 52.609 640.122 1793.336 1403.964 8057.056 4092.504 297.876 5001.594 880.968 16.975 4110.717 235.370 1710.440 547.718 8815.291 479.279 1646.874 537.184 5874.149 642.866 395.782 2702.159 1172.640 6903.247 16709.128 9172.962 7980.637 216.075 3020.567 168.639 6496.032 2473.679 284.563 10933.148 4953.316 5523.082 962.397 3633.103 2155.491 8968.531 2414.831 461.025 4203.651 19685.701 13828.787 2854.713 1368.846 685.068 2587.253 5573.755 1008.501 3475.617 5274.264 3676.168 1032.422 9469.289 1477.521 2664.114 4979.594 1436.534 2339.663 448.782 1477.587 5195.472 592.535 9816.512 3227.366 2604.146 1688.163 4827.988 6094.631 3202.585 3155.230 1481.194 2671.240 1572.935 2028.126 6566.590 4744.084 5352.866 121.982 8554.288 535.063 5020.872 12052.288 516.813 5135.515 1307.149 5647.237 9210.873 1853.616 1673.147 1650.474 10662.775 1897.799 5798.267 3208.562 710.333 650.910 1487.760 670.761 16778.876 7013.302 11205.530 3592.895 1300.397 197.892 5790.264 1227.952 10623.013 4209.907 212.139 836.570 12833.597 10881.896 5195.471
14782.171 17304.073 16847.393 8811.512 16676.503 1097.780 16081.741 17140.369 16741.283 17562.887 17105.423 17435.787 16677.545 17107.975 16695.408 24134.198 16632.353 16785.872 0.000 16816.096 15856.083 17135.289 16919.843 19936.391 16473.763 16643.197 18541.116 17218.963 16702.188 10208.675 16731.057 18807.293 16753.295 17259.309 16284.082 22685.419 16867.500 17110.220 19458.463 21797.986 17627.080 15511.798 22532.424 10243.811 13299.532 18870.972 17614.304 24521.678 16255.782 14754.896 18493.890 18751.649 14250.055 20618.848 17173.577 17259.027 16813.515 17024.877 16992.777 19652.190 15462.447 22895.212 9211.805 18096.178 19131.584 16358.700 9297.087 14907.708 16838.481 16678.480 18112.728 17446.937 24273.058 17852.213 16661.086 18462.104 17177.021 16795.704 17596.673 16967.116 16673.566 16064.354 22553.516 16409.855 16893.189 16136.959 17805.155 15969.205 16385.354 17105.130 16879.416 20518.968 1969.000 15188.358 21441.148 16591.219 16986.036 16739.312 11169.754 14319.942 16923.480 17803.901 18413.827 11531.259 17419.498 13817.392 14658.857 24670.590 18045.890 16452.474 17788.131 16373.904 20976.798 17493.380 16556.438 16723.426 17183.560 12318.589 16781.278 15073.908 18409.101 15035.134 17811.151 25685.291 17417.684 14929.796 20013.399 17376.697 14682.968 16563.315 15140.091 18655.983 16888.588 26032.514 15980.548 17166.666 17402.040 17878.286 19155.924 15734.916 17162.355 17253.971 17182.392 17788.937 17848.358 20027.101 12154.286 19414.814 16663.889 12503.773 17313.792 18481.383 9123.232 17295.543 18596.026 15269.390 18615.430 25426.875 17050.006 18451.877 17866.476 24401.000 17048.418 18487.883 17019.803 17489.062 17429.639 16783.803 17449.490 39.425 20473.812 27421.533 16125.522 16444.204 16976.621 18851.557 16069.196 26839.015 17259.833 16990.868 16356.916 6268.348 6857.997 21411.474
1925.276 1116.601 1069.719 13409.555 1448.359 15640.125 2264.080 2070.427 1156.092 3378.694 1602.346 2932.681 1120.452 4215.153 906.507 12407.166 1743.794 1282.795 16737.905 0.000 1297.179 2632.184 2835.303 5737.009 3270.481 1730.535 4341.734 1715.886 1199.111 9220.990 1437.577 6180.918 1400.624 2189.367 3957.084 10958.387 1364.423 1607.143 15721.477 9171.611 2531.018 2117.588 9906.049 9154.068 3594.013 5811.201 2432.855 11895.302 8158.710 2683.275 4600.201 4951.485 2676.675 15314.254 2103.635 1755.950 1568.303 1568.783 2908.237 6606.041 1512.290 10268.837 12227.369 4529.977 6071.813 1171.378 12312.651 1746.418 1335.404 900.806 2323.828 2630.075 9332.708 5204.354 1075.894 4262.722 2107.079 1292.627 5222.567 1511.022 446.489 1353.834 9927.141 1285.395 705.717 1343.300 4932.992 1448.982 1173.800 1761.002 2353.007 8015.098 16795.636 8273.665 7241.766 1088.142 4132.417 1359.019 6582.540 2427.568 1510.674 9991.991 4214.445 5609.590 2238.050 3818.843 2109.380 8601.291 2047.591 1267.142 5315.501 19772.209 14940.638 2147.938 440.023 945.752 1646.096 5146.489 2188.868 3048.351 4333.107 3248.902 2308.074 10744.941 1628.784 2849.854 4612.354 1587.796 2525.403 1254.899 1971.378 4456.601 1818.645 11092.164 3919.197 1662.989 1214.568 3886.831 5355.759 3784.203 4267.080 2661.561 3783.090 2777.744 1660.886 5827.719 4830.592 6464.716 1160.813 8127.022 1810.716 4282.001 12138.796 1792.466 4396.644 1375.634 4908.365 10486.525 2965.466 2948.800 2926.126 11774.625 3009.649 4929.849 4320.413 1985.986 1926.562 2599.610 1946.413 16750.750 6274.430 12481.183 2390.428 2017.999 1473.544 5051.392 2323.291 11898.665 5082.866 1487.792 1148.987 12805.472 10454.629 6471.124
1065.662 2075.905 1390.112 12433.548 1768.752 14778.750 1746.316 2310.873 1476.485 2984.664 1922.739 2695.596 1440.846 3469.460 1238.128 13306.736 1802.857 1603.188 15876.530 1580.907 0.000 2395.098 2441.273 6636.579 2362.615 1813.701 5241.304 2036.279 1519.504 8244.982 1757.971 5516.259 1721.017 2429.813 4262.183 11857.957 1684.817 1927.536 14763.353 8506.952 2797.583 1176.373 9241.390 8178.061 2618.005 6710.771 2753.249 11230.644 9024.657 2371.769 5499.771 5851.055 1700.667 14356.130 2344.081 2076.344 1888.696 1889.176 2514.207 6212.011 536.282 9604.178 11251.361 5429.547 6971.383 901.420 11336.643 1434.912 1655.797 1221.199 2655.448 2617.441 9443.562 4539.696 1396.287 5162.292 2347.525 1613.020 4437.671 1831.416 1216.286 1222.446 9262.483 1567.947 1665.021 1295.051 5832.562 1127.297 928.074 2720.307 2115.921 7350.439 15819.628 8434.190 8141.336 1408.535 3347.521 1679.412 5606.532 1567.953 1831.067 10857.938 5114.015 4633.582 2558.443 2842.835 1249.765 9451.414 2897.714 1587.535 4629.130 18796.201 13982.513 3107.242 1099.158 1266.145 2605.400 4834.983 1951.782 2736.845 5232.677 2969.280 2628.467 10855.795 1960.404 1873.847 5462.477 1919.416 1549.396 1575.292 1013.217 5356.171 2059.092 11203.018 2961.036 2622.294 2171.046 4786.401 6255.329 2808.195 3602.421 2424.475 3326.555 2959.441 2511.008 6727.289 3854.584 6070.686 1481.206 7815.516 2131.109 5181.571 11162.788 2112.859 5296.214 401.423 5807.936 10597.379 2571.436 3269.193 3036.980 11109.967 2615.619 5829.419 3535.517 2306.379 2246.955 2205.580 2266.806 15889.376 7174.000 12592.037 3001.243 1623.969 1793.938 5950.962 1733.771 12009.519 4124.705 1808.185 899.635 11944.097 10092.219 6581.978
3086.079 3035.695 2153.631 13825.305 1113.148 16170.507 1318.807 1577.013 1722.670 1229.208 1671.290 300.498 1658.932 2253.932 2558.235 14692.919 1068.997 1344.596 17268.287 2907.356 2839.136 0.000 1216.662 7820.476 1757.426 1079.841 6425.201 1736.890 1335.864 9636.739 1167.701 4212.709 1189.939 1694.358 6083.763 13244.139 1431.640 1640.231 13753.269 7203.402 1326.400 2095.847 7937.840 9569.818 4009.762 8096.954 1313.625 9927.094 10444.462 4225.232 6683.668 7034.952 3092.424 13346.046 1610.221 1776.954 1250.159 1461.521 1289.596 4456.555 2045.780 8300.628 12643.118 6815.730 8357.565 2064.828 12728.400 3288.375 1291.987 1984.717 2192.805 904.546 7972.379 3236.146 1642.472 6346.189 1613.665 1361.571 3261.347 1403.760 2825.131 1509.966 7958.933 1823.874 2991.469 1582.572 7218.745 1414.818 1740.378 4046.755 262.326 6046.889 17211.385 10287.653 9325.233 1560.671 2171.196 1175.957 6998.289 3588.370 1360.124 12277.743 6297.912 5931.290 1118.819 3889.414 3270.182 9839.543 3759.427 1805.621 3347.293 20187.958 12972.429 4199.309 2708.003 2029.664 3931.848 6688.446 327.502 4590.308 6618.859 4790.859 1831.079 9384.612 2822.117 2920.425 5850.606 2781.130 2841.920 1793.378 1979.845 6540.068 1325.232 9731.835 2810.577 3948.742 3032.759 6172.583 7439.227 2785.796 2305.859 711.581 1821.870 1488.258 3372.721 7911.186 5246.342 4315.231 1466.578 9668.979 1831.719 6365.468 12554.546 1736.718 6480.111 2421.840 6991.833 9126.196 1185.600 2366.973 1565.797 9806.416 1182.771 7142.862 2359.192 1531.817 1870.815 980.969 1967.417 17281.133 8357.898 11120.854 4707.586 1495.591 1542.488 7134.859 1342.713 10538.336 3421.992 1508.795 2063.044 13335.854 11483.976 5110.795
2917.934 3516.606 2449.713 13132.963 1671.759 15626.286 575.750 2135.624 2018.752 1124.632 2229.901 1225.781 1955.014 1417.997 2678.828 14747.437 1627.608 1903.207 16724.065 3021.608 2670.992 925.284 0.000 8077.280 787.148 1638.452 6682.005 2295.501 1894.475 8944.398 1726.312 3383.762 1748.550 2254.565 5915.619 13298.658 1990.251 2198.842 12924.322 6374.455 2192.988 1275.873 7108.893 8877.476 3519.167 8151.472 2180.213 9098.147 10498.980 4057.088 6940.472 7291.756 2601.828 12517.098 2168.833 2335.565 1808.770 2020.132 111.081 4228.659 1809.318 7471.681 11950.777 6870.248 8412.083 1896.683 12036.059 3120.231 1850.598 2280.800 3059.393 1771.134 8838.967 2407.198 1938.554 6602.993 2172.276 1920.182 2425.411 1962.371 2656.987 1341.822 7129.985 1687.323 3105.722 1414.428 7273.263 1246.674 1923.338 4161.007 1187.610 5217.942 16667.163 10119.509 9582.036 1868.687 1335.261 1734.568 6398.556 3420.226 1918.735 12332.262 6554.716 5111.316 1985.407 3069.440 3102.038 10706.131 4296.947 1729.942 2518.346 19495.616 12143.482 4547.943 2539.859 2325.746 4046.101 6520.302 1252.786 4422.164 6673.377 4622.715 2697.667 10251.200 3359.637 2100.451 6717.194 3318.650 2229.094 1840.783 1489.249 6796.871 1883.843 10598.423 1990.603 4062.994 3570.279 6227.102 7696.030 1965.822 1469.924 1578.169 985.934 2354.846 3910.241 8167.989 4755.746 3991.283 1941.358 9500.835 2390.330 6622.272 11862.204 2372.081 6736.914 2253.696 7248.636 9992.784 168.310 3233.561 2432.385 8977.469 212.493 7270.120 1523.257 2398.405 2506.177 338.241 2526.028 16736.911 8614.701 11987.442 4539.442 946.311 2101.099 7391.663 522.738 11404.924 2586.056 2067.406 1894.899 12791.632 10934.735 5977.383
6484.614 5230.397 6414.055 18089.149 6771.626 19107.919 7660.494 7352.580 6500.427 8775.108 6575.921 8260.580 6464.788 9611.567 5964.875 7564.538 7036.259 6508.265 20205.699 5767.850 6650.604 7960.082 8231.718 0.000 8772.990 7012.689 2060.264 6736.523 6522.378 13900.584 6719.731 11577.332 6723.891 7383.890 4701.870 6426.383 6589.893 6305.919 20908.882 14568.025 7493.787 7774.250 15302.463 13833.663 8310.248 2822.348 7453.493 17291.717 5665.247 6084.892 2066.450 1572.469 7919.507 20501.659 7385.789 6802.501 6850.457 6700.853 8304.651 12002.455 7186.886 15665.251 16906.963 2682.883 2644.000 6572.029 16992.245 5939.162 6560.874 6245.142 6639.478 7857.392 10568.877 10600.769 6420.230 1981.253 7389.233 6518.097 10607.074 6643.092 6195.009 6698.170 15323.556 6629.731 5288.755 6687.636 2439.529 6793.318 6518.135 4269.946 7680.905 13411.512 20760.168 5780.202 1569.682 6432.478 9528.831 6676.904 11262.134 6644.416 6792.828 7498.528 1932.976 10289.184 7258.687 8641.782 6399.811 7499.150 4291.116 6611.477 10711.916 24451.803 20128.042 4071.546 6207.874 6290.088 4348.376 8083.425 7516.766 6237.357 2998.233 5537.858 7328.712 14101.290 5618.212 7993.454 4589.820 5577.224 7669.003 6599.235 7628.040 2057.304 7100.799 12328.333 9106.565 4331.482 5023.361 3042.754 2355.495 8937.159 9663.494 7989.459 9179.505 7093.395 4551.208 155.635 9546.827 11861.131 6484.079 8655.914 6639.913 2041.448 16818.390 6813.103 1848.305 6709.860 2187.990 13842.874 8361.881 7969.437 7255.683 17171.039 8406.064 2339.019 9716.827 7006.623 6947.200 7996.024 6683.118 20218.544 602.347 16042.049 4450.396 7520.509 6447.119 1447.206 7736.217 15459.531 10270.234 6534.343 6549.638 16273.266 13849.240 10800.680
2836.953 4080.235 3025.321 12831.235 2247.367 15324.558 1151.358 2711.232 2594.360 1701.770 2805.509 1899.303 2530.622 1106.844 3242.458 15311.067 2203.216 2478.815 16422.337 3585.238 3234.621 1598.806 787.148 8640.909 0.000 2214.060 7245.634 2871.109 2470.083 8642.670 2301.921 3153.644 2324.158 2830.173 6244.184 13862.287 2565.859 2774.450 12694.204 6144.337 2866.510 1326.498 6878.775 8575.748 3323.850 8715.102 2853.735 8868.029 10996.086 4343.198 7504.101 7855.385 2406.512 12286.980 2744.441 2911.174 2384.378 2595.740 821.854 3998.541 1994.918 7241.563 11649.049 7433.878 8975.713 2472.291 11734.331 3449.657 2426.206 2856.408 3732.914 2444.656 9512.489 2177.080 2514.162 7166.622 2747.885 2495.790 2075.056 2537.979 3220.616 1917.430 6899.867 2262.931 3669.351 1990.036 7836.893 1822.282 2498.946 4724.637 1861.132 4987.824 16365.436 10405.619 10145.666 2444.295 984.905 2310.176 6096.829 3447.561 2494.344 12829.367 7118.345 4809.588 2658.929 2767.712 3129.374 11379.653 4872.555 2305.551 2266.515 19193.889 11913.364 5111.572 3103.488 2901.354 4609.730 6806.412 1858.853 4708.275 7237.007 4951.280 3371.188 10924.722 3935.245 1798.723 7390.715 3894.258 1927.367 2416.391 1539.874 7360.501 2459.451 11271.945 1483.927 4626.624 4145.887 6790.731 8259.660 1459.146 1239.806 2251.690 963.940 3028.368 4485.850 8731.619 4560.429 3761.165 2516.966 9786.945 2965.939 7185.901 11560.476 2947.689 7300.544 2761.560 7812.266 10666.306 618.838 3907.083 3105.907 8747.351 574.655 7833.750 1172.901 3071.927 3081.785 1040.757 3101.636 16435.183 9178.331 12660.963 5003.093 1521.919 2676.707 7955.292 1098.346 12078.446 1901.455 2643.015 2470.507 12489.905 10633.008 6650.904
2236.142 1955.854 1073.789 13467.823 70.272 15813.026 989.942 840.036 642.828 2104.556 591.448 1590.028 579.090 2941.015 1478.393 13613.078 365.707 264.754 16910.805 1827.514 1989.200 1289.530 1561.166 6740.635 2146.164 0.000 5345.360 657.049 256.023 9279.258 87.860 4906.780 110.098 958.976 5233.826 12164.298 351.799 560.390 14447.340 7897.473 1360.434 1768.573 8631.911 9212.336 3652.281 7017.113 1347.658 10621.165 9364.621 3375.296 5603.827 5955.111 2734.942 14040.117 873.244 697.113 337.912 381.680 1634.099 5331.903 1688.298 8994.699 12285.637 5735.888 7277.724 1103.109 12370.919 2438.439 212.145 904.876 2010.151 1252.073 8006.412 3930.217 562.631 5266.348 876.688 281.729 3948.430 323.919 1975.195 812.472 8653.003 744.033 1911.628 801.938 6138.904 907.621 660.537 2966.914 1010.353 6740.960 16853.903 9437.717 8245.392 480.829 2858.279 96.115 6640.808 2738.434 280.283 11197.902 5218.071 5667.858 1152.852 3721.590 2420.246 9233.286 2679.586 725.780 4041.364 19830.476 13666.500 3119.468 1633.601 949.822 2852.007 5838.510 846.214 3740.372 5539.018 3940.922 1249.237 9418.645 1742.276 2752.602 5244.349 1701.288 2484.438 713.537 1622.363 5460.227 588.255 9765.868 3065.078 2868.901 1952.918 5092.742 6359.385 3040.298 2992.942 1318.907 2508.953 1522.291 2292.880 6831.345 4888.860 5190.579 386.737 8819.042 751.878 5285.627 12197.064 733.628 5400.270 1571.904 5911.992 9160.229 1691.329 1889.962 1599.830 10500.487 1735.511 6063.021 3046.275 927.148 867.725 1325.472 887.576 16923.651 7278.056 11154.887 3857.650 1138.110 462.646 6055.018 1065.665 10572.369 4047.619 428.954 1101.324 12978.373 11126.494 5144.828
5073.748 3819.532 5003.189 16678.283 5360.760 17697.053 6249.628 5941.714 5089.561 7364.243 5165.055 6849.714 5053.922 8200.701 4554.009 9512.969 5625.393 5097.399 18794.833 4356.985 5239.738 6549.216 6820.852 2013.356 7362.124 5601.823 0.000 5325.658 5111.512 12489.718 5308.865 10166.466 5313.025 5973.024 3875.356 8337.549 5179.027 4895.053 19498.016 13157.159 6082.921 6363.384 13891.597 12422.797 6899.382 2758.385 6042.627 15880.851 5585.219 4674.027 1240.359 1125.130 6508.641 19090.793 5974.923 5391.636 5439.591 5289.987 6893.786 10591.590 5776.020 14254.385 15496.097 1856.370 2580.036 5161.163 15581.379 4528.297 5150.008 4834.276 5228.613 6446.526 9158.011 9189.903 5009.364 148.840 5978.367 5107.231 9196.208 5232.226 4784.143 5287.304 13912.690 5218.865 3877.889 5276.770 2375.566 5382.452 5107.270 2859.080 6270.039 12000.646 19349.302 5700.175 3518.113 5021.612 8117.965 5266.038 9851.268 5233.550 5381.962 7418.500 127.289 8878.318 5847.821 7230.917 4988.945 7836.145 2880.250 5200.612 9301.050 23040.937 18717.176 2660.680 4797.008 4879.222 2937.510 6672.559 6105.900 4826.491 1598.138 4126.992 5917.846 12690.424 4207.346 6582.588 3178.954 4166.359 6258.137 5188.369 6217.174 114.867 5689.933 10917.467 7695.699 2920.616 3612.495 2216.240 1529.405 7526.293 8252.629 6578.593 7768.639 5682.529 3140.342 2104.066 8135.961 10450.265 5073.214 8575.887 5229.047 514.848 15407.524 5402.237 380.737 5298.994 1361.899 12432.008 6951.015 6558.571 5844.817 15760.174 6995.198 1512.928 8305.961 5595.757 5536.334 6585.158 5272.252 18807.679 2550.778 14631.183 3039.531 6109.643 5036.253 1225.037 6325.351 14048.666 8859.368 5123.477 5138.772 14862.400 12438.374 9389.814
3004.384 1792.792 1693.567 14372.270 1260.862 16717.473 1982.116 766.307 1518.724 2603.685 1215.449 1927.398 1454.986 3628.410 1515.245 13725.879 1357.881 1147.792 17815.252 1991.012 2520.434 1626.901 2553.340 6577.573 3131.904 1334.311 5182.298 0.000 1219.687 10183.705 1100.547 5587.186 1213.127 647.366 5544.875 12277.099 1098.359 945.447 15127.746 8577.879 815.132 2760.747 9312.317 10116.783 4556.728 7129.914 716.969 11301.571 9477.422 3906.529 5440.765 5792.049 3639.390 14720.523 733.098 793.518 1149.062 1009.520 2626.274 5831.032 2475.005 9675.105 13190.084 5848.690 7246.956 1851.541 13275.366 2969.673 1140.078 1524.654 1353.103 1120.869 7616.822 4610.623 1438.526 5103.286 736.542 1157.625 4635.824 951.760 2224.172 1688.367 9333.410 1619.928 2075.125 1677.834 6251.705 1783.516 1536.432 3130.411 1568.299 7421.366 17758.351 9592.378 8082.330 1356.725 3545.674 1116.295 7545.255 3506.676 908.124 11310.703 5055.009 6572.305 522.164 4713.765 3188.488 9070.224 2516.524 1601.675 4721.770 20734.923 14346.906 2956.406 1797.098 1569.600 3015.504 6369.743 1427.312 4271.606 5651.819 4472.156 592.188 9029.055 1693.432 3744.776 5081.287 1652.445 3476.613 1589.432 2614.537 5297.165 1094.928 9376.278 4057.252 3032.398 1789.856 5205.543 6196.324 4032.472 3680.337 1367.512 3196.347 1132.701 2129.818 6668.283 5793.307 5689.708 1262.632 9350.276 96.610 5122.565 13101.511 76.580 5237.208 2340.146 5748.930 8770.639 2560.077 1232.914 1210.240 11180.893 2557.249 5899.959 3733.669 270.100 210.676 2317.646 232.308 17828.098 7114.994 10765.297 4168.112 2130.284 1086.647 5891.956 2057.839 10182.779 4796.469 1056.795 1829.150 13882.820 11677.884 4755.238
2243.418 1963.130 1081.066 13595.078 249.248 15940.281 1168.918 871.315 650.104 2283.532 598.724 1769.004 586.366 3119.991 1485.670 13620.354 544.683 272.030 17038.060 1834.790 1996.476 1468.506 1740.142 6747.911 2325.140 531.424 5352.636 676.409 0.000 9406.513 238.466 5085.756 201.513 990.256 5241.102 12171.574 359.075 567.666 14626.316 8076.449 1491.541 1895.828 8810.887 9339.591 3779.536 7024.389 1393.378 10800.141 9371.897 3382.572 5611.103 5962.387 2862.197 14219.093 904.524 716.473 369.192 412.959 1813.075 5510.879 1714.039 9173.675 12412.892 5743.164 7285.000 1110.385 12498.174 2445.715 219.421 912.152 2029.512 1430.964 8185.304 4109.193 569.907 5273.624 907.968 289.005 4127.406 355.198 1982.471 819.748 8831.979 751.309 1918.904 809.214 6146.180 914.897 667.813 2974.190 1189.329 6919.936 16981.158 9444.993 8252.668 488.105 3037.255 159.907 6768.063 2745.710 311.563 11205.178 5225.347 5795.113 1198.572 3900.566 2427.522 9240.562 2686.862 733.056 4220.340 19957.731 13845.476 3126.744 1640.877 957.098 2859.283 5845.786 1025.190 3747.648 5546.294 3948.199 1268.597 9597.536 1749.552 2931.578 5251.625 1708.564 2611.693 720.813 1749.618 5467.503 619.534 9944.759 3244.054 2876.177 1960.194 5100.018 6366.662 3219.274 3171.918 1497.883 2687.929 1701.182 2300.156 6838.621 5016.115 5369.555 394.013 8826.318 771.238 5292.903 12324.319 752.989 5407.546 1579.180 5919.268 9339.120 1870.305 1909.323 1778.721 10679.463 1914.487 6070.297 3225.251 946.508 887.085 1504.448 906.936 17050.906 7285.332 11333.778 3864.926 1317.085 469.923 6062.294 1244.641 10751.260 4226.595 448.314 1108.601 13105.628 11153.926 5323.719
7785.310 10396.666 9710.873 5957.450 9479.735 9525.341 8884.973 9943.600 9544.515 10366.119 9908.655 10239.018 9480.777 9574.787 9558.889 19237.699 9435.584 9589.103 10573.070 9901.668 9036.242 9938.521 9412.989 13819.345 8940.575 9446.429 12424.070 10022.194 9505.420 0.000 9534.289 11274.104 9556.526 10062.541 10210.992 17788.920 9670.732 9913.452 15404.662 14264.798 10430.311 8315.029 14999.235 260.541 6102.763 13412.760 10417.536 16988.489 12287.697 8687.055 12376.844 12634.604 7053.287 16565.047 9976.809 10062.259 9616.746 9828.108 9485.923 12119.001 8265.679 15362.023 4775.264 11979.132 13673.371 9222.180 4860.546 8366.248 9641.712 9541.960 10976.209 10250.168 17076.290 10319.024 9464.317 12345.058 9980.253 9598.936 10063.484 9770.348 9537.047 8867.585 15020.328 9213.086 9985.782 8940.191 12534.551 8772.437 9248.835 10587.890 9682.648 12985.779 9661.226 11697.230 15324.102 9394.450 9452.848 9542.544 3463.059 7830.196 9726.712 14120.978 12296.781 3998.071 10222.730 6284.203 8077.730 17772.175 11218.475 9255.705 10254.943 12320.104 16922.998 10976.140 9419.919 9586.906 10666.320 6855.486 9584.509 9006.067 12292.055 8918.088 10614.383 18488.523 10281.165 7396.608 13783.238 10240.177 7394.421 9366.546 7943.323 12538.937 9691.819 18835.746 8447.360 10649.427 10491.807 11761.241 13038.878 8201.728 9629.167 10057.202 9649.203 10592.169 10831.769 13910.055 4957.518 11881.625 9467.121 10641.268 10117.024 12364.337 4686.691 10098.774 12478.980 8449.548 12498.384 18230.107 9543.152 11255.108 10669.708 16867.812 9515.230 12370.838 9486.615 10292.294 10232.870 9531.379 10252.721 10585.915 14356.767 20224.764 9919.684 9247.436 9779.853 12734.511 8872.427 19642.246 9726.645 9794.100 9220.396 7218.792 8549.247 14214.705
2182.854 1902.565 1020.501 13418.644 160.315 15763.847 940.763 752.176 589.540 2055.377 538.160 1540.849 525.802 2891.836 1425.105 13559.790 316.528 211.466 16861.626 1774.226 1935.912 1240.351 1511.987 6687.347 2096.985 292.958 5292.072 569.188 238.466 9230.079 0.000 4857.601 112.580 871.116 5180.538 12111.010 298.511 507.102 14398.161 7848.294 1311.255 1719.394 8582.732 9163.157 3603.102 6963.825 1286.158 10571.986 9311.333 3322.007 5550.539 5901.823 2685.764 13990.938 785.384 609.253 250.052 293.819 1584.920 5282.724 1639.120 8945.520 12236.458 5682.600 7224.436 1049.821 12321.740 2385.151 158.857 851.588 1922.291 1202.894 7957.234 3881.038 509.343 5213.060 788.828 228.441 3899.251 236.059 1921.906 759.184 8603.825 690.745 1858.340 748.650 6085.616 854.332 607.249 2913.626 961.174 6691.781 16804.725 9384.429 8192.104 427.541 2809.100 98.598 6591.629 2685.146 192.423 11144.614 5164.783 5618.679 1091.352 3672.412 2366.958 9179.998 2626.298 672.492 3992.185 19781.298 13617.321 3066.180 1580.313 896.534 2798.719 5785.221 797.035 3687.084 5485.730 3887.634 1161.377 9369.466 1688.988 2703.423 5191.061 1648.000 2435.260 660.249 1573.184 5406.939 500.395 9716.689 3015.899 2815.613 1899.630 5039.454 6306.097 2991.119 2943.763 1269.728 2459.774 1473.112 2239.592 6778.057 4839.681 5141.400 333.449 8765.754 664.018 5232.339 12147.885 645.768 5346.982 1518.616 5858.704 9111.050 1642.150 1802.102 1550.651 10451.308 1686.332 6009.733 2997.096 839.288 779.865 1276.293 799.716 16874.472 7224.768 11105.708 3804.362 1088.931 409.358 6001.730 1016.486 10523.190 3998.440 341.094 1048.036 12929.194 11077.315 5095.649
4671.093 6184.678 5117.786 14665.375 4339.832 17158.697 3243.823 4803.697 4686.825 2740.101 4897.974 3622.418 4623.087 1472.804 5346.901 17415.510 4295.681 4571.280 18256.477 5689.681 5339.065 3321.921 2706.220 10745.353 2472.287 4306.525 9350.078 4963.574 4562.548 10476.809 4394.385 0.000 4416.623 4922.638 8078.324 15966.731 4658.324 4866.915 11467.381 4302.387 4589.625 3798.785 5036.825 10409.888 5157.989 10819.545 4576.850 7026.079 12830.225 6177.338 9608.545 9959.829 4240.651 11060.158 4836.905 5003.638 4476.843 4688.205 2740.926 2162.682 4467.205 5399.613 13483.188 9535.595 11080.156 4564.756 13568.470 5283.796 4518.671 4948.873 5456.030 4167.771 11235.604 950.258 4606.627 9271.066 4840.349 4588.255 1338.543 4630.444 5325.060 4009.895 5057.917 4355.396 5773.795 4082.501 9941.336 3914.747 4591.411 6829.080 3584.247 2835.608 18199.575 12239.759 12250.109 4536.760 1487.382 4402.641 7930.968 5281.701 4586.808 14663.507 9222.789 6643.728 4382.044 4601.851 4963.513 13102.768 6965.020 4398.015 1061.405 19114.207 10686.541 7216.016 5207.932 4993.819 6714.174 8640.552 3649.423 6542.414 9341.450 6785.420 5094.304 12647.837 6027.710 3632.863 9113.831 5986.723 3761.506 4508.856 4012.161 9464.944 4551.916 12995.060 2526.406 6731.067 6238.352 8895.175 10364.103 3021.413 1306.343 3974.806 1716.471 4751.483 6578.314 10836.062 6394.569 1925.306 4609.431 11621.085 5058.403 9290.344 13394.615 4999.943 9404.987 4921.769 9916.709 12389.421 2537.910 5630.198 4829.022 6905.401 2493.727 9927.301 1329.157 4795.042 5134.040 3006.314 5194.101 18269.323 11282.774 14384.079 6837.232 3614.384 4769.172 10059.736 3190.811 13801.561 1826.106 4735.479 4562.972 14324.044 12467.147 8374.020
2260.862 1980.573 1098.509 13445.286 47.735 15790.489 967.405 851.186 667.548 2082.020 616.168 1567.491 603.810 2918.478 1503.113 13637.798 343.170 289.474 16888.269 1852.234 2013.920 1266.993 1538.629 6765.355 2123.627 337.381 5370.080 681.769 280.743 9256.721 112.580 4884.243 0.000 970.127 5258.546 12189.018 376.519 585.110 14424.803 7874.936 1337.897 1746.036 8609.374 9189.800 3629.744 7041.833 1325.121 10598.628 9389.341 3400.015 5628.547 5979.831 2712.406 14017.580 884.395 721.833 362.632 406.400 1611.563 5309.367 1665.762 8972.162 12263.100 5760.608 7302.444 1127.829 12348.382 2463.159 236.865 929.596 2034.871 1229.537 7983.876 3907.680 587.351 5291.068 887.839 306.449 3925.893 348.639 1999.914 837.192 8630.467 768.753 1936.348 826.658 6163.624 932.340 685.257 2991.634 987.816 6718.423 16831.367 9462.437 8270.112 505.549 2835.742 120.835 6618.271 2763.154 305.003 11222.622 5242.791 5645.321 1130.316 3699.054 2444.966 9258.006 2704.306 750.500 4018.827 19807.940 13643.963 3144.188 1658.321 974.542 2876.727 5863.229 823.677 3765.092 5563.738 3965.642 1273.957 9396.109 1766.996 2730.065 5269.069 1726.008 2461.902 738.257 1599.826 5484.947 599.405 9743.332 3042.542 2893.621 1977.638 5117.462 6384.105 3017.761 2970.406 1296.370 2486.416 1499.755 2317.600 6856.065 4866.323 5168.042 411.457 8843.762 776.598 5310.347 12174.527 758.348 5424.990 1596.624 5936.712 9137.692 1668.792 1914.682 1577.294 10477.951 1712.975 6087.741 3023.738 951.868 892.445 1302.935 912.296 16901.115 7302.776 11132.350 3882.369 1115.573 487.366 6079.738 1043.128 10549.832 4025.082 453.674 1126.044 12955.836 11103.957 5122.291
2504.008 2184.274 1341.656 13812.631 613.496 16157.834 1334.750 118.940 910.695 2375.673 819.869 1699.386 846.957 3285.823 1746.260 13880.944 710.515 539.764 17255.613 2095.381 2257.066 1398.888 1905.974 6969.055 2490.972 686.945 5573.780 637.523 572.320 9624.066 453.181 5251.588 565.761 0.000 5501.693 12432.165 450.993 586.003 14792.148 8242.281 1001.216 2113.381 8976.719 9557.144 3997.089 7284.979 988.441 10965.973 9632.487 3643.162 5832.247 6183.532 3079.751 14384.925 85.732 146.152 501.696 362.154 1978.907 5603.020 1974.629 9339.507 12630.445 6003.755 7545.590 1370.975 12715.727 2706.305 492.712 1172.743 1867.621 892.856 7647.195 4275.025 830.497 5494.769 89.176 522.789 4293.238 304.394 2243.061 1080.339 8997.812 1011.899 2179.494 1069.805 6406.770 1175.487 928.403 3234.780 1340.287 7085.768 17198.712 9705.583 8473.812 748.696 3203.087 468.929 6985.616 3006.300 260.758 11465.768 5446.491 6012.666 793.635 4066.399 2688.112 9461.706 2908.006 993.646 4386.172 20175.285 14011.308 3347.888 1901.467 1217.689 3119.873 6106.376 1191.022 4008.238 5806.884 4208.789 1229.711 9059.428 1970.696 3097.410 5472.769 1929.709 2829.247 981.403 1967.171 5688.647 447.562 9406.651 3409.886 3136.767 2181.338 5360.609 6587.806 3385.106 3337.750 1139.500 2853.761 1163.074 2521.301 7059.765 5233.668 5461.695 654.603 9086.909 732.353 5514.047 12541.872 714.103 5628.690 1839.770 6140.412 8801.012 2036.137 1870.437 1240.613 10845.295 2080.319 6291.442 3391.083 907.623 848.199 1670.280 868.050 17268.459 7506.477 10795.670 4125.516 1482.918 691.067 6283.439 1410.473 10213.152 4392.427 409.429 1369.191 13323.181 11414.516 4785.611
3532.997 3940.713 4851.404 14344.165 5230.044 15362.934 5576.919 5852.111 4937.776 6695.133 5277.262 6406.065 4902.137 7166.759 4250.905 10847.702 5513.326 5064.480 16460.714 3817.487 3830.603 6105.567 6151.743 5070.402 6193.218 5512.220 3675.127 5437.864 4980.796 10155.599 5219.262 8866.077 5182.309 5971.052 0.000 9398.923 5146.108 5007.260 17957.265 11856.770 6252.996 5006.976 12591.208 10088.678 4565.264 4251.737 6154.833 14580.461 6330.299 2339.908 3215.822 3473.581 4967.890 17550.042 5885.320 5503.842 5349.988 5350.468 6224.676 9710.974 4366.885 12953.996 13161.978 2818.110 4512.348 4611.889 13247.260 3012.270 5117.089 4682.491 5668.225 6327.910 11126.467 7910.997 4857.579 3596.115 5888.764 5074.312 7655.457 5292.707 4025.490 4932.915 12612.300 5067.080 3574.785 5005.521 3373.528 4837.767 4638.543 2555.976 5826.390 10577.752 17015.183 6138.098 6382.422 4869.827 7044.820 5140.703 7517.149 3519.182 5292.359 8163.580 3547.838 6544.200 5960.028 5528.304 3448.194 9804.600 3597.719 5048.826 7846.915 20706.818 17176.425 2944.226 4257.510 4727.437 2634.406 4338.440 5662.251 2658.920 3543.112 1421.609 6030.052 14103.245 4743.802 5041.837 5147.410 4702.814 4717.386 5036.584 4843.820 3789.994 5600.330 12885.922 6154.948 2617.513 4038.681 2600.218 3877.856 5985.542 7221.139 6134.944 7099.530 6122.142 3857.811 4968.375 5801.843 9473.597 4942.497 6835.937 5341.254 3615.384 13073.406 5514.444 3613.009 3875.964 3337.362 13844.828 6281.906 6670.778 6284.430 14459.784 6326.088 3209.815 7078.587 5707.964 5648.540 5916.049 5384.459 16473.560 5415.086 15839.486 1641.022 5334.439 5148.460 3573.488 5564.374 15256.968 7318.617 5235.683 4610.105 12528.281 10104.256 9829.427
11540.482 10544.639 11455.330 21797.246 11833.970 21918.748 12718.207 12456.038 11541.703 13832.821 11881.188 13318.293 11506.063 14669.280 10854.831 1503.246 12129.405 11668.406 23016.528 10657.807 11484.744 13017.795 13289.431 6376.170 13814.265 12116.146 8056.214 12041.790 11584.722 17608.681 11823.188 16635.045 11786.235 12574.978 9112.190 0.000 11750.034 11611.186 25964.751 19625.738 12856.922 12661.117 20360.176 17541.759 12978.610 5549.914 12758.760 22349.430 7579.600 10753.254 7394.542 6999.634 12975.376 25557.528 12489.246 12107.768 11953.914 11954.394 13362.364 17060.168 12021.027 20722.964 20615.060 7058.211 6035.311 11556.989 20700.342 10995.031 11721.015 11286.417 12272.152 13015.686 16042.797 15658.482 11461.505 8030.845 12492.690 11678.238 15662.942 11896.633 11084.966 11739.445 20381.268 11671.006 10178.712 11728.911 6474.435 11834.593 11559.411 9159.903 12738.618 18469.225 24049.143 7717.104 6570.765 11473.753 14586.544 11744.630 14975.250 11700.285 11896.285 6114.664 7990.440 13997.281 12563.954 13697.651 11455.680 12500.232 10139.375 11652.753 15769.629 28159.900 25183.911 9491.278 11097.830 11331.363 9238.333 11110.647 12574.479 11072.266 7897.607 10001.129 12633.979 19575.210 11347.728 13049.323 9807.575 11306.741 12724.872 11640.510 12497.961 8171.081 12204.257 17802.252 14162.434 9221.439 10642.607 7453.074 7782.660 13993.028 14721.207 13047.172 14237.217 12726.069 10399.467 6295.405 13615.904 16918.843 11546.424 11147.767 11945.180 7855.484 20526.487 12118.370 7686.103 11531.700 7516.082 19316.793 13419.594 13274.704 12888.356 22228.752 13463.776 7293.251 14774.540 12311.890 12252.466 13053.737 11988.385 23029.374 5848.693 21515.969 9592.029 12561.784 11752.386 6874.371 12793.930 20933.451 15326.103 11839.609 11534.598 19562.240 16406.641 16433.354
2053.016 1733.281 890.663 13404.676 418.357 15749.878 1239.274 931.360 459.702 2353.888 368.876 1839.359 395.964 3190.347 1295.267 13429.951 615.039 88.771 16847.658 1644.388 1806.073 1538.862 1810.497 6518.063 2395.496 591.468 5122.788 351.463 241.909 9216.111 298.511 5156.111 370.622 998.829 5050.700 11981.172 0.000 242.720 14696.671 8146.805 1166.595 1705.426 8881.242 9149.189 3589.134 6833.987 1068.432 10870.496 9181.495 3192.169 5381.255 5732.539 2671.795 14289.448 964.568 391.527 429.236 204.360 1883.431 5581.235 1523.637 9244.031 12222.490 5552.762 7094.598 919.982 12307.772 2255.313 141.380 721.750 1704.565 1472.331 7968.285 4179.548 379.505 5043.776 968.012 71.796 4197.761 146.599 1792.068 629.346 8902.335 560.907 1728.502 618.812 5955.778 724.494 477.410 2783.788 1259.684 6990.292 16790.756 9254.590 8022.820 297.703 3107.611 255.683 6577.661 2555.308 371.607 11014.776 4995.499 5604.711 873.626 3714.731 2237.120 9010.714 2457.014 542.654 4290.695 19767.329 13915.831 2896.896 1450.475 766.696 2668.881 5655.383 1095.546 3557.246 5355.892 3757.796 943.651 9380.518 1519.704 2745.742 5021.776 1478.716 2421.291 530.411 1559.216 5237.655 679.579 9727.741 3314.410 2685.775 1730.346 4909.616 6136.813 3289.629 3242.274 1568.239 2758.284 1484.164 2070.308 6608.773 4825.713 5439.910 203.611 8635.916 446.292 5063.055 12133.917 428.042 5177.698 1388.777 5689.420 9122.102 1940.660 1584.376 1561.703 10749.819 1984.843 5840.449 3295.607 621.562 562.139 1574.804 581.990 16860.504 7055.484 11116.759 3674.523 1387.441 240.074 5832.446 1314.996 10534.242 4296.951 123.368 918.198 12915.225 10963.524 5106.700
2166.590 1634.407 1004.238 13518.250 533.659 15863.453 1354.575 1046.661 573.277 2469.189 270.002 1954.661 509.539 3305.648 1242.643 13503.972 730.340 202.346 16961.233 1718.409 1919.648 1654.163 1925.799 6419.189 2510.797 706.770 5023.914 635.437 355.484 9329.685 413.812 5271.413 485.923 1165.602 5164.275 12055.193 283.974 0.000 14811.973 8262.106 1450.569 1819.000 8996.544 9262.764 3702.708 6908.007 1352.406 10985.798 9255.515 3305.744 5282.381 5633.665 2785.370 14404.750 1079.870 675.501 544.538 488.334 1998.732 5696.536 1637.211 9359.332 12336.064 5626.783 7088.571 1033.557 12421.346 2368.887 254.955 835.325 1828.402 1606.310 8252.259 4294.850 493.079 4944.902 1083.314 212.178 4313.063 430.573 1905.643 742.921 9017.637 674.481 1802.523 732.387 6029.798 838.069 590.985 2857.808 1374.986 7105.593 16904.331 9368.165 7923.945 411.278 3222.912 370.985 6691.235 2668.882 486.909 11088.797 4896.625 5718.285 1157.600 3828.306 2350.694 8911.839 2358.139 656.228 4405.997 19880.904 14031.133 2798.021 1524.495 880.271 2742.902 5768.958 1210.847 3670.820 5429.913 3871.371 1227.625 9664.492 1420.829 2859.317 4922.902 1379.842 2534.866 643.985 1672.790 5138.780 794.880 10011.715 3429.711 2759.795 1631.471 4983.637 6037.939 3404.931 3357.575 1683.540 2873.586 1768.138 1971.434 6509.898 4939.287 5555.212 317.185 8749.491 730.266 4964.180 12247.491 712.016 5078.823 1502.352 5590.545 9406.076 2055.962 1868.350 1845.677 10865.120 2100.144 5741.575 3410.908 905.536 846.113 1690.105 865.964 16974.079 6956.610 11400.733 3788.098 1502.743 141.200 5733.572 1430.298 10818.216 4412.252 407.342 1031.773 13028.800 11077.098 5390.674
14543.854 16380.364 15313.471 12742.146 14535.517 18754.230 13439.508 14999.383 14882.510 12935.787 15093.659 13818.104 14818.772 11668.489 15542.587 27313.463 14491.367 14766.965 19330.978 15885.367 15511.858 13517.606 12901.906 20766.693 12577.685 14502.211 19371.418 15159.259 14758.234 15128.441 14590.071 11647.580 14612.308 15118.323 17951.085 25864.683 14854.009 15062.601 0.000 13028.865 14785.311 13843.761 12498.030 15163.578 14324.896 20717.498 14772.535 14382.269 21728.072 16050.099 19629.885 19981.169 14113.413 1303.820 15032.591 15199.324 14672.528 14883.890 12936.611 12821.755 14472.108 12860.819 10894.711 19408.357 20978.109 14760.442 10890.610 15156.558 14714.356 15144.558 15651.715 14363.457 21264.874 10779.330 14802.313 19292.406 15036.035 14783.940 10700.810 14826.130 15520.745 14205.581 12519.123 14551.082 15969.480 14278.186 19839.289 14110.432 14787.096 17024.766 13779.933 9235.540 17851.496 20660.649 22271.450 14732.446 11592.780 14598.326 13269.148 15154.462 14782.494 23276.192 19244.129 13630.653 14577.730 13384.700 14836.274 23298.453 17160.706 14593.701 10890.477 7946.528 1661.771 17411.701 15403.617 15189.504 16909.859 16488.069 13845.108 16415.175 19239.403 16658.181 15289.989 22843.522 16223.396 13505.624 19309.516 16182.408 13634.268 14704.542 13995.511 19486.285 14747.602 23024.329 11896.207 16926.753 16434.038 18793.127 20385.443 12604.343 11502.028 14170.491 11912.156 14947.169 16774.000 20857.403 14590.100 12584.379 14805.117 19151.404 15254.089 19311.685 10821.805 15195.629 19426.328 14925.165 19913.900 22585.106 12733.596 15825.883 15024.708 14261.591 12689.413 19800.062 11469.984 14990.728 15329.725 13202.000 15389.786 19370.403 21304.114 23416.790 16709.994 13810.069 14964.857 20081.076 13386.497 22834.272 11369.566 14931.165 14758.658 17294.001 17390.579 18569.705
8722.565 10236.151 9169.258 18716.847 8391.304 21210.170 7295.295 8855.169 8738.297 6791.574 8949.446 7673.891 8674.559 5524.276 9398.374 21466.982 8347.153 8622.752 22307.949 9741.153 9390.537 7373.393 6757.693 14796.825 6523.760 8357.998 13401.550 9015.046 8614.020 14528.282 8445.858 4436.427 8468.095 8974.110 12129.796 20018.203 8709.796 8918.388 13258.337 0.000 8641.098 7850.258 1213.273 14461.360 9209.462 14871.018 8628.322 3202.527 16881.698 10228.810 13660.017 14011.301 8292.124 12851.114 8888.378 9055.111 8528.315 8739.677 6792.398 4664.993 8518.678 1255.503 17534.661 13587.068 15131.629 8616.229 17619.943 9335.269 8570.143 9000.345 9507.502 8219.244 11816.722 5001.730 8658.100 13322.538 8891.822 8639.727 5390.015 8681.917 9376.532 8061.368 1234.365 8406.869 9825.267 8133.973 13992.809 7966.219 8642.883 10880.553 7635.719 4098.608 22251.047 16291.231 16301.582 8588.233 5538.854 8454.113 11982.440 9333.173 8638.281 18714.979 13274.261 10695.200 8433.516 8653.324 9014.985 17154.240 11016.492 8449.488 5112.877 20905.163 12477.497 11267.488 9259.404 9045.291 10765.646 12692.024 7700.895 10593.886 13392.923 10836.892 9145.776 14018.328 10079.182 7684.335 13165.303 10038.195 7812.978 8560.329 8063.634 13516.417 8603.388 13576.178 6577.878 10782.540 10289.824 12946.647 14415.575 7072.886 5357.815 8026.278 5767.943 8802.955 10629.787 14887.535 10446.041 4427.617 8660.903 15672.557 9109.876 13341.817 17446.088 9051.416 13456.460 8973.241 13968.182 13759.912 6589.382 9681.670 8880.494 3081.849 6545.200 13978.773 5380.629 8846.515 9185.512 7057.787 9245.573 22320.795 15334.246 13968.639 10888.705 7665.856 8820.644 14111.208 7242.284 13386.121 5877.578 8786.952 8614.445 18375.516 16518.619 12117.362
3067.595 2519.410 1905.243 14376.218 1177.083 16721.421 1898.337 682.527 1474.282 2519.906 1383.456 1843.619 1410.544 3544.630 2241.864 14444.531 1274.102 1103.350 17819.200 2658.968 2820.653 1543.121 2469.561 7304.192 3048.124 1250.532 5908.917 1026.202 1135.907 10187.653 1016.768 5503.407 1129.348 563.587 6065.280 12995.751 1014.579 1149.589 15043.967 8494.100 0.000 2676.968 9228.538 10120.731 4560.676 7848.566 182.854 11217.792 10196.074 4206.749 6167.384 6518.668 3643.338 14636.744 649.319 709.739 1065.283 925.741 2542.494 5747.253 2538.216 9591.326 13194.032 6567.342 7973.574 1934.562 13279.314 3269.892 1056.298 1736.330 1051.429 1037.089 6831.004 4526.844 1394.084 5829.905 652.763 1086.376 4552.045 867.980 2806.648 1643.925 9249.630 1575.486 2743.081 1633.392 6970.357 1739.074 1491.990 3798.367 1484.520 7337.587 17762.298 10269.170 8808.948 1312.283 3461.894 1032.516 7549.203 3569.887 824.345 12029.355 5781.628 6576.253 438.384 4629.985 3251.699 8698.167 3243.143 1557.233 4637.991 20738.871 14263.127 3683.024 2465.054 1781.276 3683.460 6669.963 1343.533 4571.825 6370.471 4772.376 700.308 8243.236 2420.051 3660.997 4709.230 2379.063 3392.834 1544.990 2530.758 6023.784 1011.149 8590.459 3973.473 3700.354 2516.475 5924.195 6922.942 3948.693 3596.557 1283.733 3112.568 346.882 2856.437 7394.902 5797.255 5605.929 1218.190 9650.496 988.246 5849.184 13105.459 605.948 5963.827 2403.357 6475.548 7984.820 2476.298 1236.202 424.421 11097.114 2473.469 6626.578 3649.890 401.047 740.044 2233.867 1031.451 17832.046 7841.613 9979.478 4689.103 2046.505 1254.654 6618.575 1974.060 9396.960 4712.689 973.016 1932.778 13886.768 11978.103 3969.419
1888.418 2899.652 2181.592 12204.751 1685.851 14549.954 715.859 2149.717 1750.631 2197.005 2114.771 2069.904 1686.893 2439.002 2061.875 14130.484 1641.701 1795.220 15647.733 2404.655 2054.038 1769.407 1553.961 7460.326 1332.158 1652.545 6065.051 2228.311 1711.536 8016.186 1740.405 4485.801 1762.642 2268.657 5295.649 12681.704 1876.848 2119.568 13790.811 7476.495 2585.981 0.000 8210.932 7949.264 2389.209 7534.519 2573.206 10200.186 9882.027 3394.663 6323.518 6674.802 1471.870 13383.588 2182.925 2268.375 1822.862 2034.225 1626.894 5330.698 814.335 8573.720 11022.565 6253.294 7795.130 1628.563 11107.847 2501.122 1847.829 2012.679 3452.386 2164.127 9231.960 3509.238 1670.433 5986.039 2186.369 1805.052 3407.214 1976.464 2040.033 1073.701 8232.025 1419.202 2488.768 1146.307 6656.310 978.553 1655.217 3544.054 1513.534 6319.981 15590.831 9457.084 8965.083 1600.567 2317.063 1748.660 5377.736 2499.026 1932.828 11715.308 5937.762 4404.786 2378.400 2514.806 2180.838 10275.161 3721.461 1461.822 3598.672 18567.404 13009.971 3930.989 1922.905 2057.625 3429.147 5857.877 1498.469 3759.739 6056.424 4002.745 2820.499 10644.193 2784.151 1545.818 6286.224 2743.164 1221.366 1572.663 359.291 6179.918 1897.936 10991.416 1988.494 3446.041 2994.793 5610.148 7079.077 1963.713 2571.964 1971.162 2296.097 2747.839 3334.755 7551.036 3625.788 5093.322 1673.237 8838.410 2323.140 6005.318 10933.992 2304.890 6119.961 1580.977 6631.683 10385.777 1684.124 3461.224 2825.378 10079.509 1728.306 6653.167 2505.059 2498.410 2438.987 1417.920 2458.838 15660.579 7997.748 12380.435 3922.488 1086.420 1985.969 6774.709 703.313 11797.917 3131.888 2000.216 1626.778 11715.301 9863.422 6370.376
9109.768 10623.353 9556.461 19104.049 8778.506 21597.372 7682.498 9242.372 9125.500 7178.776 9336.648 8061.093 9061.762 5911.478 9785.576 21854.185 8734.356 9009.954 22695.152 10128.356 9777.740 7760.595 7144.895 15184.027 6910.962 8745.200 13788.752 9402.249 9001.223 14915.484 8833.060 4823.629 8855.298 9361.312 12516.998 20405.405 9096.999 9305.590 12499.798 985.932 9028.300 8237.460 0.000 14848.563 9596.664 15258.220 9015.525 2194.689 17268.900 10616.012 14047.219 14398.503 8679.326 12092.575 9275.580 9442.313 8915.517 9126.880 7179.601 5052.196 8905.880 456.338 17921.863 13974.270 15518.831 9003.431 18007.145 9722.471 8957.345 9387.547 9894.704 8606.446 12203.925 5388.933 9045.302 13709.740 9279.024 9026.929 5777.217 9069.119 9763.734 8448.570 226.527 8794.071 10212.469 8521.175 14380.011 8353.422 9030.085 11267.755 8022.922 3313.488 22638.250 16678.434 16688.784 8975.435 5926.056 8841.315 12369.643 9720.376 9025.483 19102.181 13661.463 11082.403 8820.719 9040.526 9402.188 17541.442 11403.695 8836.690 5500.080 20146.624 11718.958 11654.691 9646.606 9432.494 11152.848 13079.226 8088.097 10981.089 13780.125 11224.094 9532.978 14405.531 10466.385 8071.538 13552.505 10425.397 8200.181 8947.531 8450.836 13903.619 8990.591 13963.380 6965.080 11169.742 10677.027 13333.849 14802.778 7460.088 5745.017 8413.480 6155.146 9190.158 11016.989 15274.737 10833.243 4814.820 9048.106 16059.759 9497.078 13729.019 17833.290 9438.618 13843.662 9360.444 14355.384 14147.115 6976.585 10068.872 9267.697 2074.011 6932.402 14365.975 5767.831 9233.717 9572.715 7444.989 9632.776 22707.997 15721.449 14355.841 11275.907 8053.059 9207.846 14498.411 7629.486 13773.323 6264.781 9174.154 9001.647 18762.719 16905.822 12504.564
7718.389 10329.744 9643.952 5996.943 9412.813 9564.834 8818.051 9876.679 9477.593 10299.197 9841.733 10172.097 9413.855 9507.865 9491.967 19170.778 9368.663 9522.182 10612.563 9834.747 8969.320 9871.599 9346.068 13752.424 8873.653 9379.507 12357.149 9955.273 9438.498 260.541 9467.367 11207.183 9489.605 9995.619 10144.070 17721.998 9603.810 9846.530 15444.155 14197.876 10363.390 8248.108 14932.314 0.000 6035.842 13345.838 10350.614 16921.568 12220.775 8620.133 12309.923 12567.682 6986.365 16604.540 9909.887 9995.337 9549.825 9761.187 9419.001 12052.080 8198.757 15295.102 4814.757 11912.211 13606.449 9155.259 4900.039 8299.326 9574.791 9475.039 10909.287 10183.247 17009.368 10252.103 9397.396 12278.137 9913.331 9532.014 9996.563 9703.426 9470.126 8800.664 14953.406 9146.165 9918.860 8873.269 12467.629 8705.515 9181.913 10520.969 9615.726 12918.858 9700.719 11630.309 15257.181 9327.529 9385.926 9475.622 3396.138 7763.274 9659.790 14054.057 12229.860 3931.149 10155.808 6217.282 8010.809 17705.253 11151.553 9188.784 10188.022 12359.597 16962.491 10909.219 9352.997 9519.985 10599.399 6788.565 9517.588 8939.145 12225.134 8851.167 10547.461 18421.601 10214.243 7329.686 13716.316 10173.256 7327.500 9299.625 7876.401 12472.016 9624.898 18768.824 8380.438 10582.505 10424.885 11694.319 12971.957 8134.806 9562.245 9990.281 9582.282 10525.247 10764.848 13843.134 4890.597 11814.704 9400.200 10574.346 10050.102 12297.416 4726.184 10031.853 12412.059 8382.627 12431.462 18163.185 9476.231 11188.187 10602.786 16800.890 9448.308 12303.916 9419.694 10225.372 10165.949 9464.458 10185.800 10625.409 14289.845 20157.843 9852.762 9180.514 9712.931 12667.589 8805.506 19575.325 9659.723 9727.178 9153.475 7258.285 8588.740 14147.784
1894.071 4505.427 3819.635 10300.259 3588.496 12512.190 2993.734 4052.362 3653.276 4474.880 4017.416 4347.780 3589.538 4212.917 3667.650 14117.486 3544.346 3697.865 13609.969 4010.430 3145.003 4047.282 3831.836 7928.106 3556.650 3555.190 6532.831 4130.955 3614.181 6111.693 3643.050 5912.235 3665.287 4171.302 4319.753 12668.706 3779.493 4022.213 15003.423 8902.928 4539.072 2423.790 9637.366 6044.772 0.000 7521.521 4526.297 11626.620 8657.914 2795.816 6485.605 6743.365 1162.048 14596.200 4085.570 4171.020 3725.507 3936.869 3904.770 6757.132 2374.440 10000.154 9118.072 6087.893 7782.132 3330.942 9203.354 2475.009 3750.474 3650.721 5084.970 4358.929 11185.051 4957.155 3573.078 6453.820 4089.014 3707.697 4701.615 3879.109 3645.808 2976.346 9658.458 3321.847 4094.543 3048.952 6643.312 2881.198 3357.596 4696.651 3791.409 7623.910 13686.339 8067.447 9432.863 3503.211 4090.978 3651.305 3473.243 1938.957 3835.473 10491.195 6405.542 2500.293 4331.491 1518.020 2186.491 11880.936 5327.236 3364.467 4893.074 16662.912 14222.583 5084.902 3528.680 3695.668 4775.081 4024.403 3693.270 3114.828 6400.817 3026.849 4723.144 12597.284 4389.926 1896.509 7891.999 4348.938 1594.961 3475.307 2052.084 6647.698 3800.581 12944.507 3120.437 4758.188 4600.568 5870.002 7147.639 2874.805 4267.297 4165.964 4287.334 4700.930 4940.530 8018.816 1409.135 6519.756 3575.882 7448.773 4225.785 6473.098 9029.499 4207.535 6587.741 2558.310 6607.145 12338.868 3961.999 5363.869 4778.469 11505.942 4006.182 6479.599 4124.746 4401.055 4341.632 3695.796 4361.483 13622.815 8465.528 14333.525 4028.445 3356.197 3888.614 6843.272 2981.188 13751.008 4364.775 3902.861 3329.158 9677.536 7735.569 8323.466
6373.446 5377.603 6288.294 17590.474 6666.934 17990.412 7551.171 7289.001 6374.666 8665.785 6714.152 8151.256 6339.027 9502.244 5687.795 7262.693 6962.369 6501.370 19088.191 5490.771 6317.708 7850.758 8122.394 2730.592 8647.229 6949.110 2695.061 6874.754 6417.686 13401.909 6656.152 11468.008 6619.198 7407.942 3945.153 5813.913 6582.998 6444.150 20797.714 14458.702 7689.886 7494.081 15193.139 13334.988 7811.573 0.000 7591.723 17182.393 3673.812 5586.217 2132.463 1638.482 7808.339 20390.491 7322.210 6940.732 6786.878 6787.358 8195.328 11893.132 6853.990 15555.927 16408.288 1891.174 776.493 6389.953 16493.570 5827.995 6553.979 6119.381 7105.115 7848.650 11404.614 10491.445 6294.468 2669.693 7325.654 6511.202 10495.906 6729.597 5917.929 6572.409 15214.232 6503.970 5011.675 6561.875 1113.283 6667.557 6392.374 3992.866 7571.581 13302.188 20120.806 3788.767 4014.189 6306.717 9419.508 6577.593 10763.459 6533.248 6729.249 5189.176 2629.288 9790.509 7396.918 8530.615 6288.644 9943.657 4972.338 6485.716 10602.592 23953.128 20016.874 4324.242 5930.794 6164.327 4071.296 7182.311 7407.442 5905.230 2730.571 4834.093 7466.942 14937.027 6180.692 7882.286 5425.557 6139.704 7557.835 6473.473 7330.925 2809.928 7037.220 13164.070 8995.397 4054.403 5475.571 2286.037 2421.508 8825.991 9554.171 7880.135 9070.181 7559.032 5232.431 2600.142 9048.152 11751.807 6379.387 7219.431 6778.144 2501.692 16319.715 6951.334 2324.951 6364.664 2254.002 14678.611 8252.557 8107.668 7721.320 17061.716 8296.740 2126.214 9607.503 7144.854 7085.430 7886.701 6821.349 19101.037 3046.854 16877.786 4424.993 7394.748 6585.350 1513.219 7626.893 16295.268 10159.066 6672.573 6367.561 15633.904 12478.304 11266.317
2884.741 2336.556 1722.389 14193.364 994.229 16538.566 1715.483 499.673 1291.428 2337.052 1200.602 1660.765 1227.689 3361.776 2059.010 14261.677 1091.248 920.496 17636.346 2476.114 2637.799 1360.267 2286.706 7121.337 2865.270 1067.677 5726.062 843.348 953.053 10004.799 833.913 5320.552 946.494 380.733 5882.425 12812.897 831.725 966.735 14861.112 8311.246 548.499 2494.114 9045.683 9937.877 4377.822 7665.712 0.000 11034.937 10013.220 4023.895 5984.529 6335.814 3460.483 14453.889 466.465 526.885 882.429 742.887 2359.640 5564.399 2355.362 9408.472 13011.178 6384.488 7790.720 1751.708 13096.460 3087.038 873.444 1553.475 1278.368 854.235 7350.189 4343.989 1211.230 5647.051 469.909 903.521 4369.190 685.126 2623.794 1461.071 9066.776 1392.632 2560.227 1450.538 6787.503 1556.220 1309.136 3615.513 1301.666 7154.733 17579.444 10086.316 8626.094 1129.429 3279.040 849.662 7366.349 3387.033 641.490 11846.501 5598.773 6393.399 255.530 4447.131 3068.845 9038.710 3060.288 1374.379 4455.136 20556.017 14080.272 3500.170 2282.200 1598.422 3500.606 6487.109 1160.679 4388.971 6187.617 4589.522 517.454 8762.422 2237.196 3478.143 5049.773 2196.209 3209.979 1362.136 2347.904 5840.929 828.295 9109.645 3790.619 3517.500 2333.620 5741.341 6740.088 3765.838 3413.703 1100.879 2929.713 866.068 2673.583 7212.047 5614.401 5423.074 1035.336 9467.641 805.392 5666.329 12922.605 423.093 5780.972 2220.503 6292.694 8504.006 2293.443 1053.348 943.607 10914.260 2290.615 6443.724 3467.036 218.193 557.190 2051.013 848.597 17649.192 7658.759 10498.663 4506.249 1863.650 1071.800 6435.721 1791.205 9916.145 4529.835 790.161 1749.924 13703.913 11795.249 4488.604
11089.949 12603.535 11536.643 21084.231 10758.688 23577.554 9662.680 11222.554 11105.682 9158.958 11316.830 10041.275 11041.944 7891.660 11765.758 23834.367 10714.538 10990.136 24675.333 12108.538 11757.921 9740.777 9125.077 17164.209 8891.144 10725.382 15768.934 11382.430 10981.405 16895.666 10813.242 6803.811 10835.479 11341.494 14497.180 22385.587 11077.181 11285.772 14384.036 2966.114 11008.482 10217.642 2185.617 16828.744 11576.846 17238.402 10995.707 0.000 19249.082 12596.194 16027.401 16378.685 10659.508 13976.813 11255.762 11422.495 10895.699 11107.061 9159.782 7032.378 10886.062 2503.283 19902.045 15954.452 17499.013 10983.613 19987.327 11702.653 10937.527 11367.729 11874.886 10586.628 14184.106 7369.115 11025.484 15689.922 11259.206 11007.111 7757.399 11049.301 11743.916 10428.752 1959.089 10774.253 12192.651 10501.357 16360.193 10333.603 11010.267 13247.937 10003.104 5197.726 24618.432 18658.615 18668.966 10955.617 7906.238 10821.497 14349.825 11700.558 11005.665 21082.363 15641.645 13062.584 10800.901 11020.708 11382.370 19521.624 13383.877 10816.872 7480.262 22030.862 13603.196 13634.872 11626.788 11412.676 13133.030 15059.408 10068.279 12961.271 15760.307 13204.276 11513.160 16385.713 12446.567 10051.719 15532.687 12405.579 10180.363 10927.713 10431.018 15883.801 10970.773 15943.562 8945.262 13149.924 12657.209 15314.031 16782.960 9440.270 7725.199 10393.662 8135.327 11170.340 12997.171 17254.919 12813.425 6795.002 11028.288 18039.941 11477.260 15709.201 19813.472 11418.800 15823.844 11340.625 16335.566 16127.296 8956.767 12049.054 11247.879 120.677 8912.584 16346.157 7748.013 11213.899 11552.896 9425.171 11612.957 24688.179 17701.631 16336.023 13256.089 10033.241 11188.028 16478.592 9609.668 15753.505 8244.963 11154.336 10981.829 20742.901 18886.004 14484.746
8438.141 8051.934 8962.625 16420.894 9341.264 15792.270 10225.501 9963.332 9048.997 11340.115 9388.482 10825.587 9013.358 12071.903 8362.126 9174.434 9636.700 9175.700 16890.050 8165.101 8934.091 10525.089 10796.725 5875.045 11296.706 9623.440 5550.874 9549.085 9092.017 12444.731 9330.483 13771.221 9293.529 10082.272 6306.162 7725.654 9257.329 9118.480 22521.959 16761.914 10364.217 10110.464 17496.352 12377.809 9193.902 3928.215 10266.054 19485.606 0.000 6935.560 4702.797 4782.935 9738.341 22455.186 9996.540 9615.063 9461.208 9461.688 10869.658 14567.462 9470.373 17859.140 15451.110 4565.505 4413.612 9064.283 15536.392 7917.415 9228.309 8793.711 9779.446 10522.981 14103.503 12816.141 8968.799 5525.506 9999.984 9185.533 12560.601 9403.928 8592.260 9246.739 17517.445 9178.300 7686.006 9236.206 3423.174 9341.888 9066.705 6667.197 10245.912 15482.896 18037.163 1541.167 7158.643 8981.047 11949.965 9251.924 9811.299 8217.282 9403.579 2698.693 5485.101 8833.331 10071.248 10123.957 8353.339 12781.636 7646.669 9160.047 12752.060 22995.949 22081.569 6998.572 8605.125 8838.658 6745.627 5946.697 10081.773 7254.572 5404.901 6748.627 10141.273 17635.916 8855.022 9946.981 8124.446 8814.035 9622.530 9147.804 9899.956 5665.741 9711.551 15862.958 11060.092 6728.733 8149.901 4707.680 5311.218 10890.686 12126.283 10554.466 11744.512 10233.363 7906.762 5744.596 8451.954 14378.742 9053.718 4972.347 9452.474 5234.392 15362.537 9625.664 5232.017 8833.775 4824.337 17377.500 10926.888 10781.998 10395.650 19364.928 10971.071 4215.553 11983.732 9819.184 9759.761 10561.031 9495.679 16902.896 6191.307 19576.675 6818.576 10069.078 9259.680 4657.672 10301.224 18994.157 12223.761 9346.904 9041.892 13550.261 10280.162 13940.648
1569.627 3382.148 3343.343 12568.970 3721.983 13554.754 3811.893 4264.103 3429.715 4937.894 3875.970 4648.826 3394.076 5203.389 3191.358 12228.710 3756.087 3556.419 14652.533 2894.171 2065.577 4348.328 4394.504 6039.330 4428.192 3766.931 4644.055 3989.510 3472.735 8380.405 3711.201 6902.707 3674.247 4383.044 2430.977 10779.930 3638.047 3880.767 15993.895 9893.400 4750.814 3241.950 10627.838 8313.484 2790.069 5632.745 4706.479 12617.092 6719.933 0.000 4596.829 4854.589 2992.760 15586.672 4297.312 4029.574 3841.927 3842.407 4467.437 7747.604 2601.859 10990.626 11386.784 4199.117 5893.356 2854.650 11472.066 1048.900 3609.028 3174.430 4608.678 4570.671 11396.793 5947.627 3349.517 4565.044 4300.756 3566.251 5692.087 3784.646 2825.763 3175.676 10648.930 3521.177 2971.264 3248.282 4754.536 3080.528 2881.304 3008.427 4069.151 8614.382 15207.003 6129.467 7544.087 3361.765 5081.450 3632.642 5741.955 1348.768 3784.297 8553.215 4516.766 4769.005 4511.673 3378.375 1484.824 10773.529 3932.323 3540.765 5883.545 18931.624 15213.055 3396.677 2710.517 3219.376 3086.857 2530.260 3905.012 432.122 4512.041 1138.073 4581.698 12809.025 3913.634 3078.467 6116.339 3872.647 2754.016 3528.522 3031.442 4758.922 4012.322 13156.248 4191.578 3069.963 3480.116 3981.226 5258.863 4022.172 5257.769 4377.705 5277.806 4912.672 3926.433 6130.040 4026.648 7510.228 3434.436 5510.792 4084.339 4584.322 11298.211 4066.089 4698.965 1965.261 4718.369 12550.609 4524.667 5222.423 4990.211 12496.414 4568.849 4590.823 5115.217 4259.609 4200.186 4158.810 4220.037 14665.379 6576.752 14545.267 2028.819 3577.200 3747.168 4954.496 3799.348 13962.749 5355.247 3761.415 2852.866 10720.101 8296.075 8535.208
5208.296 4108.297 5123.144 16498.960 5501.784 17517.729 6386.021 6123.852 5209.517 7500.635 5453.820 6986.106 5173.877 8337.094 4522.645 9215.073 5797.219 5336.220 18615.509 4325.621 5152.558 6685.609 6957.244 2181.278 7482.079 5783.960 879.672 5614.423 5252.536 12310.394 5491.002 10302.859 5454.049 6242.792 2853.639 7766.294 5417.848 5183.818 19632.565 13293.552 6371.686 6328.931 14027.990 12243.473 6720.059 2189.290 6331.392 16017.243 4563.079 4494.703 0.000 556.035 6643.189 19225.342 6157.060 5680.401 5621.728 5578.752 7030.178 10727.982 5688.841 14390.778 15316.773 834.653 2010.942 5224.803 15402.056 4662.845 5388.829 4954.231 5517.378 6683.500 9446.776 9326.295 5129.319 854.303 6160.504 5346.052 9330.756 5520.991 4752.780 5407.259 14049.082 5338.820 3846.525 5396.725 1740.899 5502.407 5227.225 2827.716 6406.431 12137.039 19169.979 4678.035 3464.876 5141.567 8254.358 5412.444 9671.945 5368.099 5564.099 6396.360 813.898 8698.995 6136.586 7365.465 5123.494 8124.910 3169.015 5320.567 9437.442 22861.613 18851.725 2949.445 4765.644 4999.177 2906.146 6493.235 6242.293 4813.715 1440.172 3742.578 6206.611 12979.189 4496.111 6717.137 3467.719 4455.124 6392.685 5308.324 6165.775 994.538 5872.070 11206.232 7830.247 2889.253 3901.260 1194.523 960.310 7660.841 8389.021 6714.986 7905.031 5971.295 3429.108 2050.829 7956.638 10586.657 5214.238 7553.747 5517.812 563.189 15228.201 5691.002 560.815 5199.514 339.759 12720.773 7087.407 6847.336 6133.582 15896.566 7131.590 490.788 8442.354 5884.522 5825.099 6721.551 5561.017 18628.355 2497.540 14919.948 3259.843 6229.598 5325.018 655.942 6461.743 14337.431 8993.917 5412.242 5202.412 14683.076 12259.051 9678.579
5581.832 4453.009 5496.680 16800.078 5875.319 17818.847 6759.556 6497.387 5583.052 7874.170 5798.532 7359.642 5547.413 8710.629 4896.181 8686.555 6170.755 5709.755 18916.627 4699.156 5526.094 7059.144 7330.780 1650.599 7855.614 6157.495 1081.936 5959.135 5626.072 12611.512 5864.538 10676.394 5827.584 6606.501 3154.757 7237.775 5791.384 5528.530 20006.100 13667.087 6716.398 6702.467 14401.525 12544.591 7021.176 1658.610 6676.104 16390.779 4501.509 4795.821 519.337 0.000 7016.725 19598.877 6530.595 6025.113 5995.263 5923.464 7403.713 11101.517 6062.376 14764.313 15617.891 1135.770 1480.262 5598.338 15703.173 5036.380 5762.364 5327.766 5862.090 7057.036 9791.488 9699.831 5502.854 1056.567 6534.039 5719.588 9704.292 5865.703 5126.315 5780.794 14422.618 5712.355 4220.061 5770.261 1275.792 5875.943 5600.760 3201.252 6779.967 12510.574 19471.096 4616.465 2934.196 5515.102 8627.893 5785.979 9973.062 5741.634 5937.634 6334.790 1016.162 9000.112 6481.298 7739.001 5497.029 8469.622 3513.727 5694.102 9810.978 23162.731 19225.260 3294.157 5139.180 5372.713 3279.682 6794.353 6615.828 5114.833 1813.707 4043.696 6551.323 13323.901 4840.823 7090.672 3812.431 4799.836 6766.221 5681.859 6539.310 1196.802 6245.606 11550.944 8203.783 3262.788 4245.972 1495.641 808.382 8034.377 8762.556 7088.521 8278.567 6316.006 3773.819 1520.149 8257.756 10960.193 5587.773 7492.177 5862.524 888.566 15529.318 6035.714 711.825 5573.049 640.877 13065.485 7460.943 7192.048 6478.294 16270.101 7505.126 791.906 8815.889 6229.234 6169.811 7095.086 5905.729 18929.473 1966.861 15264.660 3633.379 6603.133 5669.730 125.263 6835.279 14682.143 9367.452 5756.954 5575.947 14984.194 12560.169 10023.291
1252.965 3600.833 2915.040 10927.637 2893.951 13272.839 2477.103 3357.817 2958.731 3958.249 3322.871 3742.540 2894.993 3696.286 2763.055 14022.573 2849.801 3003.320 14370.619 3105.835 2260.823 3442.042 3315.205 7475.804 3040.019 2860.645 6080.528 3436.411 2919.636 6739.072 2948.505 5395.604 2970.743 3476.757 4660.196 12573.794 3084.948 3327.668 14486.792 8386.297 3844.527 1907.159 9120.735 6672.150 1112.095 7426.608 3831.752 11109.989 9168.758 2710.340 6338.995 6690.280 0.000 14079.569 3391.025 3476.475 3030.963 3242.325 3388.139 6240.501 1469.845 9483.523 9745.451 6117.467 7687.220 2426.347 9830.733 1865.668 3055.929 2746.127 4180.376 3664.385 10490.506 4440.524 2878.534 6001.517 3394.469 3013.152 4184.984 3184.564 2741.214 2281.802 9141.827 2627.303 3189.949 2354.407 6548.399 2186.653 2453.002 4087.311 3162.865 7107.279 14313.717 8578.291 8980.560 2808.667 3574.347 2956.760 4100.622 1601.534 3140.928 11002.039 5953.240 3127.672 3636.946 1425.625 1545.385 10976.341 4422.641 2669.922 4376.442 17290.290 13705.952 4475.561 2624.086 2791.073 4130.328 4963.942 2998.726 3075.416 5948.514 3367.292 4028.599 11902.739 3485.331 1388.855 6987.404 3444.344 1078.330 2780.763 1535.453 6195.395 3106.036 12249.962 2632.147 4147.221 3695.973 5502.238 7094.554 2386.515 3750.666 3471.419 3770.703 4006.385 4035.936 7566.513 2348.674 6003.125 2881.337 7959.617 3531.240 6020.795 9656.878 3512.990 6135.438 1674.129 6623.010 11644.323 3445.368 4669.324 4083.924 10989.311 3489.551 6509.173 3608.115 3706.510 3647.087 3179.165 3666.938 14383.465 8013.225 13638.981 3419.104 2661.652 3194.069 6790.187 2464.557 13056.463 3848.144 3208.316 2424.563 10438.186 8586.308 7628.922
14136.631 15973.141 14906.248 13902.531 14128.294 19914.615 13032.285 14592.160 14475.287 12528.564 14686.436 13410.881 14411.549 11261.266 15135.364 26906.240 14084.144 14359.742 20491.363 15478.144 15104.635 13110.383 12494.683 20359.470 12170.462 14094.988 18964.195 14752.036 14351.010 16288.826 14182.848 11240.357 14205.085 14711.100 17543.862 25457.460 14446.786 14655.378 1303.820 12621.642 14378.088 13436.538 12090.807 16323.963 13917.673 20310.275 14365.312 13975.046 22295.764 15642.876 19222.662 19573.946 13706.190 0.000 14625.368 14792.101 14265.305 14476.667 12529.388 12414.532 14064.885 12453.595 12055.096 19001.134 20570.886 14353.219 12050.995 14749.335 14307.133 14737.335 15244.492 13956.234 20857.651 10372.107 14395.090 18885.183 14628.812 14376.717 10293.587 14418.907 15113.522 13798.358 12111.900 14143.859 15562.257 13870.963 19432.066 13703.209 14379.873 16617.543 13372.710 8828.317 19011.881 21705.297 21864.227 14325.223 11185.557 14191.103 14572.968 14747.239 14375.271 24129.045 18836.906 14934.473 14170.507 12977.477 14429.051 22891.230 16753.483 14186.478 10483.254 9106.913 481.366 17004.478 14996.394 14782.281 16502.636 17769.520 13437.885 16007.952 18832.180 16250.958 14882.766 22436.299 15816.172 13098.401 18902.293 15775.185 13227.044 14297.319 13588.288 19079.062 14340.378 22617.106 11488.984 16519.530 16026.815 18385.904 19978.220 12197.119 11094.805 13763.268 11504.933 14539.946 16366.777 20450.180 15154.252 12177.156 14397.893 20455.224 14846.866 18904.462 11982.190 14788.406 19019.105 14517.941 19506.677 22177.883 12326.372 15418.660 14617.485 13854.368 12282.190 19392.839 11062.760 14583.505 14922.502 12794.777 14982.563 20530.788 20896.891 23009.567 16302.771 13402.846 14557.634 19673.853 12979.274 22427.049 10962.343 14523.942 14351.435 18454.386 18694.399 18162.482
2589.741 2270.006 1427.388 13727.302 659.071 16072.505 1249.421 33.208 996.427 2289.941 905.601 1613.654 932.689 3200.494 1831.992 13966.676 625.186 625.496 17170.285 2181.113 2342.798 1313.156 1820.645 7054.787 2405.643 601.616 5659.512 723.255 658.052 9538.737 498.756 5166.259 611.336 85.732 5587.425 12517.897 536.725 671.735 14706.819 8156.952 915.484 2028.052 8891.390 9471.816 3911.760 7370.711 902.709 10880.644 9718.219 3728.894 5917.979 6269.264 2994.422 14299.596 0.000 231.884 423.311 447.886 1893.579 5517.288 1947.778 9254.178 12545.116 6089.487 7631.322 1456.707 12630.398 2792.037 578.444 1258.475 1781.889 807.124 7561.463 4189.696 916.229 5580.501 3.444 608.521 4207.909 390.126 2328.793 1166.071 8912.483 1097.631 2265.226 1155.537 6492.502 1261.219 1014.135 3320.512 1254.555 7000.439 17113.383 9791.315 8559.544 834.428 3117.758 554.661 6900.287 3092.032 346.490 11551.501 5532.223 5927.337 707.903 3981.070 2773.844 9428.627 2993.738 1079.378 4300.843 20089.956 13925.979 3433.620 1987.199 1303.421 3205.605 6192.108 1105.693 4093.970 5892.616 4294.521 1315.443 8973.696 2056.428 3012.081 5439.690 2015.441 2743.918 1067.135 1881.842 5774.379 362.233 9320.919 3324.557 3222.499 2267.070 5446.341 6673.538 3299.777 3252.421 1053.768 2768.432 1077.342 2607.033 7145.497 5148.339 5375.963 740.335 9172.641 818.085 5599.779 12456.543 799.835 5714.422 1925.502 6226.144 8715.280 1950.808 1956.057 1154.881 10759.967 1994.991 6377.174 3305.754 993.355 933.931 1584.951 953.782 17183.130 7592.209 10709.938 4211.248 1397.589 776.799 6369.171 1325.144 10127.420 4307.098 495.161 1454.923 13237.852 11385.973 4699.879
2357.857 2038.122 1195.504 13666.479 467.344 16011.682 1188.598 553.191 764.543 2303.212 673.717 1788.684 700.805 3139.671 1600.108 13734.792 564.363 393.612 17109.461 1949.229 2110.914 1488.186 1759.822 6822.903 2344.820 540.793 5427.628 491.371 426.168 9477.914 307.029 5105.436 419.609 672.131 5355.541 12286.013 304.841 439.851 14645.996 8096.129 1221.200 1967.229 8830.567 9410.992 3850.937 7138.827 1208.341 10819.821 9486.335 3497.010 5686.095 6037.380 2933.599 14238.773 586.399 0.000 355.544 216.002 1832.756 5530.559 1828.477 9193.355 12484.293 5857.603 7399.438 1224.823 12569.575 2560.153 346.560 1026.591 1844.474 1112.840 7867.179 4128.873 684.345 5348.617 589.843 376.637 4147.086 158.242 2096.909 934.187 8851.660 865.748 2033.342 923.653 6260.618 1029.335 782.251 3088.628 1209.009 6939.616 17052.560 9559.431 8327.660 602.544 3056.935 322.777 6839.464 2860.148 114.606 11319.617 5300.339 5866.514 1013.535 3920.247 2541.960 9315.554 2761.854 847.494 4240.020 20029.133 13865.156 3201.736 1755.315 1071.537 2973.722 5960.224 1044.870 3862.086 5660.732 4062.637 1083.559 9279.412 1824.544 2951.258 5326.617 1783.557 2683.095 835.251 1821.019 5542.495 301.410 9626.635 3263.734 2990.615 2035.186 5214.457 6441.654 3238.954 3191.598 1359.484 2707.609 1383.058 2375.149 6913.613 5087.516 5389.235 508.451 8940.757 586.201 5367.895 12395.720 567.951 5482.538 1693.618 5994.260 9020.996 1889.985 1724.285 1460.597 10699.143 1934.168 6145.290 3244.931 761.471 702.047 1524.128 721.898 17122.307 7360.325 11015.654 3979.364 1336.766 544.915 6137.287 1264.321 10433.136 4246.275 263.277 1223.039 13177.029 11268.365 5005.595
2380.963 2100.675 1218.611 13426.656 358.425 15771.859 948.775 832.556 787.650 2063.389 736.270 1548.861 723.912 2899.848 1623.215 13757.899 324.540 409.576 16869.638 1972.336 2134.021 1248.363 1519.999 6885.456 2104.997 300.970 5490.181 767.298 436.575 9238.091 198.109 4865.613 310.689 951.497 5378.648 12309.119 496.620 705.211 14406.173 7856.306 1319.267 1727.406 8590.744 9171.169 3611.114 7161.934 1306.491 10579.998 9509.442 3520.117 5748.648 6099.932 2693.776 13998.950 865.764 807.362 0.000 491.929 1592.932 5290.736 1647.132 8953.532 12244.470 5880.710 7422.545 1247.930 12329.752 2583.260 356.967 1049.698 2120.401 1210.906 7965.246 3889.050 707.452 5411.169 869.208 426.551 3907.263 434.168 2120.016 957.293 8611.837 888.854 2056.449 946.760 6283.725 1016.169 805.358 3111.735 969.186 6699.793 16812.737 9582.538 8390.213 625.651 2817.112 296.707 6599.641 2883.255 390.532 11342.723 5362.892 5626.691 1111.685 3680.424 2565.067 9378.107 2824.407 870.601 4000.197 19789.309 13625.333 3264.289 1778.422 1094.644 2996.828 5983.331 805.047 3885.193 5683.839 4085.744 1359.486 9377.478 1887.097 2711.435 5389.170 1846.110 2443.272 858.358 1581.196 5605.048 580.775 9724.701 3023.911 3013.722 2097.739 5237.563 6504.207 2999.131 2951.775 1277.740 2467.786 1481.124 2437.701 6976.166 4847.693 5149.412 531.558 8963.864 862.127 5430.448 12155.897 843.877 5545.091 1716.725 6056.813 9119.062 1650.162 2000.211 1558.663 10459.320 1694.344 6207.843 3005.108 1037.397 977.974 1284.305 997.825 16882.484 7422.878 11113.720 4002.471 1096.943 607.468 6199.840 1024.498 10531.202 4006.452 539.203 1246.146 12937.206 11085.327 5103.661
2193.691 1873.957 1031.339 13545.351 524.904 15890.554 1345.821 868.625 600.378 2460.435 509.552 1945.906 536.640 3296.894 1435.943 13570.627 721.586 229.446 16988.333 1785.064 1946.749 1645.408 1917.044 6658.738 2502.042 698.015 5263.463 275.369 382.585 9356.786 405.057 5262.658 477.169 922.735 5191.376 12121.847 140.675 275.685 14803.218 8253.352 1090.501 1846.101 8987.789 9289.864 3729.809 6974.662 992.338 10977.043 9322.170 3332.845 5521.930 5873.214 2812.471 14395.995 901.833 315.434 535.783 0.000 1989.978 5687.782 1664.312 9350.577 12363.165 5693.438 7235.273 1060.658 12448.447 2395.988 282.055 862.425 1628.472 1396.237 7892.191 4286.095 520.180 5184.451 905.277 212.471 4304.308 155.447 1932.744 770.021 9008.882 701.582 1869.177 759.488 6096.453 865.170 618.086 2924.463 1366.231 7096.838 16931.432 9395.266 8163.495 438.379 3214.158 362.230 6718.336 2695.983 430.039 11155.451 5136.174 5745.386 797.533 3855.406 2377.795 9151.389 2597.689 683.329 4397.242 19908.005 14022.378 3037.571 1591.150 907.372 2809.556 5796.059 1202.092 3697.921 5496.567 3898.472 867.557 9304.424 1660.379 2886.418 5162.452 1619.392 2561.967 671.086 1699.891 5378.330 616.843 9651.647 3420.957 2826.450 1871.021 5050.291 6277.489 3396.176 3348.821 1642.881 2864.831 1408.070 2210.983 6749.448 4966.388 5546.457 344.286 8776.592 370.199 5203.730 12274.592 351.949 5318.373 1529.453 5830.095 9046.008 2047.207 1508.283 1485.609 10856.366 2091.390 5981.125 3402.153 545.469 486.045 1681.351 505.896 17001.179 7196.160 11040.666 3815.199 1493.988 380.750 5973.122 1421.543 10458.148 4403.498 47.275 1058.874 13055.901 11104.199 5030.607
2990.868 3589.539 2522.647 13205.897 1744.692 15699.219 648.684 2208.558 2091.686 1197.566 2302.834 1298.715 2027.948 1452.702 2751.762 14820.371 1700.542 1976.140 16796.999 3094.542 2743.926 998.217 111.081 8150.213 821.854 1711.386 6754.938 2368.435 1967.409 9017.331 1799.246 3418.467 1821.483 2327.498 5988.552 13371.591 2063.185 2271.776 12959.027 6409.160 2265.922 1348.807 7143.598 8950.410 3592.100 8224.406 2253.147 9132.852 10571.914 4130.021 7013.405 7364.689 2674.762 12551.804 2241.766 2408.499 1881.703 2093.066 0.000 4263.364 1882.251 7506.386 12023.710 6943.182 8485.017 1969.617 12108.992 3193.165 1923.531 2353.733 3132.326 1844.068 8911.901 2441.904 2011.488 6675.926 2245.210 1993.115 2460.117 2035.305 2729.920 1414.756 7164.691 1760.257 3178.655 1487.361 7346.197 1319.607 1996.271 4233.941 1260.544 5252.647 16740.097 10192.443 9654.970 1941.621 1369.966 1807.501 6471.490 3493.160 1991.669 12405.195 6627.649 5184.250 2058.341 3142.373 3174.972 10779.064 4369.881 1802.876 2553.051 19568.550 12178.187 4620.877 2612.792 2398.680 4119.034 6593.235 1325.719 4495.098 6746.311 4695.648 2770.600 10324.134 3432.571 2173.385 6790.127 3391.583 2302.028 1913.717 1562.183 6869.805 1956.777 10671.357 2063.536 4135.928 3643.213 6300.035 7768.964 2038.756 1504.629 1651.102 1020.640 2427.780 3983.175 8240.923 4828.680 4025.988 2014.292 9573.768 2463.264 6695.205 11935.137 2445.014 6809.848 2326.629 7321.570 10065.718 203.016 3306.494 2505.319 9012.175 247.199 7343.054 1557.962 2471.339 2579.111 411.175 2598.962 16809.845 8687.635 12060.375 4612.375 1019.245 2174.032 7464.597 595.672 11477.857 2620.762 2140.340 1967.833 12864.566 11007.669 6050.316
6242.246 7271.632 6389.568 16236.527 5349.085 18729.850 4742.042 5812.950 5958.607 3227.865 5907.227 4536.435 5894.869 3043.957 6794.172 18913.729 5304.934 5580.533 19827.630 7143.293 6837.284 4235.937 4277.373 12056.413 4043.440 5315.778 10661.138 5972.827 5571.801 12047.962 5403.639 1956.107 5425.876 5871.599 9649.477 17464.949 5667.577 5876.169 13029.615 4287.623 5503.642 5369.938 5022.061 11981.041 6729.142 12317.764 5490.866 7011.315 14401.378 7748.491 10919.605 11270.890 5811.804 12622.392 5846.159 6012.892 5486.096 5697.458 4312.079 0.000 5975.610 5384.849 15054.341 11036.540 12578.375 6062.975 15139.623 6854.949 5527.924 6220.655 6370.046 5081.788 12149.621 2521.411 5878.409 10582.127 5849.603 5597.508 2909.695 5639.697 6823.279 5508.114 5043.154 5853.615 7227.406 5580.719 11439.555 5412.966 5976.315 8282.692 4498.264 4221.319 19770.728 13810.912 13561.170 5796.608 3058.535 5411.894 9502.121 6852.854 5596.062 16234.660 10533.849 8214.881 5296.061 6173.004 6534.666 14016.784 7995.364 5896.234 2632.558 20676.441 12248.775 8435.246 6706.150 6265.601 8167.785 10211.705 4563.439 8113.567 10839.669 8356.573 6008.320 13561.853 7058.054 5204.016 10027.847 7017.067 5332.659 6007.075 5583.314 10776.005 5561.169 13909.076 4097.559 8184.679 7268.696 10393.393 11675.164 4592.566 2877.496 4888.822 3287.624 5665.500 7608.659 12147.123 7965.722 337.568 5702.515 13192.237 6067.657 10601.405 14965.768 5913.960 10716.048 6419.988 11227.770 13303.437 4109.063 6544.214 5743.039 6890.637 4064.880 11378.800 2900.310 5709.059 6048.056 4327.286 6203.354 19840.476 12593.835 14675.549 8408.385 5112.603 5778.425 11370.797 4689.030 14093.031 3397.259 5744.733 6061.191 15895.197 14038.300 9288.036
1494.020 2571.589 1885.797 12184.057 1473.252 14529.260 1331.590 1937.118 1538.032 2601.647 1902.172 2321.840 1474.294 3054.733 1733.812 13802.421 1429.102 1582.621 15627.040 2076.592 1338.461 2021.343 2058.257 7132.263 1947.889 1439.946 5736.988 2015.712 1498.937 7995.492 1527.806 5101.532 1550.043 2056.058 4690.542 12353.642 1664.249 1906.969 14227.070 8092.226 2423.828 761.646 8826.663 7928.571 2368.515 7206.456 2411.053 10815.917 9453.015 2800.127 5995.455 6346.740 1451.177 13819.847 1970.326 2055.776 1610.263 1821.626 2131.190 5828.994 0.000 9189.451 11001.871 5925.232 7467.067 1397.104 11087.153 1863.271 1635.230 1716.884 3151.132 2243.685 9069.807 4124.969 1457.834 5657.977 1973.770 1592.453 3925.262 1763.865 1711.971 861.102 8847.756 1206.603 2160.706 933.708 6328.247 765.954 1423.758 3215.991 1742.165 6847.557 15570.138 8862.548 8637.020 1387.968 2932.794 1536.061 5357.042 1996.312 1720.229 11286.296 5609.699 4384.092 2216.247 2494.112 1678.124 9947.098 3393.398 1249.223 4116.721 18546.711 13446.230 3602.927 1594.843 1761.830 3101.085 5263.341 1578.027 3165.204 5728.361 3397.638 2607.900 10482.040 2456.088 1525.124 5958.161 2415.101 1200.673 1360.064 476.934 5851.855 1685.337 10829.263 2424.753 3117.978 2666.730 5282.086 6751.014 2399.973 3187.695 2050.720 2911.829 2585.686 3006.693 7222.973 3605.094 5687.670 1460.638 8243.874 2110.541 5677.255 10913.298 2092.291 5791.898 829.782 6303.620 10223.624 2188.420 3248.625 2663.225 10695.240 2232.602 6325.104 3120.790 2285.811 2226.388 1822.563 2246.239 15639.885 7669.685 12218.281 3429.601 1240.953 1773.370 6446.647 1319.044 11635.764 3588.422 1787.617 1395.320 11694.607 9842.728 6208.222
9472.556 10986.141 9919.249 19466.837 9141.294 21960.160 8045.286 9605.160 9488.288 7541.564 9699.437 8423.881 9424.550 6274.267 10148.364 22216.973 9097.144 9372.743 23057.940 10491.144 10140.528 8123.384 7507.683 15546.815 7273.750 9107.988 14151.540 9765.037 9364.011 15278.272 9195.848 5186.417 9218.086 9724.100 12879.786 20768.194 9459.787 9668.378 12862.586 1255.503 9391.088 8600.248 456.338 15211.351 9959.452 15621.008 9378.313 2185.813 17631.688 10978.801 14410.007 14761.292 9042.114 12455.363 9638.368 9805.101 9278.306 9489.668 7542.389 5414.984 9268.668 0.000 18284.651 14337.058 15881.619 9366.219 18369.933 10085.259 9320.133 9750.336 10257.492 8969.234 12566.713 5751.721 9408.090 14072.529 9641.812 9389.717 6140.005 9431.907 10126.523 8811.358 475.613 9156.859 10575.258 8883.963 14742.799 8716.210 9392.874 11630.543 8385.710 3676.276 23001.038 17041.222 17051.572 9338.223 6288.845 9204.103 12732.431 10083.164 9388.271 19464.970 14024.251 11445.191 9183.507 9403.314 9764.976 17904.231 11766.483 9199.478 5862.868 20509.412 12081.746 12017.479 10009.395 9795.282 11515.637 13442.015 8450.885 11343.877 14142.913 11586.883 9895.767 14768.319 10829.173 8434.326 13915.293 10788.186 8562.969 9310.319 8813.624 14266.407 9353.379 14326.168 7327.869 11532.530 11039.815 13696.638 15165.566 7822.876 6107.806 8776.268 6517.934 9552.946 11379.777 15637.525 11196.032 5177.608 9410.894 16422.547 9859.866 14091.807 18196.078 9801.406 14206.450 9723.232 14718.172 14509.903 7339.373 10431.661 9630.485 2065.135 7295.190 14728.764 6130.620 9596.505 9935.503 7807.777 9995.564 23070.786 16084.237 14718.629 11638.695 8415.847 9570.635 14861.199 7992.274 14136.111 6627.569 9536.942 9364.435 19125.507 17268.610 12867.352
10846.748 13458.103 12772.311 2143.972 12541.172 8174.772 11946.410 13005.038 12605.952 13427.556 12970.092 13300.456 12542.214 12636.224 12620.326 22299.137 12497.022 12650.541 9222.500 12963.106 12097.679 12999.958 12474.427 16880.783 12002.012 12507.866 15485.508 13083.632 12566.857 4530.268 12595.726 14335.542 12617.964 13123.978 13272.429 20850.357 12732.169 12974.889 10893.071 17326.235 13491.749 11376.467 18060.673 4565.405 9164.201 16474.197 13478.973 20049.927 15345.874 11748.492 15438.281 15696.041 10114.724 12053.455 13038.246 13123.696 12678.184 12889.546 12547.360 15180.439 11327.116 18423.461 0.000 15040.570 16734.808 12283.618 85.282 11427.685 12703.150 12603.398 14037.646 13311.606 20137.727 13380.462 12525.755 15406.496 13041.690 12660.373 13124.922 12831.785 12598.485 11929.023 18081.765 12274.524 13047.219 12001.628 15595.988 11833.874 12310.272 13649.328 12744.085 16047.217 8310.656 14278.451 18385.539 12455.888 12514.285 12603.981 6524.497 10891.633 12788.149 16893.994 15358.219 7059.508 13284.167 9345.641 11139.168 20833.612 14279.912 12317.143 13316.380 7808.512 12411.406 14037.578 12481.356 12648.344 13727.758 9916.924 12645.947 12067.504 15353.493 11979.526 13675.820 21549.960 13342.602 10458.045 16844.675 13301.615 10455.859 12427.984 11004.760 15600.375 12753.257 21897.183 11508.797 13710.864 13553.244 14822.678 16100.316 11263.165 12690.604 13118.640 12710.641 13653.606 13893.207 16971.493 8018.955 14943.063 12528.559 12769.206 13178.461 15425.775 338.384 13160.212 15540.418 11510.986 15559.821 21291.544 12604.590 14316.546 13731.145 19929.249 12576.667 15432.275 12548.053 13353.731 13294.308 12592.817 13314.159 9235.346 17418.204 23286.202 12981.121 12308.873 12841.290 15795.948 11933.865 22703.684 12788.082 12855.537 12281.834 6695.828 8026.283 17276.143
5080.581 4084.738 4995.429 16298.827 5374.069 17317.597 6258.306 5996.136 5081.801 7372.920 5421.287 6858.391 5046.162 8209.379 4394.930 9014.940 5669.504 5208.505 18415.376 4197.906 5024.843 6557.893 6829.529 2470.870 7354.364 5656.245 1303.912 5581.889 5124.821 12110.262 5363.287 10175.143 5326.333 6115.077 2653.506 7566.161 5290.133 5151.285 19504.849 13165.837 6397.021 6201.216 13900.274 12043.340 6519.926 2418.975 6298.858 15889.528 4766.484 4294.570 587.867 845.627 6515.474 19097.626 6029.345 5647.867 5494.013 5494.493 6902.463 10600.267 5561.125 14263.062 15116.641 0.000 2300.533 5097.087 15201.923 4535.130 5261.114 4826.516 5798.755 6555.785 9728.154 9198.580 5001.603 1278.543 6032.789 5218.337 9203.041 5436.732 4625.064 5279.544 13921.367 5211.105 3718.810 5269.010 1540.766 5374.692 5099.509 2700.001 6278.716 12009.323 18969.846 4881.439 3754.468 5013.852 8126.643 5284.728 9471.812 5240.383 5436.384 6599.765 1238.138 8498.862 6104.053 7237.750 4995.779 8406.287 3450.392 5192.851 9309.727 22661.480 18724.009 3031.377 4637.929 4871.462 2778.431 6293.103 6114.577 4613.582 1312.457 3542.445 6174.077 13260.567 4777.488 6589.421 3749.097 4736.501 6264.970 5180.608 6038.060 1418.779 5744.355 11487.609 7702.532 2761.537 4182.637 994.390 1249.902 7533.126 8261.306 6587.270 7777.316 6252.672 3710.485 2340.421 7756.505 10458.942 5086.522 7757.151 5485.279 987.430 15028.068 5658.469 985.055 5071.799 709.407 13002.151 6959.692 6814.803 6414.959 15768.851 7003.875 780.380 8314.638 5851.988 5792.565 6593.836 5528.484 18428.222 2787.132 15201.326 3132.128 6101.883 5292.485 945.534 6334.028 14618.808 8866.201 5379.708 5074.696 14482.943 12058.918 9959.957
6604.445 5608.602 6519.293 17821.474 6897.933 18380.591 7782.170 7520.001 6605.666 8896.784 6945.151 8382.256 6570.026 9733.243 5918.795 7816.334 7193.368 6732.369 19478.370 5721.770 6548.707 8081.758 8353.394 2632.829 8878.228 7180.109 2597.298 7105.753 6648.685 13632.908 6887.151 11699.008 6850.198 7638.941 4176.153 6367.555 6813.997 6675.149 21028.714 14689.701 7920.885 7725.081 15424.139 13565.987 8042.573 844.738 7822.723 17413.393 4227.453 5817.217 2034.700 1540.719 8039.339 20621.491 7553.209 7171.731 7017.877 7018.357 8426.327 12124.131 7084.990 15786.927 16639.288 2122.174 0.000 6620.952 16724.570 6058.994 6784.978 6350.380 7336.115 8079.649 11306.851 10722.445 6525.468 2571.930 7556.653 6742.201 10726.905 6960.596 6148.929 6803.408 15445.231 6734.969 5242.675 6792.874 1344.283 6898.557 6623.374 4223.866 7802.581 13533.188 20492.493 4342.408 3916.426 6537.716 9650.507 6808.593 10994.459 6764.248 6960.248 5742.817 2531.525 10021.509 7627.917 8761.614 6519.643 9845.894 5029.090 6716.716 10833.592 24184.127 20247.874 4555.241 6161.793 6395.326 4302.296 7722.524 7638.442 6136.229 2961.570 5065.092 7697.942 14839.264 6356.186 8113.286 5327.794 6315.198 7788.835 6704.473 7561.924 2712.165 7268.220 13066.307 9226.397 4285.402 5706.570 2517.037 2323.745 9056.991 9785.170 8111.135 9301.180 7790.032 5289.182 2502.380 9279.152 11982.806 6610.387 7560.667 7009.143 2403.929 16550.715 7182.333 2227.188 6595.663 2156.240 14580.848 8483.557 8338.667 7952.319 17292.715 8527.739 2307.269 9838.503 7375.853 7316.429 8117.700 7052.348 19491.216 2949.091 16780.023 4655.992 7625.747 6816.349 1415.456 7857.893 16197.505 10390.066 6903.573 6598.561 16005.590 12868.483 11497.317
1602.260 2200.931 1515.139 12970.146 1568.366 15315.348 1591.408 2032.231 1601.511 2706.023 1984.874 2416.954 1556.996 3542.481 1363.154 13431.763 1524.215 1665.323 16413.128 1705.934 1355.317 2116.456 2162.632 6761.605 2597.809 1535.060 5366.330 2098.414 1581.639 8781.580 1622.920 5508.246 1645.157 2151.172 4599.944 11982.983 1746.951 1989.671 15048.806 8498.939 2518.942 1444.917 9233.377 8714.659 3154.603 6835.798 2506.167 11222.631 9183.306 2741.413 5624.797 5976.081 2237.265 14641.583 2065.440 2138.478 1705.377 1916.739 2235.566 5933.369 1072.881 9596.165 11787.959 5554.573 7096.409 0.000 11873.242 1804.557 1717.932 1346.225 2780.474 2338.799 9164.921 4531.683 1521.313 5287.318 2068.884 1675.155 4549.896 1858.979 1341.312 943.804 9254.470 1289.306 1790.047 1016.410 5957.589 848.656 26.654 2845.333 1837.279 7342.426 16356.226 8803.834 8266.362 1470.670 3459.745 1631.175 6143.131 2104.551 1815.343 11016.587 5239.041 5170.181 2311.361 3379.433 1786.364 9576.440 3022.740 1331.925 4642.830 19332.799 14267.966 3232.268 1224.184 1391.172 2730.426 5204.627 1673.140 3106.490 5357.703 3307.040 2690.602 10577.154 2085.430 2410.445 5587.503 2044.442 2085.994 1442.766 1298.707 5481.197 1780.450 10924.377 3246.526 2747.320 2296.072 4911.427 6380.356 3221.745 3594.408 2145.833 3110.419 2680.800 2636.034 6852.315 4391.183 5792.045 1543.340 8185.160 2193.243 5306.597 11699.387 2174.993 5421.240 938.021 5932.962 10318.738 2292.795 3331.327 2758.339 11101.954 2336.978 5954.446 3647.741 2368.513 2309.090 1926.938 2328.941 16425.974 7299.026 12313.395 3223.767 1345.328 1856.072 6075.988 1650.620 11730.877 4410.195 1870.319 208.436 12480.695 10512.768 6303.336
10932.030 13543.385 12857.593 2229.254 12626.454 8260.054 12031.692 13090.320 12691.234 13512.838 13055.374 13385.738 12627.496 12721.506 12705.608 22384.419 12582.304 12735.823 9307.782 13048.388 12182.961 13085.240 12559.709 16966.065 12087.294 12593.148 15570.790 13168.914 12652.139 4615.550 12681.008 14420.824 12703.246 13209.260 13357.711 20935.639 12817.451 13060.171 10888.969 17411.517 13577.031 11461.749 18145.955 4650.687 9249.483 16559.479 13564.255 20135.209 15431.156 11833.774 15523.564 15781.323 10200.006 12049.354 13123.528 13208.978 12763.466 12974.828 12632.642 15265.721 11412.398 18508.743 85.282 15125.852 16820.090 12368.900 0.000 11512.967 12788.432 12688.680 14122.928 13396.888 20223.009 13465.744 12611.037 15491.778 13126.972 12745.655 13210.204 12917.067 12683.767 12014.305 18167.048 12359.806 13132.501 12086.910 15681.270 11919.156 12395.554 13734.610 12829.368 16132.499 8395.938 14363.733 18470.822 12541.170 12599.567 12689.264 6609.779 10976.915 12873.431 16979.276 15443.501 7144.790 13369.449 9430.923 11224.450 20918.894 14365.194 12402.425 13401.663 7804.410 12407.305 14122.860 12566.638 12733.626 13813.040 10002.206 12731.229 12152.786 15438.775 12064.808 13761.102 21635.242 13427.884 10543.327 16929.957 13386.897 10541.141 12513.266 11090.042 15685.657 12838.539 21982.465 11594.079 13796.146 13638.526 14907.960 16185.598 11348.447 12775.886 13203.922 12795.923 13738.888 13978.489 17056.775 8104.238 15028.345 12613.841 12854.488 13263.744 15511.057 423.666 13245.494 15625.700 11596.268 15645.103 21376.826 12689.872 14401.828 13816.427 20014.531 12661.949 15517.557 12633.335 13439.013 13379.590 12678.099 13399.441 9320.628 17503.486 23371.484 13066.403 12394.155 12926.572 15881.230 12019.147 22788.966 12873.364 12940.819 12367.116 6781.110 8111.565 17361.425
636.431 2445.291 2406.486 12312.477 2785.126 13893.707 2875.036 3327.247 2492.859 4001.038 2939.113 3711.969 2457.219 4270.193 2254.501 12340.349 2819.231 2619.562 14991.486 1957.315 1128.720 3411.472 3457.647 5793.579 3491.335 2830.075 4398.304 3052.653 2535.878 8123.912 2774.344 5969.510 2737.391 3446.187 2977.972 10891.570 2701.190 2943.910 15060.699 8960.204 3813.957 2305.093 9694.641 8056.990 2496.935 5744.384 3769.622 11683.895 7729.873 1076.986 4656.771 5008.056 2071.324 14653.476 3360.455 3092.717 2905.070 2905.550 3530.581 6814.407 1665.002 10057.429 11130.291 4435.243 6004.995 1917.793 11215.573 0.000 2672.171 2237.573 3671.822 3633.814 10459.936 5014.430 2412.661 4319.293 3363.899 2629.394 4758.890 2847.789 1888.907 2238.820 9715.734 2584.321 2034.407 2311.425 4866.175 2143.671 1944.448 2405.087 3132.294 7681.185 15545.956 7139.407 7298.336 2424.909 4148.254 2695.786 5485.462 813.098 2847.441 9563.155 4271.015 4512.512 3574.817 2810.465 551.628 9929.982 3321.627 2603.909 4950.349 18675.131 14279.859 2793.337 1773.660 2282.519 2483.517 3540.200 2968.155 1442.062 4266.290 1685.068 3644.841 11872.169 2976.777 2145.271 5870.587 2935.790 1820.820 2591.666 2098.245 4513.171 3075.466 12219.392 3258.382 2466.623 2543.259 3820.014 5412.330 3088.976 4324.573 3440.849 4344.609 3975.815 2989.576 5884.289 3733.514 6577.031 2497.580 6520.733 3147.483 4338.571 11041.718 3129.233 4453.214 1028.404 4940.786 11613.753 3587.810 4285.567 4053.354 11563.218 3631.993 4826.949 4182.021 3322.752 3263.329 3221.954 3283.180 15004.332 6331.001 13608.410 1736.880 2640.343 2810.311 5107.963 2862.491 13025.893 4422.051 2824.559 1916.009 11059.054 8708.211 7598.351
2023.997 1743.708 861.644 13375.657 278.704 15720.859 1099.620 791.707 430.683 2214.235 379.303 1699.706 366.945 3050.694 1266.248 13400.932 475.385 52.609 16818.639 1615.369 1777.054 1399.208 1670.844 6528.490 2255.842 451.815 5133.215 492.843 212.890 9187.091 158.857 5016.458 230.969 910.647 5021.681 11952.153 141.380 384.100 14557.018 8007.152 1307.975 1676.407 8741.589 9120.170 3560.114 6804.967 1209.812 10730.843 9152.475 3163.150 5391.682 5742.966 2642.776 14149.795 824.915 532.907 289.583 333.350 1743.778 5441.582 1494.618 9104.377 12193.470 5523.743 7065.578 890.963 12278.752 2226.293 0.000 692.731 1845.945 1351.355 8105.695 4039.895 350.485 5054.203 828.359 69.584 4058.108 275.590 1763.049 600.327 8762.682 531.888 1699.483 589.793 5926.758 695.475 448.391 2754.768 1120.031 6850.638 16761.737 9225.571 8033.246 268.684 2967.958 116.030 6548.641 2526.288 231.954 10985.757 5005.926 5575.691 1015.006 3685.712 2208.101 9021.140 2467.440 513.634 4151.042 19738.310 13776.178 2907.322 1421.456 737.677 2639.862 5626.364 955.892 3528.226 5326.873 3728.777 1085.031 9517.927 1530.130 2716.723 5032.203 1489.143 2392.272 501.392 1530.197 5248.081 539.925 9865.150 3174.757 2656.755 1740.772 4880.597 6147.240 3149.976 3102.621 1428.585 2618.631 1621.574 2080.735 6619.199 4796.694 5300.257 174.591 8606.897 587.672 5073.481 12104.897 569.422 5188.124 1359.758 5699.846 9259.511 1801.007 1725.756 1699.113 10610.166 1845.190 5850.876 3155.953 762.942 703.519 1435.151 723.370 16831.485 7065.911 11254.169 3645.504 1247.788 250.501 5842.873 1175.343 10671.651 4157.297 264.748 889.179 12886.206 10934.505 5244.110
1876.698 1654.883 168.913 13228.358 547.553 15573.560 1431.790 1169.621 283.384 2546.404 701.540 2031.875 219.646 3382.863 810.764 12945.448 842.988 381.989 16671.340 1159.885 1629.755 1731.378 2003.013 6275.291 2527.848 829.729 4880.016 815.080 298.305 9039.793 536.771 5348.628 499.818 1288.561 4713.749 11496.669 463.617 706.337 14889.188 8339.321 1630.212 1529.108 9073.759 8972.871 3412.816 6349.483 1532.049 11063.013 8696.992 3015.851 5138.483 5489.767 2495.477 14481.964 1202.829 855.144 667.497 667.977 2075.947 5773.751 1347.319 9436.547 12046.172 5068.259 6610.095 743.664 12131.454 2078.995 434.598 0.000 2085.858 1729.269 8431.902 4372.064 203.187 4801.004 1206.273 391.821 4390.277 610.216 1393.046 453.028 9094.851 384.589 1243.999 442.494 5471.274 548.176 301.092 2299.284 1452.201 7182.808 16614.438 8811.947 7780.048 187.336 3300.127 458.213 6401.343 2378.990 609.868 10530.273 4752.727 5428.393 1337.244 3538.413 2060.802 9024.050 2470.350 366.336 4483.212 19591.011 14108.348 2686.220 965.972 44.946 2184.378 5479.065 1288.062 3380.928 4871.389 3581.478 1407.268 9844.135 1533.040 2569.424 5035.113 1492.053 2244.973 354.093 1382.898 4994.883 917.839 10191.358 3262.898 2201.271 1743.682 4425.113 5894.041 3238.117 3434.790 1760.755 2950.800 1947.781 2083.645 6366.001 4649.395 5632.426 260.007 8459.598 909.910 4820.283 11957.599 891.660 4934.926 1212.459 5446.647 9585.719 2133.176 2047.994 2025.320 10942.335 2177.359 5468.131 3488.123 1085.180 1025.756 1767.320 1045.607 16684.186 6812.712 11580.377 3336.985 1275.367 572.738 5589.674 1507.512 10997.859 4406.292 586.986 741.880 12738.907 10787.206 5570.318
3008.893 1797.301 1698.076 14376.779 1483.614 16721.982 2304.531 1341.273 1523.233 3178.652 1219.958 2502.365 1459.495 4203.376 1519.754 13730.388 1680.296 1152.301 17819.761 1995.521 2524.942 2201.867 2875.754 6582.082 3460.753 1656.725 5186.807 895.192 1305.440 10188.214 1363.768 6162.153 1435.879 1222.333 5549.384 12281.608 1233.930 949.956 15702.713 9152.846 1171.375 2768.956 9887.284 10121.292 4561.237 7134.423 1291.936 11876.538 9481.931 3911.038 5445.274 5796.558 3643.898 15295.490 1308.065 1368.485 1494.493 1344.889 2948.688 6405.999 2479.514 10250.072 13194.593 5853.199 7251.464 1856.050 13279.875 2974.182 1204.910 1529.163 0.000 1695.835 7339.852 5185.590 1443.035 5107.795 1311.509 1162.134 5210.791 1287.129 2228.681 1692.876 9908.377 1624.437 2079.634 1682.343 6256.214 1788.025 1540.941 3134.920 2143.266 7996.333 17762.859 9596.886 8086.839 1361.234 4120.640 1320.940 7549.764 3511.185 1436.864 11315.212 5059.518 6576.814 1097.130 4778.261 3192.997 8077.408 2521.033 1606.184 5296.737 20739.432 14921.873 2960.915 1801.607 1574.109 3020.013 6374.252 2002.279 4276.115 5656.328 4476.665 1167.155 8752.085 1697.941 3809.273 4088.471 1656.954 3484.822 1593.941 2622.746 5301.674 1669.895 9099.308 4379.667 3036.907 1794.365 5210.052 6200.833 4354.886 4255.303 1942.479 3771.314 770.983 2134.327 6672.792 5797.816 6264.675 1267.141 9354.785 857.236 5127.074 13106.020 971.772 5241.717 2344.655 5753.439 8493.669 3005.917 1807.881 933.270 11755.860 3050.100 5904.468 4308.636 845.066 785.643 2640.061 900.441 17832.607 7119.503 10488.327 4172.621 2452.698 1091.156 5896.465 2380.253 9905.809 5362.208 1178.379 1833.659 13887.329 11682.393 4478.268
3412.609 3157.798 2480.161 14151.835 1439.678 16497.038 1645.338 1320.915 2049.200 1830.406 1997.820 1154.118 1985.462 2855.130 2880.252 15019.449 1395.528 1671.126 17594.817 3233.886 3165.667 853.621 1844.001 7942.580 2358.624 1406.372 6547.305 1664.590 1662.394 9963.270 1494.232 4813.906 1516.469 1201.975 6410.293 13570.670 1652.968 1787.978 14354.466 7804.600 834.018 2452.585 8539.037 9896.348 4336.293 8423.484 821.242 10528.291 10770.993 4551.763 6805.772 7157.056 3418.955 13947.243 1287.707 1348.127 1576.689 1564.129 1916.935 5057.753 2372.311 8901.825 12969.649 7142.260 8611.962 2391.358 13054.931 3614.906 1618.517 2311.248 1700.422 0.000 7479.997 3837.343 1969.002 6468.293 1291.151 1688.101 3862.544 1506.368 3151.662 1836.497 8560.130 2150.405 3318.000 1909.102 7545.275 1741.349 2066.908 4373.285 795.020 6648.086 17537.916 10614.184 9447.337 1887.201 2772.394 1502.487 7324.820 3914.901 1462.733 12604.274 6420.016 6351.870 626.437 4376.986 3596.713 9347.160 3881.531 2132.151 3948.490 20514.489 13573.626 4321.412 3034.533 2356.194 4258.379 7014.977 654.032 4916.839 6945.390 5117.389 1338.696 8892.229 3058.439 3407.998 5358.223 3017.451 3168.451 2119.909 2306.375 6662.172 1649.537 9239.452 3450.002 4275.272 3154.863 6499.114 7561.330 3425.222 2907.057 594.232 2423.067 995.876 3494.825 8033.290 5572.872 4916.428 1793.109 9995.509 1626.634 6487.572 12881.076 1244.336 6602.215 2748.371 7113.936 8633.813 1786.797 1874.590 1073.415 10407.614 1783.969 7264.966 2960.389 1039.435 1378.432 1620.394 1669.839 17607.663 8480.001 10628.471 5034.117 1822.122 1869.018 7256.963 1721.060 10045.953 4023.189 1611.404 2389.574 13662.385 11810.506 4618.412
9477.834 8656.839 8315.482 20786.457 7587.322 23131.660 8308.576 7092.766 7884.521 8535.943 7793.695 7859.656 7820.783 9560.667 8379.293 17295.294 7684.341 7513.589 24229.439 8855.059 9230.892 7559.158 8549.538 10689.919 9064.161 7660.770 9294.644 7436.441 7546.146 16597.892 7427.007 11519.444 7539.587 6973.826 11151.717 16157.140 7424.818 7559.828 21060.004 11369.433 6439.552 9087.207 12103.870 16530.970 10970.915 11537.650 6593.093 14093.124 14084.596 10616.988 9553.111 9904.395 10053.576 20652.780 7059.558 7119.978 7475.522 7335.980 8622.472 11763.290 8948.455 12466.658 19604.271 10092.559 11359.301 8344.801 19689.553 9680.131 7466.537 8146.569 6929.595 7053.126 0.000 10542.881 7804.323 9215.632 7063.002 7496.615 10568.082 7278.219 9088.220 8054.164 12124.963 7985.725 8939.172 8043.631 10998.805 8149.313 7902.229 9566.139 7500.557 12052.744 24172.537 14199.551 10458.224 7722.522 9477.931 7442.755 13959.442 9980.126 7234.584 15917.877 9167.355 12986.492 6848.623 11040.224 9661.938 7752.187 9380.571 7967.472 10654.028 27149.110 20279.164 9211.403 8661.145 8191.515 9644.569 13080.202 7359.570 10982.064 9863.729 11182.615 7110.547 4250.617 8389.283 10071.236 6678.934 8348.296 9803.072 7955.229 8940.997 9409.511 7421.388 1843.309 10155.540 9627.675 8653.903 10175.101 10308.669 10130.759 9612.594 7299.770 9128.605 6225.049 8993.865 10780.629 12207.494 11621.965 7628.429 16060.735 7398.485 9234.911 19515.698 7016.187 9349.554 8813.596 9861.276 3992.201 8492.335 7646.441 6302.588 13972.447 8489.506 10012.305 9665.927 6811.286 7150.283 8325.931 7441.690 24242.285 10519.304 6191.376 10285.138 8456.743 7664.893 10004.302 8384.299 5608.858 10728.726 7383.255 8343.017 20297.007 18388.342 3031.254
4349.655 5863.241 4796.348 14343.937 4018.394 16837.260 2922.385 4482.260 4365.387 2418.664 4576.536 3300.981 4301.649 1151.366 5025.464 17094.073 3974.244 4249.842 17935.039 5368.244 5017.627 3000.483 2384.783 10423.915 2150.850 3985.088 9028.640 4642.136 4241.110 10155.372 4072.948 2105.330 4095.185 4601.200 7756.886 15645.293 4336.886 4545.478 10779.330 5096.023 4268.188 3477.348 5830.461 10088.450 4836.552 10498.108 4255.412 7819.715 12508.788 5855.900 9287.107 9638.391 3919.214 10372.107 4515.468 4682.201 4155.405 4366.767 2419.488 2950.227 4145.768 6193.249 13161.751 9214.158 10758.719 4243.319 13247.033 4962.359 4197.233 4627.435 5134.592 3846.334 10914.167 0.000 4285.190 8949.628 4518.912 4266.817 574.103 4309.007 5003.622 3688.458 5851.553 4033.959 5452.357 3761.063 9619.899 3593.309 4269.973 6507.643 3262.810 3072.950 17878.137 11918.321 11928.672 4215.323 1165.944 4081.203 7609.530 4960.263 4265.371 14342.069 8901.351 6322.290 4060.607 4280.414 4642.076 12781.330 6643.583 4076.578 154.101 18426.156 9998.490 6894.578 4886.494 4672.381 6392.736 8319.114 3327.985 6220.976 9020.013 6463.982 4772.866 12326.399 5706.273 3311.425 8792.393 5665.285 3440.069 4187.419 3690.724 9143.507 4230.478 12673.622 2204.968 6409.630 5916.915 8573.737 10042.666 2699.976 984.905 3653.368 1395.033 4430.046 6256.877 10514.625 6073.131 2712.851 4287.993 11299.647 4736.966 8968.907 13073.178 4678.506 9083.550 4600.331 9595.272 12067.983 2216.472 5308.760 4507.585 7699.037 2172.290 9605.863 1007.719 4473.605 4812.602 2684.877 4872.663 17947.885 10961.336 14062.641 6515.795 3292.946 4447.734 9738.298 2869.374 13480.123 1181.611 4414.042 4241.535 14002.607 12145.709 8052.582
1673.511 1759.881 511.159 13041.397 889.799 15386.600 1662.660 1511.866 80.198 2777.274 1043.786 2374.121 561.892 3613.733 915.763 13050.447 1185.234 724.235 16484.380 1264.884 1426.569 2073.623 2233.884 6380.289 2669.061 1171.974 4985.014 1157.325 640.551 8852.832 879.017 5579.498 842.063 1630.807 4671.196 11601.667 805.863 1048.583 15120.058 8570.191 1972.458 1516.169 9304.629 8785.911 3225.855 6454.482 1874.295 11293.883 8801.990 2812.665 5243.481 5594.766 2308.517 14712.835 1545.074 1197.390 1009.743 1010.223 2306.817 6004.621 1144.132 9667.417 11859.211 5173.258 6715.093 540.478 11944.493 1875.808 776.844 342.246 2333.083 2071.515 8774.148 4602.935 0.000 4906.003 1548.518 734.067 4621.147 952.462 1412.564 795.274 9325.721 726.834 1348.997 784.740 5576.273 890.422 97.906 2404.283 1794.446 7413.678 16427.478 8875.086 7885.046 529.581 3530.997 800.458 6214.382 2175.803 952.113 10635.271 4857.725 5241.432 1679.489 3450.685 1857.615 9129.049 2575.349 708.581 4714.082 19404.051 14339.218 2791.218 1070.970 387.192 2289.376 5275.879 1630.307 3177.741 4976.387 3378.292 1749.514 10186.381 1638.039 2481.697 5140.112 1597.051 2157.245 696.338 1369.959 5099.881 1260.085 10533.604 3317.777 2306.270 1848.681 4530.111 5999.040 3292.997 3665.660 2103.000 3181.670 2290.027 2188.643 6470.999 4462.434 5863.296 602.252 8256.412 1252.155 4925.281 11770.638 1233.905 5039.924 1009.273 5551.646 9927.964 2364.047 2390.239 2367.566 11173.205 2408.229 5573.130 3718.993 1427.425 1368.002 1998.190 1387.853 16497.225 6917.711 11922.622 3295.019 1416.580 914.984 5694.673 1721.871 11340.104 4481.447 929.231 538.694 12551.947 10584.019 5912.563
4994.736 3740.520 4924.177 16599.272 5281.748 17618.041 6170.617 5862.703 5010.550 7285.231 5086.044 6770.702 4974.910 8121.690 4474.997 9433.957 5546.382 5018.387 18715.821 4277.973 5160.726 6470.204 6741.840 1934.344 7283.112 5522.811 148.840 5246.646 5032.500 12410.706 5229.854 10087.454 5234.013 5894.012 3796.344 8295.802 5100.015 4816.041 19419.004 13078.148 6003.910 6284.372 13812.585 12343.785 6820.370 2733.016 5963.615 15801.839 5559.851 4595.015 1214.990 1099.762 6429.629 19011.781 5895.911 5312.624 5360.579 5210.975 6814.774 10512.578 5697.009 14175.373 15417.085 1777.358 2554.668 5082.151 15502.367 4449.285 5070.996 4755.264 5149.601 6367.514 9078.999 9110.891 4930.352 0.000 5899.355 5028.219 9117.196 5153.215 4705.131 5208.292 13833.678 5139.853 3798.877 5197.758 2350.198 5303.441 5028.258 2780.068 6191.027 11921.634 19270.290 5674.806 3439.101 4942.600 8038.954 5187.026 9772.256 5154.538 5302.950 7393.132 48.277 8799.307 5768.809 7151.905 4909.934 7757.133 2801.238 5121.600 9222.038 22961.925 18638.164 2581.668 4717.996 4800.210 2858.498 6593.547 6026.888 4747.479 1519.127 4047.980 5838.834 12611.412 4128.334 6503.576 3099.943 4087.347 6179.125 5109.357 6138.162 263.707 5610.922 10838.455 7616.687 2841.605 3533.483 2137.228 1504.036 7447.281 8173.617 6499.581 7689.627 5603.518 3061.331 2025.054 8056.950 10371.253 4994.202 8550.518 5150.036 489.479 15328.513 5323.225 355.368 5219.982 1336.530 12352.996 6872.003 6479.559 5765.805 15681.162 6916.186 1487.560 8226.949 5516.745 5457.322 6506.147 5193.241 18728.667 2471.766 14552.172 2960.519 6030.631 4957.242 1199.669 6246.339 13969.654 8780.356 5044.465 5059.760 14783.388 12359.363 9310.803
2593.184 2273.450 1430.832 13730.746 662.515 16075.949 1252.865 36.652 999.871 2293.385 909.045 1617.098 936.133 3203.938 1835.436 13970.120 628.630 628.940 17173.729 2184.557 2346.242 1316.600 1824.089 7058.231 2409.087 605.060 5662.956 726.699 661.496 9542.181 502.200 5169.703 614.780 89.176 5590.869 12521.341 540.169 675.179 14710.263 8160.396 918.928 2031.496 8894.834 9475.260 3915.204 7374.155 906.153 10884.088 9721.663 3732.338 5921.423 6272.708 2997.866 14303.040 3.444 235.328 426.755 451.330 1897.023 5520.732 1951.222 9257.622 12548.560 6092.931 7634.766 1460.151 12633.842 2795.481 581.888 1261.919 1785.333 810.568 7564.907 4193.140 919.673 5583.945 0.000 611.965 4211.353 393.570 2332.237 1169.515 8915.927 1101.075 2268.670 1158.981 6495.946 1264.663 1017.579 3323.956 1257.999 7003.883 17116.827 9794.759 8562.988 837.872 3121.202 558.105 6903.731 3095.476 349.934 11554.944 5535.667 5930.781 711.347 3984.514 2777.288 9432.071 2997.182 1082.822 4304.287 20093.400 13929.423 3437.064 1990.643 1306.865 3209.049 6195.552 1109.137 4097.414 5896.060 4297.965 1318.887 8977.140 2059.872 3015.525 5443.134 2018.885 2747.362 1070.579 1885.286 5777.823 365.677 9324.363 3328.001 3225.943 2270.514 5449.785 6676.982 3303.221 3255.865 1057.212 2771.876 1080.786 2610.477 7148.941 5151.783 5379.407 743.779 9176.085 821.529 5603.223 12459.987 803.279 5717.866 1928.946 6229.588 8718.724 1954.252 1959.501 1158.325 10763.411 1998.435 6380.618 3309.198 996.799 937.375 1588.395 957.226 17186.574 7595.653 10713.382 4214.692 1401.033 780.243 6372.615 1328.588 10130.864 4310.542 498.605 1458.367 13241.296 11389.417 4703.323
1981.220 1700.931 818.867 13332.880 348.288 15678.082 1169.204 861.291 387.906 2283.819 336.526 1769.290 324.168 3120.277 1223.471 13358.155 544.969 16.975 16775.862 1572.592 1734.277 1468.792 1740.428 6485.713 2325.426 521.399 5090.438 423.259 170.113 9144.314 228.441 5086.042 300.553 980.231 4978.904 11909.376 71.796 314.516 14626.602 8076.736 1238.391 1633.630 8811.173 9077.393 3517.337 6762.190 1140.228 10800.427 9109.699 3120.373 5348.905 5700.189 2599.999 14219.379 894.499 463.323 359.167 276.156 1813.362 5511.166 1451.841 9173.961 12150.693 5480.966 7022.802 848.186 12235.976 2183.517 69.584 649.954 1776.362 1420.939 8040.081 4109.479 307.708 5011.426 897.943 0.000 4127.692 218.395 1720.272 557.550 8832.266 489.111 1656.706 547.016 5883.981 652.698 405.614 2711.991 1189.615 6920.222 16718.960 9182.794 7990.469 225.907 3037.542 185.614 6505.865 2483.512 301.538 10942.980 4963.149 5532.915 945.422 3642.935 2165.324 8978.363 2424.664 470.858 4220.626 19695.533 13845.762 2864.545 1378.679 694.900 2597.085 5583.587 1025.476 3485.450 5284.096 3686.000 1015.447 9452.314 1487.353 2673.946 4989.426 1446.366 2349.495 458.615 1487.420 5205.305 609.509 9799.537 3244.341 2613.978 1697.996 4837.820 6104.463 3219.560 3172.205 1498.169 2688.215 1555.960 2037.958 6576.423 4753.917 5369.841 131.815 8564.120 518.088 5030.705 12062.121 499.838 5145.348 1316.981 5657.069 9193.898 1870.591 1656.172 1633.499 10679.750 1914.774 5808.099 3225.537 693.358 633.935 1504.735 653.786 16788.708 7023.134 11188.555 3602.727 1317.372 207.724 5800.096 1244.927 10606.038 4226.881 195.164 846.402 12843.429 10891.728 5178.497
4234.373 5946.024 4879.131 14228.655 4101.177 16721.978 3005.168 4565.042 4448.170 2697.508 4659.319 3383.764 4384.432 1266.471 5108.247 17003.982 4057.026 4332.625 17819.757 5451.026 5100.410 3083.266 2467.566 10457.212 2129.437 4067.871 9061.937 4724.919 4323.893 10040.090 4155.731 2352.532 4177.968 4683.983 7641.604 15555.202 4419.669 4628.261 10858.951 5343.226 4350.971 3401.475 6077.663 9973.168 4721.270 10408.017 4338.195 8066.917 12393.506 5740.618 9320.404 9671.688 3803.932 10451.728 4598.251 4764.984 4238.188 4449.550 2502.271 3197.429 4069.895 6440.451 13046.469 9098.876 10668.628 4326.102 13131.751 4847.077 4280.016 4710.218 5217.375 3929.117 10996.950 628.484 4367.973 8982.925 4601.695 4349.600 0.000 4391.790 5086.405 3771.241 6098.756 4116.742 5535.140 3843.846 9529.808 3676.092 4352.756 6590.426 3345.592 3152.571 17762.855 11803.039 11961.969 4298.106 1144.532 4163.986 7494.248 4844.981 4348.154 14226.787 8934.648 6207.008 4143.389 4165.132 4526.793 12864.113 6726.365 4159.361 564.403 18505.777 10078.111 6977.361 4969.277 4755.164 6475.519 8203.832 3410.768 6105.694 8929.922 6348.700 4855.649 12409.182 5789.055 3196.143 8875.176 5748.068 3324.787 4270.202 3614.851 9176.804 4313.261 12756.405 2089.686 6492.413 5999.697 8483.646 10075.962 2584.694 1281.137 3736.151 1577.792 4512.828 6339.660 10547.922 5957.849 2960.053 4370.776 11184.365 4819.749 9002.204 12957.896 4761.289 9116.847 4615.684 9604.419 12150.766 2299.255 5391.543 4590.367 7946.240 2255.073 9490.581 1021.735 4556.388 4895.385 2767.660 4955.446 17832.603 10994.633 14145.424 6400.513 3375.729 4530.517 9771.595 2952.157 13562.906 980.452 4496.825 4324.318 13887.325 12030.427 8135.365
2199.615 1879.880 1037.262 13551.275 530.828 15896.478 1351.744 926.385 606.301 2466.358 515.475 1951.830 542.563 3302.817 1441.866 13576.551 727.509 235.370 16994.257 1790.987 1952.673 1651.332 1922.968 6664.662 2507.966 703.939 5269.387 333.130 388.508 9362.710 410.981 5268.582 483.093 980.496 5197.299 12127.771 146.599 281.609 14809.142 8259.275 1148.262 1852.025 8993.713 9295.788 3735.733 6980.586 1050.099 10982.967 9328.094 3338.768 5527.854 5879.138 2818.394 14401.919 959.594 373.194 541.707 57.761 1995.902 5693.705 1670.236 9356.501 12369.089 5699.361 7241.197 1066.582 12454.371 2401.912 287.979 868.349 1686.232 1453.998 7949.952 4292.019 526.104 5190.375 963.038 218.395 4310.232 0.000 1938.667 775.945 9014.806 707.506 1875.101 765.411 6102.377 871.093 624.010 2930.387 1372.155 7102.762 16937.355 9401.190 8169.419 444.302 3220.081 368.154 6724.260 2701.907 484.078 11161.375 5142.098 5751.310 855.293 3861.330 2383.719 9157.313 2603.613 689.253 4403.166 19913.928 14028.302 3043.495 1597.074 913.295 2815.480 5801.982 1208.016 3703.845 5502.491 3904.395 925.318 9362.185 1666.303 2892.342 5168.376 1625.315 2567.890 677.010 1705.815 5384.254 674.604 9709.408 3426.880 2832.374 1876.945 5056.215 6283.412 3402.100 3354.744 1680.709 2870.755 1465.831 2216.907 6755.372 4972.312 5552.381 350.210 8782.515 427.959 5209.654 12280.516 409.709 5324.297 1535.376 5836.019 9103.769 2053.131 1566.043 1543.370 10862.289 2097.314 5987.048 3408.077 603.229 543.806 1687.274 563.657 17007.103 7202.083 11098.426 3821.122 1499.912 386.673 5979.045 1427.467 10515.909 4409.421 105.035 1064.797 13061.824 11110.123 5088.367
1816.056 954.654 1536.397 13547.564 1915.037 15530.905 2730.758 2537.104 1622.769 3845.372 2061.452 3399.359 1587.130 4657.419 1035.095 12160.390 2210.472 1749.473 16628.684 466.678 1187.959 3098.861 3301.981 5490.233 3550.574 2197.213 4094.958 2182.564 1665.789 9358.998 1904.255 6647.595 1867.301 2656.045 3586.899 10711.611 1831.101 1791.450 15951.312 9638.289 2997.696 2364.332 10372.726 9292.077 3732.021 5564.425 2899.533 12361.980 7911.934 2574.055 4353.425 4704.709 2888.626 15544.088 2570.313 2222.628 2034.981 2035.461 3374.915 7072.719 1724.241 10735.514 12365.377 4283.201 5825.037 1638.056 12450.659 1637.198 1802.082 1367.484 2452.415 3096.753 9475.202 5671.032 1542.571 4015.946 2573.757 1759.305 5625.630 1977.700 0.000 1820.512 10393.819 1752.073 543.770 1809.978 4686.216 1915.660 1640.477 1599.056 2819.684 8481.775 16933.644 8026.889 6994.990 1554.820 4535.480 1825.696 6720.548 2318.348 1977.352 9745.215 3967.669 5747.598 2704.727 4030.794 2000.160 8439.345 1885.645 1733.819 5782.179 19910.217 15170.472 1985.991 906.701 1412.430 1484.149 5037.269 2655.545 2939.131 4086.331 3020.252 2774.752 10887.434 1757.371 3061.806 4450.408 1716.384 2737.354 1721.576 2201.176 4209.825 2285.323 11234.658 4148.994 1501.043 1052.622 3640.055 5108.983 3996.154 4733.758 3128.238 4249.768 2906.332 1498.939 5580.943 4968.600 6931.394 1627.490 8017.802 2125.444 4035.225 12276.804 2259.143 4149.868 1266.413 4661.590 10629.018 3432.144 3415.477 3068.620 12241.303 3476.327 4683.074 4723.476 2452.663 2393.240 3066.288 2168.649 16641.530 6027.654 12623.676 2020.243 2484.677 1932.650 4804.616 2789.969 12041.158 5312.664 1954.469 1615.664 12696.252 10345.409 6613.617
1941.019 2337.090 1213.589 12775.330 730.259 15120.533 978.762 1194.125 782.628 2093.376 1146.767 1578.848 718.890 2929.835 1618.193 13752.877 686.109 827.216 16218.312 1967.314 1694.076 1278.350 1549.985 7082.719 2074.820 696.953 5687.444 1260.307 743.532 8586.765 784.813 4895.600 807.051 1313.065 4938.703 12304.097 908.844 1151.564 14436.160 7886.293 1680.835 1076.080 8620.731 8519.843 2959.788 7156.912 1668.060 10609.985 9504.420 3080.172 5945.911 6297.195 2042.449 14028.936 1227.333 1300.372 867.271 1078.633 1622.919 5320.723 995.805 8983.519 11593.144 5875.688 7417.523 807.985 11678.426 2143.316 879.825 1044.675 2531.085 1500.692 8326.814 3919.037 702.430 5608.432 1230.777 837.048 3937.249 1020.872 1680.071 0.000 8641.823 451.199 2051.427 72.605 6278.703 95.148 800.336 3106.713 999.173 6729.780 16161.410 9142.593 8587.476 632.563 2847.099 793.068 5948.315 2443.311 977.236 11337.701 5560.155 4975.365 1473.254 3085.385 2125.123 9614.523 3060.823 493.818 4030.184 19137.983 13655.320 3493.648 1562.943 1089.622 2991.806 5543.386 835.034 3445.249 5678.817 3645.799 1852.495 9739.047 2123.513 2116.397 5625.586 2082.525 1791.945 604.659 929.870 5802.311 942.344 10086.270 2809.870 3008.700 2334.155 5232.541 6701.470 2785.089 2981.762 1307.727 2497.772 1842.693 2674.117 7173.429 4196.367 5179.398 705.234 8523.919 1355.137 5627.711 11504.571 1336.887 5742.354 1276.780 6254.076 9480.631 1680.148 2493.221 1920.232 10489.307 1724.331 6275.560 3035.095 1530.407 1470.983 1314.292 1490.834 16231.158 7620.141 11475.289 3562.526 822.339 1017.965 6397.103 1054.485 10892.771 3953.264 1032.213 806.201 12285.879 10434.001 5465.230
9130.860 10644.446 9577.553 19125.142 8799.599 21618.465 7703.590 9263.465 9146.592 7199.869 9357.741 8082.186 9082.854 5932.571 9806.669 21875.278 8755.449 9031.047 22716.244 10149.449 9798.832 7781.688 7165.988 15205.120 6932.055 8766.293 13809.845 9423.341 9022.315 14936.577 8854.153 4844.722 8876.390 9382.405 12538.091 20426.498 9118.091 9326.683 12520.891 1007.025 9049.393 8258.553 226.527 14869.655 9617.757 15279.313 9036.617 1968.161 17289.993 10637.105 14068.312 14419.596 8700.419 12113.668 9296.673 9463.406 8936.610 9147.972 7200.693 5073.289 8926.973 578.868 17942.956 13995.363 15539.924 9024.524 18028.238 9743.564 8978.438 9408.640 9915.797 8627.539 12225.017 5410.026 9066.395 13730.833 9300.117 9048.022 5798.310 9090.212 9784.827 8469.663 0.000 8815.164 10233.562 8542.268 14401.104 8374.514 9051.178 11288.848 8044.015 3334.581 22659.342 16699.526 16709.877 8996.528 5947.149 8862.408 12390.735 9741.468 9046.576 19123.274 13682.556 11103.495 8841.812 9061.619 9423.281 17562.535 11424.788 8857.783 5521.173 20167.717 11740.051 11675.783 9667.699 9453.586 11173.941 13100.319 8109.190 11002.182 13801.218 11245.187 9554.071 14426.623 10487.478 8092.630 13573.598 10446.490 8221.274 8968.624 8471.929 13924.712 9011.683 13984.473 6986.173 11190.835 10698.120 13354.942 14823.871 7481.181 5766.110 8434.573 6176.238 9211.251 11038.082 15295.830 10854.336 4835.913 9069.199 16080.852 9518.171 13750.112 17854.383 9459.711 13864.755 9381.536 14376.477 14168.207 6997.677 10089.965 9288.790 1847.484 6953.495 14387.068 5788.924 9254.810 9593.807 7466.082 9653.868 22729.090 15742.541 14376.934 11297.000 8074.151 9228.939 14519.503 7650.579 13794.416 6285.873 9195.247 9022.740 18783.812 16926.914 12525.657
1924.742 1885.892 762.390 13027.725 541.581 15372.928 1231.157 1163.649 331.429 2345.771 695.568 1831.243 267.691 3182.230 1166.994 13301.678 837.016 376.017 16470.707 1516.115 1677.800 1530.745 1802.381 6631.520 2327.215 823.757 5236.245 809.108 292.333 8839.160 530.800 5147.995 493.846 1282.589 4922.427 11852.898 457.645 700.365 14688.555 8138.688 1624.240 1328.475 8873.126 8772.238 3212.183 6705.713 1526.078 10862.380 9053.221 3063.896 5494.712 5845.997 2294.845 14281.332 1196.857 849.173 661.525 662.005 1875.314 5573.118 1248.201 9235.914 11845.539 5424.489 6966.324 791.709 11930.821 2127.039 428.626 593.477 2079.886 1723.298 8425.931 4171.432 251.231 5157.234 1200.301 385.849 4189.645 604.245 1663.795 252.395 8894.219 0.000 1600.228 241.862 5827.504 347.544 349.137 2655.514 1251.568 6982.175 16413.806 9126.317 8136.277 181.364 3099.494 452.241 6200.710 2427.034 603.896 10886.502 5108.956 5227.760 1331.272 3337.780 2108.846 9163.324 2609.624 165.703 4282.579 19390.379 13907.715 3042.449 1322.201 638.423 2540.607 5527.110 1087.429 3428.972 5227.618 3629.523 1401.296 9838.163 1672.314 2368.792 5174.387 1631.326 2044.341 153.460 1182.265 5351.112 911.868 10185.386 3062.265 2557.501 1882.956 4781.342 6250.271 3037.485 3234.157 1560.122 2750.168 1941.809 2222.918 6722.230 4448.762 5431.794 254.035 8507.643 903.938 5176.512 11756.966 885.688 5291.155 1260.504 5802.877 9579.747 1932.544 2042.022 2019.348 10741.702 1976.726 5824.361 3287.490 1079.208 1019.784 1566.687 1039.635 16483.553 7168.942 11574.405 3546.250 1074.734 566.766 5945.904 1306.880 10991.887 4205.660 581.014 789.925 12538.275 10686.396 5564.346
2241.487 410.884 1276.619 13888.651 1655.259 15956.335 2539.495 2277.326 1362.991 3654.110 1702.477 3139.581 1327.352 4490.568 676.120 11701.450 1950.694 1489.694 17054.115 479.096 1613.389 2839.083 3110.719 5031.292 3635.553 1937.434 3636.017 1863.079 1406.011 9700.086 1644.477 6456.333 1607.523 2396.266 3469.750 10252.670 1571.323 1432.474 15996.893 9447.026 2678.211 2596.684 10181.464 9633.164 4073.109 5105.485 2580.048 12170.718 7452.993 2999.485 3894.484 4245.768 3155.770 15589.670 2310.534 1929.057 1775.202 1775.682 3183.653 6881.457 1991.386 10544.252 12706.465 3824.260 5366.096 1378.277 12791.747 2062.629 1542.304 1107.706 2093.440 2836.975 9116.227 5479.770 1282.793 3557.005 2313.978 1499.527 5497.983 1717.922 906.254 1560.733 10202.557 1492.294 0.000 1550.200 4227.276 1655.882 1380.699 1055.286 2559.906 8290.513 17274.731 7567.948 6536.049 1295.041 4407.832 1565.918 7061.636 2743.779 1717.573 9286.274 3508.728 6088.686 2385.242 4297.938 2425.591 7895.575 1341.875 1474.041 5590.917 20251.304 15216.053 1442.221 919.119 1152.652 940.379 5462.699 2395.767 3364.562 3627.390 3169.195 2455.267 10528.459 1213.973 3328.950 3906.638 1172.985 3004.499 1461.798 2450.474 3750.884 2025.545 10875.682 4370.603 957.273 508.852 3181.114 4650.043 4263.298 4542.496 2868.460 4058.506 2547.357 955.169 5122.002 5309.688 6740.132 1367.712 8268.933 1766.469 3576.284 12617.892 1939.658 3690.927 1691.844 4202.649 10270.043 3240.882 3095.992 2709.644 12050.041 3285.065 4224.133 4595.828 2133.178 2073.755 2875.025 1809.674 17066.961 5568.714 12264.701 2169.185 2383.072 1573.675 4345.675 2615.218 11682.183 5513.998 1660.898 1355.886 13121.682 10770.840 6254.642
1965.453 2361.525 1238.023 12799.764 754.693 15144.967 1003.196 1218.559 807.062 2117.810 1171.201 1603.282 743.324 2954.269 1642.627 13777.311 710.543 851.650 16242.746 1991.748 1718.510 1302.784 1574.420 7107.153 2099.254 721.387 5711.878 1284.741 767.966 8611.199 809.247 4920.034 831.485 1337.499 4963.137 12328.531 933.278 1175.998 14460.594 7910.727 1705.269 1100.514 8645.165 8544.277 2984.222 7181.346 1692.494 10634.419 9528.854 3104.606 5970.345 6321.629 2066.883 14053.371 1251.767 1324.806 891.705 1103.067 1647.353 5345.157 1020.239 9007.953 11617.578 5900.122 7441.957 832.419 11702.860 2167.750 904.259 1069.109 2555.519 1525.127 8351.248 3943.471 726.864 5632.866 1255.211 861.482 3961.683 1045.306 1704.505 24.434 8666.257 475.633 2075.861 0.000 6303.137 119.582 824.770 3131.147 1023.607 6754.214 16185.844 9167.027 8611.910 656.997 2871.533 817.502 5972.749 2467.745 1001.670 11362.135 5584.589 4999.799 1497.688 3109.819 2149.557 9638.957 3085.257 518.252 4054.618 19162.417 13679.754 3518.082 1587.377 1114.056 3016.240 5567.820 859.468 3469.683 5703.251 3670.233 1876.929 9763.481 2147.947 2140.831 5650.020 2106.959 1816.379 629.093 954.304 5826.745 966.778 10110.704 2834.304 3033.134 2358.589 5256.975 6725.904 2809.524 3006.196 1332.161 2522.206 1867.127 2698.551 7197.863 4220.801 5203.832 729.668 8548.353 1379.571 5652.145 11529.005 1361.321 5766.788 1301.214 6278.510 9505.065 1704.583 2517.655 1944.666 10513.741 1748.765 6299.994 3059.529 1554.841 1495.417 1338.726 1515.268 16255.592 7644.575 11499.723 3586.960 846.773 1042.399 6421.537 1078.919 10917.205 3977.698 1056.647 830.635 12310.314 10458.435 5489.664
5624.602 4628.759 5539.450 16841.631 5918.090 17051.148 6802.327 6540.157 5625.822 7916.941 5965.308 7402.412 5590.183 8753.400 4938.951 7516.529 6213.525 5752.526 18148.927 4741.927 5568.864 7101.915 7373.550 2451.870 7898.385 6200.266 2256.086 6125.910 5668.842 12653.065 5907.308 10719.164 5870.355 6659.098 3196.310 6067.750 5834.154 5695.306 20048.871 13709.858 6941.042 6745.237 14444.295 12586.144 7062.729 1065.817 6842.880 16433.549 3240.557 4837.374 1478.662 1359.761 7059.495 19641.647 6573.366 6191.888 6038.034 6038.514 7446.484 11144.288 6105.147 14807.084 15659.444 1142.330 1326.428 5641.109 15744.726 5079.151 5805.135 5370.537 6356.272 7099.806 10680.328 9742.601 5545.625 2230.718 6576.810 5762.358 9747.062 5980.753 5169.086 5823.565 14465.388 5755.126 4262.831 5813.031 0.000 5918.713 5643.531 3244.022 6822.737 12553.345 19296.041 3355.512 3735.468 5557.873 8670.664 5828.750 10014.615 5784.405 5980.405 5073.838 2190.313 9041.665 6648.074 7781.771 5539.800 9358.462 4223.494 5736.873 9853.748 23204.284 19268.031 3575.398 5181.950 5415.483 3322.452 6393.081 6658.599 5156.386 1981.727 4085.249 6718.098 14212.741 5431.848 7133.443 4701.271 5390.861 6808.991 5724.630 6582.081 2370.953 6288.376 12439.784 8246.553 3305.559 4726.727 1537.194 2138.197 8077.147 8805.327 7131.292 8321.337 6810.188 4483.587 2321.421 8299.309 11002.963 5630.544 6231.224 6029.300 1939.604 15570.871 6202.490 1937.229 5615.820 1600.202 13954.325 7503.713 7358.824 6972.476 16312.872 7547.896 1267.550 8858.660 6396.010 6336.586 7137.857 6072.505 18161.773 2768.133 16153.500 3676.149 6645.904 5836.506 1234.498 6878.049 15570.983 9410.223 5923.729 5618.717 14809.139 11539.040 10517.473
1845.870 2326.541 1203.039 12680.181 719.710 15025.384 968.213 1183.575 772.078 2082.827 1136.218 1568.298 708.340 2919.286 1606.764 13675.373 675.559 816.667 16123.164 1949.544 1598.928 1267.800 1539.436 7005.216 1979.672 686.404 5609.941 1249.758 732.983 8491.616 774.264 4885.050 796.501 1302.516 4843.555 12226.594 898.295 1141.015 14425.610 7875.744 1670.286 980.932 8610.181 8424.695 2864.639 7079.408 1657.511 10599.435 9426.916 2985.024 5868.408 6219.692 1947.301 14018.387 1216.784 1289.822 856.721 1068.083 1612.370 5310.174 900.657 8972.969 11497.995 5798.184 7340.019 712.837 11583.277 2048.167 869.276 1034.126 2520.536 1490.143 8316.265 3908.487 691.880 5530.929 1220.228 826.499 3926.700 1010.323 1584.923 95.148 8631.274 440.649 2033.658 167.754 6201.199 0.000 739.491 3088.944 988.623 6719.230 16066.262 9047.445 8509.972 622.014 2836.550 782.519 5853.166 2348.162 966.687 11260.198 5482.652 4880.216 1462.705 2990.237 2029.974 9603.973 3050.273 483.269 4019.634 19042.835 13644.770 3475.879 1467.795 1079.072 2974.037 5448.238 824.484 3350.100 5601.314 3550.651 1841.946 9728.498 2112.963 2021.248 5615.036 2071.976 1696.797 594.110 834.721 5724.808 931.794 10075.721 2714.722 2990.930 2323.605 5155.038 6623.966 2689.941 2971.213 1297.177 2487.223 1832.144 2663.568 7095.925 4101.218 5168.849 694.684 8428.771 1344.587 5550.208 11409.422 1326.337 5664.851 1181.632 6176.572 9470.081 1669.599 2482.671 1909.683 10478.758 1713.782 6198.056 3024.545 1519.857 1460.434 1303.743 1480.285 16136.010 7542.637 11464.739 3467.378 727.191 1007.416 6319.599 1032.482 10882.221 3858.116 1021.663 711.053 12190.731 10338.852 5454.680
1575.605 2174.277 1488.484 12943.491 1541.712 15288.694 1564.754 2005.577 1574.857 2679.368 1958.220 2390.300 1530.342 3515.827 1336.499 13405.108 1497.561 1638.668 16386.474 1679.279 1328.663 2089.802 2135.978 6734.951 2571.155 1508.405 5339.676 2071.759 1554.985 8754.926 1596.265 5481.592 1618.503 2124.518 4573.290 11956.329 1720.297 1963.017 15022.152 8472.285 2492.288 1418.263 9206.723 8688.005 3127.949 6809.143 2479.512 11195.977 9156.651 2714.759 5598.143 5949.427 2210.611 14614.929 2038.786 2111.824 1678.723 1890.085 2208.911 5906.715 1046.226 9569.511 11761.305 5527.919 7069.754 442.572 11846.587 1777.902 1691.277 1319.571 2753.820 2312.145 9138.267 4505.029 1494.659 5260.664 2042.230 1648.501 4523.242 1832.324 1314.658 917.150 9227.815 1262.651 1763.393 989.756 5930.934 822.002 0.000 2818.679 1810.625 7315.772 16329.572 8777.180 8239.707 1444.015 3433.091 1604.521 6116.476 2077.897 1788.689 10989.933 5212.387 5143.526 2284.707 3352.779 1759.709 9549.786 2996.086 1305.270 4616.176 19306.145 14241.312 3205.614 1197.530 1364.517 2703.772 5177.973 1646.486 3079.835 5331.049 3280.386 2663.948 10550.499 2058.776 2383.791 5560.848 2017.788 2059.339 1416.111 1272.053 5454.543 1753.796 10897.722 3219.871 2720.666 2269.418 4884.773 6353.701 3195.091 3567.754 2119.179 3083.765 2654.145 2609.380 6825.661 4364.528 5765.391 1516.686 8158.506 2166.589 5279.943 11672.732 2148.339 5394.586 911.367 5906.307 10292.083 2266.141 3304.673 2731.684 11075.299 2310.323 5927.791 3621.087 2341.859 2282.435 1900.284 2302.286 16399.320 7272.372 12286.741 3197.113 1318.674 1829.418 6049.334 1623.965 11704.223 4383.541 1843.665 440.788 12454.041 10486.113 6276.682
2903.403 1384.737 2295.428 14562.584 2674.068 15913.221 3558.304 3296.135 2381.800 4672.919 2721.286 4158.390 2346.161 5509.377 1694.929 10710.219 2969.503 2508.503 17011.000 1497.905 2632.198 3857.892 4129.528 4040.062 4654.362 2956.243 2644.787 2881.888 2424.820 10374.019 2663.286 7475.142 2626.332 3415.075 2478.520 9261.440 2590.132 2451.283 17015.702 10465.835 3697.020 3615.493 11200.273 10307.097 4747.042 4114.254 3598.857 13189.527 6461.762 2868.235 2903.254 3254.538 4174.579 16608.479 3329.343 2947.866 2794.011 2794.491 4202.462 7900.266 3010.195 11563.061 13380.398 2833.030 4374.865 2397.086 13465.680 2357.952 2561.113 2126.515 3112.249 3855.784 9982.921 6498.579 2301.602 2565.775 3332.787 2518.336 6516.792 2736.731 1925.063 2579.542 11221.366 2511.103 1018.809 2569.009 3236.045 2674.691 2399.508 0.000 3578.715 9309.322 17565.470 6576.718 5544.818 2313.850 5426.641 2584.727 7735.569 3063.205 2736.382 8295.044 2517.498 6762.619 3404.051 5060.572 2818.600 8661.055 1041.742 2492.850 6609.726 20925.237 16234.862 388.250 1937.928 2171.461 78.430 4888.727 3414.576 2905.015 2636.159 2336.304 3474.076 11547.268 2187.826 4347.759 4003.864 2146.838 4023.308 2480.607 3469.283 2759.653 3044.354 11742.377 5389.412 61.536 1482.704 2189.884 3658.812 5282.107 5561.305 3887.269 5077.315 3566.166 1301.835 4130.771 5983.621 7758.941 2386.521 7436.042 2785.278 2585.053 13291.825 2958.467 2699.696 2710.653 3211.418 11288.852 4259.691 4114.801 3728.453 13068.850 4303.874 3232.902 5614.637 3151.987 3092.564 3893.834 2828.483 17023.846 4577.483 13283.510 1319.020 3401.881 2592.484 3354.445 3634.027 12700.992 6532.807 2679.707 2374.695 13078.567 10654.542 7273.451
2922.716 2872.332 1990.268 13661.942 949.785 16007.144 1155.444 1413.650 1559.307 1354.926 1507.927 678.638 1495.569 2379.650 2394.872 14529.556 905.634 1181.233 17104.924 2743.993 2675.773 378.141 1282.521 7657.113 1867.519 916.478 6261.838 1573.527 1172.501 9473.377 1004.338 4338.426 1026.576 1532.591 5920.400 13080.777 1268.277 1476.868 13878.986 7329.119 1220.418 1962.692 8063.557 9406.455 3846.400 7933.591 1207.643 10052.811 10281.099 4061.869 6520.305 6871.589 2929.061 13471.763 1446.859 1613.591 1086.796 1298.158 1355.455 4582.273 1882.417 8426.345 12479.756 6652.367 8194.202 1901.465 12565.038 3125.012 1128.624 1821.355 2086.823 798.564 7866.397 3361.863 1479.109 6182.826 1450.303 1198.208 3387.064 1240.397 2661.768 1346.604 8084.650 1660.511 2828.106 1419.209 7055.382 1251.455 1577.015 3883.392 0.000 6172.606 17048.022 10124.290 9161.870 1397.308 2296.914 1012.594 6834.927 3425.007 1196.762 12114.380 6134.549 5861.977 1012.837 3887.093 3106.820 9733.561 3596.064 1642.258 3473.010 20024.595 13098.146 4035.946 2544.640 1866.301 3768.485 6525.083 164.139 4426.945 6455.496 4627.496 1725.097 9278.630 2658.754 2918.104 5744.624 2617.767 2678.557 1630.015 1816.482 6376.705 1161.869 9625.853 2876.436 3785.379 2869.396 6009.221 7275.864 2851.655 2431.577 605.599 1947.587 1382.276 3209.358 7747.823 5082.979 4440.948 1303.215 9505.616 1668.357 6202.105 12391.183 1630.736 6316.748 2258.477 6828.470 9020.214 1311.317 2260.991 1459.815 9932.134 1308.489 6979.500 2484.909 1425.836 1764.833 1046.828 1804.054 17117.770 8194.535 11014.872 4544.223 1332.228 1379.125 6971.497 1231.167 10432.354 3547.709 1345.433 1899.681 13172.491 11320.613 5004.813
6982.498 8606.767 7539.874 16605.689 6761.920 19099.011 5665.911 7225.785 7108.913 5162.190 7320.062 6044.507 7045.175 3894.892 7768.989 19752.107 6717.769 6993.368 20196.791 8111.769 7761.153 5744.009 5128.309 13167.441 4877.562 6728.613 11772.166 7385.662 6984.636 12417.123 6816.474 2828.388 6838.711 7344.726 10389.729 18303.327 7080.412 7289.003 9237.307 3870.904 7011.714 6149.600 3313.488 12350.202 7469.395 13156.142 6998.938 5197.726 15141.631 8488.743 12030.633 12381.917 6552.056 8830.084 7258.994 7425.727 6898.931 7110.293 5163.014 4002.564 6818.020 3676.276 15423.502 11847.001 13416.753 6986.844 15508.784 7595.202 6940.759 7370.961 7878.118 6589.859 12106.913 3079.207 7028.715 11693.154 7262.438 7010.343 3000.687 7052.532 7747.148 6431.983 3334.581 6777.484 8195.883 6504.589 12277.933 6336.835 7013.499 9251.169 6006.335 0.000 20139.889 14551.164 14672.197 6958.848 3892.657 6824.729 9871.282 7593.106 7008.897 16974.912 11644.877 8584.042 6804.132 6542.165 7274.918 15524.856 9387.108 6820.104 3190.354 16884.133 8456.467 9638.104 7630.020 7415.907 9136.262 10951.957 6071.511 8853.819 11678.047 9096.825 7516.392 14308.519 8449.798 5944.268 11535.919 8408.811 6072.911 6930.944 6362.976 11887.033 6974.004 13866.368 4837.811 9153.156 8660.440 11231.771 12786.191 5332.819 3728.431 6396.894 4138.559 7173.571 9000.403 13258.151 8705.974 3765.187 7031.519 13932.490 7480.492 11712.433 15334.929 7422.032 11827.076 7343.857 12338.797 14050.103 4959.998 8052.286 7251.110 5077.049 4915.815 12238.706 3751.245 7217.131 7556.128 5428.402 7616.189 20209.637 13704.862 14258.829 9148.637 6036.472 7191.260 12481.824 5612.899 13676.311 3728.577 7157.568 6985.060 16264.358 14407.461 10796.108
14992.918 17604.274 16918.481 7899.668 16687.343 2371.126 16092.581 17151.209 16752.123 17573.727 17116.263 17446.626 16688.385 17158.718 16766.497 25230.255 16643.193 16796.711 1963.141 17109.276 16243.850 17146.129 16930.683 21026.953 16524.506 16654.037 19631.678 17229.802 16713.028 9296.831 16741.897 18858.035 16764.134 17270.149 17380.139 23781.475 16878.340 17121.060 17973.121 21848.728 17637.919 15522.637 22583.166 9331.967 13310.371 19967.029 17625.144 24572.420 17351.838 15850.953 19584.452 19842.212 14260.895 19133.506 17184.417 17269.867 16824.354 17035.716 17003.616 19702.932 15473.287 22945.954 8299.961 19186.740 20227.640 16429.789 8385.243 15573.856 16849.320 16749.568 18183.817 17457.776 24283.898 17902.955 16671.925 19552.666 17187.861 16806.544 17647.415 16977.956 16744.655 16075.193 22604.259 16420.694 17193.390 16147.799 18901.212 15980.045 16456.443 17795.498 16890.256 20569.710 0.000 16284.415 22531.710 16602.058 17036.779 16750.152 11291.059 15037.804 16934.320 18899.958 19504.389 11582.001 17430.338 13868.134 15285.338 24979.783 18426.083 16463.314 17838.874 14888.562 19491.457 18183.748 16627.527 16794.514 17873.928 13414.646 16792.117 16169.965 19499.663 16125.696 17821.991 25696.131 17488.773 14980.539 20990.846 17447.785 14693.808 16574.154 15150.931 19746.545 16899.427 26043.354 16031.291 17857.035 17699.415 18968.849 20246.486 15785.659 17213.097 17264.810 17233.134 17799.777 18039.377 21117.663 12165.126 19465.556 16674.729 13777.119 17324.632 19571.945 8154.195 17306.382 19686.588 15657.157 19705.992 25437.715 17060.846 18462.716 17877.316 24451.743 17099.161 19578.446 17070.546 17499.902 17440.479 16794.642 17460.329 2002.566 21564.375 27432.372 17127.292 16455.044 16987.461 19942.119 16080.035 26849.855 17310.576 17001.708 16428.004 7435.196 8131.343 21422.313
7629.308 7980.701 8891.392 15037.087 9270.031 14408.463 9871.574 9892.099 8977.764 10997.575 9317.249 10708.507 8942.125 11263.070 8290.893 9103.201 9565.467 9104.467 15506.243 8093.869 8125.258 10408.009 10454.185 5803.812 10487.873 9552.207 5479.641 9477.852 9020.784 11635.897 9259.250 12962.388 9222.296 10011.039 6135.254 7654.421 9186.096 9047.247 21138.152 15953.081 10292.984 9301.631 16687.519 11568.976 8385.069 3856.982 10194.821 18676.773 1224.784 6126.727 4631.564 4711.702 8929.508 21646.353 9925.307 9543.830 9389.975 9390.455 10527.118 13807.285 8661.540 17050.307 14642.276 4494.272 4342.379 8914.331 14727.559 7108.581 9157.076 8722.478 9708.213 10451.748 14032.270 12007.308 8897.566 5454.273 9928.751 9114.300 11751.768 9332.695 8521.027 9175.506 16708.611 9107.067 7614.773 9164.973 3351.942 9140.209 8940.985 6595.964 10128.832 14674.063 16653.357 0.000 7087.410 8909.814 11141.131 9180.691 9002.466 7408.449 9332.346 2772.904 5413.868 8024.498 10000.015 9315.123 7544.506 12710.404 7575.436 9088.814 11943.226 22187.116 21272.736 6927.339 8533.892 8767.425 6674.394 5137.864 9964.693 6445.739 5333.668 5939.794 10070.040 17564.683 8783.789 9138.148 8053.213 8742.802 8813.697 9076.571 9091.123 5594.508 9640.318 15791.725 10251.259 6657.500 8078.668 4636.447 5239.985 10081.853 11317.450 10437.386 11337.487 10162.130 7835.529 5673.363 7643.120 13569.909 8982.485 3588.540 9381.242 5163.159 14553.704 9554.431 5160.785 8024.942 4753.104 17306.267 10584.348 10710.765 10324.417 18556.095 10628.531 4144.320 11174.899 9747.951 9688.528 10218.491 9424.447 15519.089 6120.074 19505.442 6747.343 9636.881 9188.447 4586.439 9859.029 18922.924 11414.928 9275.671 8912.547 12166.454 8896.355 13869.415
7899.941 6645.725 7829.383 19504.477 8186.954 20523.247 9075.822 8767.908 7915.755 10190.436 7991.249 9675.907 7880.116 11026.895 7380.202 7728.767 8451.587 7923.592 21621.026 7183.178 8065.932 9375.410 9647.045 1480.253 10188.317 8428.016 3475.592 8151.851 7937.706 15315.912 8135.059 12992.660 8139.218 8799.217 6002.434 6590.612 8005.221 7721.247 22324.210 15983.353 8779.580 9189.577 16717.791 15248.990 9725.576 4122.912 8868.820 18707.045 6965.811 7500.220 3367.014 2873.033 9334.834 21916.986 8801.116 8217.829 8265.784 8116.180 9719.979 13417.783 8602.214 17080.579 18322.291 3983.448 3944.564 7987.357 18407.573 7354.490 7976.201 7660.469 8054.806 9272.720 10363.728 12016.096 7835.557 3396.580 8804.560 7933.425 12022.401 8058.420 7610.337 8113.497 16738.883 8045.058 6704.082 8102.964 3740.094 8208.646 7933.463 5685.273 9096.233 14826.840 22175.496 7080.767 0.000 7847.805 10944.159 8092.231 12677.462 8059.744 8208.155 8799.092 3348.303 11704.512 8674.015 10057.110 7815.139 6009.438 5706.443 8026.805 12127.244 25867.130 21543.370 5486.874 7623.201 7705.416 5763.703 9498.753 8932.094 7652.684 4413.561 6891.373 8744.039 13896.141 7033.539 9408.782 4128.506 6992.552 9084.330 8014.562 9043.367 3472.631 8516.127 12123.184 10521.892 5746.810 6438.688 4343.318 3656.060 10352.486 11078.822 9404.787 10594.832 8379.188 5966.536 1399.488 10962.155 13276.458 7899.407 9956.479 8055.241 3456.775 18233.718 8228.431 3263.633 8125.187 3488.554 13637.725 9777.208 9384.765 8541.475 18586.367 9821.391 3639.584 11132.155 8421.951 8362.527 9411.352 8098.446 21633.872 952.777 15836.900 5865.724 8935.836 7862.447 2747.770 9151.545 15254.382 11685.562 7949.670 7964.965 17688.593 15264.294 11512.992
1776.734 1725.949 614.382 13128.394 381.639 15473.597 1301.309 1003.707 183.421 2415.923 535.626 1901.395 119.683 3252.382 1018.986 13153.670 677.074 216.075 16571.377 1368.107 1529.792 1600.897 1872.533 6483.513 2427.884 663.815 5088.237 649.166 132.391 8939.829 370.857 5218.147 333.904 1122.647 4774.419 11704.891 297.703 540.423 14758.707 8208.840 1464.298 1429.144 8943.278 8872.908 3312.852 6557.705 1366.135 10932.532 8905.213 2915.888 5346.704 5697.989 2395.514 14351.484 1036.915 689.230 501.583 502.063 1945.466 5643.270 1247.355 9306.066 11946.208 5276.481 6818.316 643.701 12031.490 1979.031 268.684 445.469 1919.944 1563.355 8265.988 4241.584 103.223 5009.226 1040.359 225.907 4259.797 444.302 1515.787 353.065 8964.371 284.625 1452.220 342.531 5679.496 448.213 201.129 2507.506 1321.720 7052.327 16514.475 8978.309 7988.269 0.000 3169.646 292.299 6301.379 2279.026 443.954 10738.495 4960.948 5328.429 1171.330 3438.450 1960.838 9003.382 2449.682 266.372 4352.731 19491.048 13977.867 2889.564 1174.193 490.415 2392.599 5379.102 1157.581 3280.964 5079.610 3481.515 1241.354 9678.221 1512.372 2469.461 5014.445 1471.384 2145.010 254.129 1282.934 5203.104 751.925 10025.444 3162.935 2409.493 1723.014 4633.335 6102.263 3138.154 3304.309 1630.274 2820.320 1781.867 2062.976 6574.222 4549.431 5501.946 94.093 8359.635 743.996 5028.504 11857.635 725.746 5143.147 1112.496 5654.869 9419.805 2002.696 1882.080 1859.406 10811.854 2046.879 5676.353 3357.642 919.266 859.842 1636.839 879.693 16584.223 7020.934 11414.463 3398.242 1175.403 406.824 5797.896 1377.032 10831.945 4306.329 421.072 641.917 12638.944 10687.242 5404.404
3636.889 4801.492 3734.600 13631.171 2956.645 16124.494 1860.637 3420.511 3303.639 1567.165 3514.787 2239.232 3239.900 121.939 3963.715 16032.324 2912.495 3188.093 17222.273 4306.495 3955.878 1938.734 1323.034 9362.166 984.905 2923.339 7966.891 3580.387 3179.362 9442.606 3011.199 2168.738 3033.436 3539.451 7044.120 14583.544 3275.137 3483.729 11709.298 5159.431 3206.439 2311.404 5893.869 9375.684 4123.786 9436.359 3193.663 7883.123 11783.867 5143.134 8225.358 8576.642 3206.448 11302.075 3453.719 3620.452 3093.656 3305.018 1357.739 3013.635 2979.823 6256.657 12448.985 8155.134 9696.970 3181.570 12534.267 4249.593 3135.484 3565.686 4072.843 2784.585 9852.418 1192.175 3223.441 7887.879 3457.163 3205.068 1090.150 3247.258 3941.873 2626.709 5914.962 2972.210 4390.608 2699.314 8558.150 2531.560 3208.224 5445.894 2201.061 4002.918 17165.371 11205.555 10866.923 3153.574 0.000 3019.454 6896.764 4247.497 3203.622 13617.148 7839.602 5609.524 2998.858 3567.648 3929.309 11719.581 5581.834 3014.829 1281.609 19356.124 10928.458 5832.829 3824.745 3610.632 5330.987 7606.348 2266.236 5508.210 7958.264 5751.216 3711.117 11264.651 4644.524 2598.659 7730.644 4603.536 2727.303 3125.670 2524.780 8081.758 3168.730 11611.874 1713.883 5347.881 4855.166 7511.988 8980.917 1987.210 254.901 2591.619 446.641 3368.297 5195.128 9452.876 5360.365 2776.259 3226.245 10586.881 3675.217 7907.158 12360.412 3616.757 8021.801 3538.582 8533.523 11006.234 1154.724 4247.011 3445.836 7762.446 1110.541 8555.007 187.996 3411.856 3750.853 1623.128 3810.914 17235.119 9899.588 13000.892 5803.029 2231.197 3385.985 8676.549 1807.625 12418.374 1250.795 3352.293 3179.786 13289.841 11432.943 6990.833
2140.027 1859.738 977.674 13491.687 162.674 15836.889 1039.361 767.924 546.713 2153.975 495.333 1639.447 482.975 2990.434 1382.278 13516.962 415.126 168.639 16934.669 1731.399 1893.084 1338.949 1610.585 6644.520 2195.583 391.555 5249.245 573.017 159.907 9303.121 98.598 4956.199 114.939 886.864 5137.711 12068.183 255.683 464.275 14496.759 7946.892 1388.150 1792.437 8681.330 9236.200 3676.144 6920.997 1289.987 10670.584 9268.505 3279.180 5507.712 5858.996 2758.806 14089.536 801.132 613.082 265.800 309.568 1683.518 5381.322 1610.648 9044.118 12309.500 5639.773 7181.608 1006.993 12394.782 2342.324 116.030 808.761 1926.120 1301.492 8055.831 3979.636 466.515 5170.233 804.576 185.614 3997.848 251.807 1879.079 716.357 8702.422 647.918 1815.513 705.823 6042.788 811.505 564.421 2870.798 1059.772 6790.379 16877.767 9341.601 8149.276 384.714 2907.698 0.000 6664.671 2642.318 208.171 11101.787 5121.956 5691.721 1095.181 3771.009 2324.131 9137.170 2583.470 629.664 4090.783 19854.340 13715.919 3023.352 1537.486 853.707 2755.892 5742.394 895.633 3644.256 5442.903 3844.807 1165.206 9468.064 1646.160 2802.021 5148.233 1605.173 2508.302 617.422 1646.227 5364.112 516.143 9815.287 3114.497 2772.785 1856.802 4996.627 6263.270 3089.717 3042.361 1368.326 2558.371 1571.710 2196.765 6735.229 4912.724 5239.997 290.621 8722.927 667.847 5189.512 12220.927 649.597 5304.154 1475.788 5815.876 9209.648 1740.748 1805.931 1649.249 10549.906 1784.930 5966.906 3095.694 843.117 783.694 1374.891 803.544 16947.515 7181.941 11204.306 3761.534 1187.528 366.531 5958.903 1115.084 10621.788 4097.038 344.923 1005.209 13002.236 11050.535 5194.247
5082.659 7694.015 7008.223 7757.728 6777.084 10234.487 6182.322 7240.950 6841.864 7663.468 7206.004 7536.368 6778.126 6872.136 6856.238 16535.049 6732.934 6886.453 11332.267 7199.018 6333.591 7235.870 6710.339 11116.695 6237.924 6743.778 9721.420 7319.544 6802.769 3583.945 6831.638 8571.454 6853.876 7359.890 7508.341 15086.269 6968.081 7210.801 15032.529 11562.147 7727.661 5612.379 12296.585 3517.023 3400.113 10710.109 7714.885 14285.839 9585.046 5984.404 9674.193 9931.953 4350.636 16192.914 7274.158 7359.608 6914.096 7125.458 6783.272 9416.351 5563.028 12659.373 6575.542 9276.482 10970.720 6519.530 6660.824 5663.597 6939.062 6839.310 8273.558 7547.518 14373.639 7616.374 6761.667 9642.408 7277.602 6896.285 7360.834 7067.697 6834.396 6164.935 12317.677 6510.436 7283.131 6237.540 9831.900 6069.786 6546.184 7885.240 6979.997 10283.129 11461.504 8994.580 12621.451 6691.800 6750.197 6839.893 0.000 5127.545 7024.061 11418.328 9594.131 1295.420 7520.079 3581.553 5375.080 15069.524 8515.824 6553.055 7552.292 14120.382 16176.771 8273.490 6717.268 6884.256 7963.670 4152.836 6881.859 6303.416 9589.405 6215.438 7911.732 15785.872 7578.514 4693.957 11080.587 7537.527 4691.771 6663.896 5240.672 9836.287 6989.169 16133.095 5744.709 7946.776 7789.156 9058.590 10336.228 5499.077 6926.516 7354.552 6946.553 7889.518 8129.119 11207.405 2254.867 9178.975 6764.470 7881.024 7414.373 9661.687 6486.969 7396.124 9776.330 5746.898 9795.733 15527.456 6840.502 8552.458 7967.057 14165.161 6812.579 9668.187 6783.965 7589.643 7530.220 6828.729 7550.071 11345.113 11654.116 17522.114 7217.033 6544.785 7077.202 10031.860 6169.777 16939.596 7023.994 7091.449 6517.746 7399.834 5897.956 11512.055
675.618 3197.520 2740.841 11776.889 3119.480 13841.547 3079.083 3661.601 2827.213 4335.392 3273.468 4046.324 2791.574 4309.381 2588.856 12958.060 3153.585 2953.916 14939.327 2709.544 1749.531 3745.826 3792.002 6411.291 3653.113 3164.429 5016.016 3387.007 2870.233 7588.324 3108.699 6008.698 3071.745 3780.542 3595.683 11509.281 3035.545 3278.265 15099.887 8999.392 4148.312 2509.140 9733.829 7521.402 1961.347 6362.096 4103.977 11723.083 7971.425 1350.583 5274.483 5625.767 1889.262 14692.664 3694.809 3427.072 3239.424 3239.904 3864.935 6853.595 1887.011 10096.617 10594.703 5052.954 6622.707 2252.148 10679.985 801.156 3006.525 2571.927 4006.176 3968.169 10794.291 5053.618 2747.015 4937.004 3698.253 2963.749 4798.078 3182.144 2567.014 2573.174 9754.922 2918.675 2786.637 2645.779 5483.887 2478.026 2278.802 3022.798 3466.649 7720.373 15162.970 7380.958 7916.047 2759.263 4187.442 3030.140 4949.874 0.000 3181.795 9804.706 4888.727 3976.924 3909.171 2274.877 552.304 10682.211 3939.338 2938.263 4989.537 18139.543 14319.047 3411.048 2449.886 2616.874 3101.228 3781.751 3302.510 1715.660 4884.001 2302.779 3979.196 12206.523 3311.132 2184.459 6488.299 3270.144 1860.008 2926.020 2137.433 5130.883 3409.820 12553.746 3297.570 3084.334 3295.488 4437.725 6030.041 3128.164 4363.761 3775.203 4383.797 4310.169 3741.806 6502.000 3197.926 6616.219 2831.934 6762.284 3481.837 4956.283 10506.130 3463.587 5070.926 1162.838 5558.498 11948.107 3922.165 4619.921 4387.708 11602.406 3966.347 5444.660 4221.209 3657.107 3597.684 3556.308 3617.534 14952.172 6948.712 13942.765 2354.591 2974.698 3144.666 5725.674 3066.538 13360.247 4461.239 3158.913 2250.364 11006.894 8656.051 7932.706
2243.251 1923.516 1080.898 13590.870 352.738 15936.072 1112.989 559.753 649.937 2227.603 559.111 1713.074 586.199 3064.062 1485.502 13620.186 488.754 279.006 17033.852 1834.623 1996.308 1412.577 1684.212 6708.298 2269.211 465.183 5313.023 376.765 311.563 9402.304 192.423 5029.826 305.003 678.693 5240.935 12171.407 190.235 325.245 14570.386 8020.520 1191.898 1891.620 8754.957 9335.383 3775.327 7024.221 1093.735 10744.211 9371.730 3382.404 5571.490 5922.774 2857.989 14163.163 592.961 416.830 240.938 101.396 1757.146 5454.950 1713.872 9117.746 12408.683 5742.997 7284.832 1110.217 12493.966 2445.548 231.954 911.985 1729.868 1119.402 7873.741 4053.263 569.739 5234.011 596.405 262.031 4071.476 43.636 1982.303 819.581 8776.050 751.142 1918.737 809.047 6146.012 914.729 667.645 2974.022 1133.399 6864.006 16976.950 9444.825 8213.054 487.938 2981.326 208.171 6763.855 2745.542 0.000 11205.011 5185.734 5790.905 898.929 3844.637 2427.355 9200.948 2647.249 732.888 4164.410 19953.523 13789.546 3087.130 1640.710 956.931 2859.116 5845.618 969.260 3747.481 5546.127 3948.031 968.954 9285.974 1709.938 2875.649 5212.011 1668.951 2607.485 720.646 1745.410 5427.890 307.972 9633.197 3188.125 2876.009 1920.581 5099.851 6327.048 3163.344 3115.989 1366.045 2631.999 1389.620 2260.543 6799.008 5011.907 5313.625 393.846 8826.151 471.595 5253.290 12320.111 453.345 5367.933 1579.012 5879.654 9027.557 1814.375 1609.679 1467.159 10623.534 1858.558 6030.684 3169.322 646.865 587.442 1448.519 607.292 17046.698 7245.719 11022.215 3864.758 1261.156 430.309 6022.681 1188.711 10439.697 4170.666 148.671 1108.433 13101.419 11153.759 5012.156
10025.759 9639.551 10550.242 17652.047 10928.882 17023.423 11813.119 11550.950 10636.615 12927.733 10976.100 12413.205 10600.975 13659.521 9949.744 7552.898 11224.317 10763.318 18121.203 9752.719 10521.709 12112.707 12384.343 7462.663 12884.324 11211.058 7138.492 11136.702 10679.634 14032.348 10918.101 15358.839 10881.147 11669.890 7893.780 6104.119 10844.946 10706.098 23753.112 18349.532 11951.835 11698.082 19083.970 13965.427 10781.520 5515.833 11853.672 21073.224 2331.449 8523.178 6290.415 6370.553 11325.959 24042.804 11584.158 11202.680 11048.826 11049.306 12457.276 16155.080 11057.991 19446.758 17038.727 6153.123 6001.229 10651.901 17124.010 9505.032 10815.927 10381.329 11367.064 12110.599 15691.121 14403.759 10556.417 7113.124 11587.602 10773.150 14148.219 10991.546 10179.878 10834.357 19105.062 10765.918 9273.624 10823.823 5010.792 10929.506 10654.323 8254.815 11833.530 17070.514 19268.316 2772.320 8746.260 10568.665 13537.582 10839.542 11398.917 9804.900 10991.197 0.000 7072.719 10420.949 11658.866 11711.574 9940.957 14369.254 9234.287 10747.665 14339.677 24583.567 23669.187 8586.190 10192.743 10426.275 8333.245 7534.315 11669.391 8842.190 6992.519 8336.245 11728.891 19223.534 10442.640 11534.599 9712.064 10401.653 11210.148 10735.422 11487.574 7253.359 11299.169 17450.576 12647.710 8316.351 9737.519 6295.298 6898.835 12478.304 13713.901 12142.084 13332.130 11820.981 9494.379 7332.214 10039.571 15966.360 10641.336 6203.500 11040.092 6822.010 16950.155 11213.282 6819.635 10421.393 6411.955 18965.117 12514.506 12369.616 11983.268 20952.546 12558.688 5803.171 13571.350 11406.802 11347.379 12148.649 11083.297 18134.048 7778.925 21164.293 8406.194 11656.696 10847.298 6245.290 11888.842 20581.775 13811.379 10934.522 10629.510 14781.414 11511.315 15528.266
4946.459 3692.243 4875.900 16550.994 5233.471 17569.764 6122.339 5814.425 4962.273 7236.954 5037.766 6722.425 4926.633 8073.412 4426.720 9385.680 5498.104 4970.110 18667.544 4229.696 5112.449 6421.927 6693.563 1886.067 7234.835 5474.534 127.289 5198.369 4984.223 12362.429 5181.576 10039.177 5185.736 5845.735 3748.067 8247.525 5051.738 4767.764 19370.727 13029.870 5955.632 6236.095 13764.308 12295.508 6772.093 2692.611 5915.338 15753.562 5519.445 4546.738 1174.585 1059.357 6381.352 18963.504 5847.634 5264.347 5312.302 5162.698 6766.497 10464.301 5648.732 14127.096 15368.808 1729.081 2514.263 5033.874 15454.090 4401.008 5022.719 4706.987 5101.324 6319.237 9030.722 9062.614 4882.075 48.277 5851.078 4979.942 9068.919 5104.937 4656.854 5160.015 13785.401 5091.576 3750.600 5149.481 2309.792 5255.163 4979.981 2731.791 6142.750 11873.357 19222.013 5634.401 3390.824 4894.323 7990.676 5138.749 9723.979 5106.261 5254.673 7352.727 0.000 8751.029 5720.532 7103.628 4861.656 7708.856 2752.961 5073.323 9173.761 22913.648 18589.887 2533.391 4669.719 4751.933 2810.221 6545.270 5978.611 4699.202 1470.849 3999.703 5790.557 12563.135 4080.057 6455.299 3051.665 4039.070 6130.848 5061.080 6089.885 242.156 5562.644 10790.178 7568.410 2793.327 3485.206 2088.951 1463.631 7399.004 8125.340 6451.304 7641.350 5555.240 3013.054 1976.777 8008.672 10322.976 4945.925 8510.113 5101.758 449.074 15280.235 5274.948 314.963 5171.705 1296.125 12304.719 6823.726 6431.282 5717.528 15632.885 6867.909 1447.155 8178.672 5468.468 5409.045 6457.869 5144.963 18680.390 2423.489 14503.894 2912.242 5982.354 4908.964 1159.264 6198.062 13921.377 8732.079 4996.188 5011.483 14735.111 12311.085 9262.525
4084.246 6685.933 6000.141 8119.774 5718.490 10613.097 4959.562 6182.355 5783.270 6440.708 6147.410 6313.608 5719.532 5641.174 5848.156 15635.479 5674.339 5827.858 11710.876 6190.936 5335.178 6013.111 5479.376 10217.125 5006.962 5685.184 8821.850 6260.949 5744.175 3931.209 5773.044 7340.491 5795.281 6301.296 6608.771 14186.699 5909.487 6152.207 14359.166 10331.184 6669.066 4553.784 11065.622 3864.287 2500.543 9810.539 6656.291 13054.876 8685.476 5084.834 8774.623 9032.383 3342.554 15519.551 6215.564 6301.014 5855.501 6066.863 5552.310 8185.388 4554.946 11428.410 6937.588 8376.912 10071.150 5511.448 7022.870 4665.184 5880.467 5831.227 7265.476 6407.831 13315.045 6385.411 5703.072 8742.838 6219.008 5837.691 6129.871 6009.103 5826.314 5106.340 11086.715 5451.841 6275.049 5178.945 8932.330 5011.192 5538.102 6886.826 5757.238 9052.166 11653.974 8095.010 11721.881 5633.205 5519.235 5781.299 1385.367 4129.132 5965.467 10518.758 8694.561 0.000 6461.485 2350.590 4376.666 14061.442 7507.742 5494.460 6321.330 14482.427 15454.210 7275.076 5709.186 5876.174 6965.256 3253.266 5742.172 5403.846 8689.835 5315.867 6853.138 14727.278 6570.432 3462.995 10072.505 6529.444 3460.808 5605.301 4182.078 8936.717 5930.574 15074.501 4513.747 6948.363 6781.074 8159.020 9436.658 4268.115 5695.553 6214.865 5715.590 6830.924 7121.036 10307.835 1355.297 7948.012 5705.876 7476.335 6355.779 8762.117 6849.015 6337.529 8876.760 4748.484 8896.163 14468.861 5609.539 7493.863 6908.463 12934.199 5581.617 8768.617 5553.002 6531.049 6471.625 5597.766 6491.476 11723.722 10754.546 16463.519 6218.620 5330.123 6018.608 9132.290 4947.017 15881.001 5793.032 6032.855 5509.663 7778.443 5921.546 10453.460
3079.547 2531.362 1917.194 14388.170 1189.035 16733.372 1896.454 694.479 1486.233 2081.522 1395.407 1405.235 1422.495 3106.246 2253.815 14456.482 1286.054 1115.302 17831.152 2670.919 2832.604 1104.737 2095.117 7316.143 2609.740 1262.483 5920.868 1038.154 1147.859 10199.604 1028.719 5065.022 1141.299 575.538 6077.231 13007.703 1026.531 1161.541 14605.582 8055.716 292.969 2688.920 8790.153 10132.683 4572.627 7860.518 194.806 10779.407 10208.026 4218.700 6179.335 6530.619 3655.289 14198.359 661.270 721.690 1077.234 937.693 2168.051 5308.869 2550.168 9152.941 13205.983 6579.293 7985.526 1946.513 13291.265 3281.844 1068.250 1748.281 1315.084 598.705 7094.659 4088.459 1406.036 5841.856 664.714 1098.327 4113.660 879.932 2818.599 1655.877 8811.246 1587.438 2755.033 1645.343 6982.309 1751.025 1503.941 3810.319 1046.136 6899.202 17774.250 10281.121 8820.900 1324.234 3023.510 1044.467 7561.154 3581.839 836.296 12041.307 5793.579 6588.204 0.000 4628.102 3263.651 8961.822 3255.094 1569.185 4199.606 20750.823 13824.742 3694.976 2477.006 1793.227 3695.412 6681.914 905.148 4583.777 6382.423 4784.327 712.260 8506.891 2432.002 3659.114 4972.885 2391.015 3404.785 1556.942 2542.710 6035.735 1023.100 8854.114 3701.118 3712.306 2528.426 5936.147 6934.894 3676.338 3158.173 845.349 2674.183 610.538 2868.388 7406.853 5809.207 5167.544 1230.142 9662.447 1000.198 5861.135 13117.410 617.899 5975.778 2415.308 6487.500 8248.475 2037.913 1248.154 688.077 10658.730 2035.085 6638.530 3211.506 412.998 751.996 1871.510 1043.403 17843.998 7853.565 10243.133 4701.054 2058.456 1266.605 6630.527 1972.177 9660.615 4274.305 984.967 1944.729 13898.719 11990.055 4233.074
1932.334 4534.021 3848.229 10354.461 3617.090 12847.784 3022.328 4080.956 3681.870 4503.474 4046.010 4376.374 3618.132 3774.682 3696.244 14670.177 3572.940 3726.459 13945.564 4039.024 3183.266 4075.876 3612.884 8123.407 3140.470 3583.784 6728.132 4159.550 3642.775 6165.896 3671.644 5473.999 3693.882 4199.896 5253.944 13221.398 3808.087 4050.807 14368.558 8464.692 4567.667 2452.385 9199.130 6098.975 1145.715 8074.212 4554.891 11188.384 9544.444 3086.026 6986.599 7337.883 1190.642 13961.335 4114.164 4199.614 3754.102 3965.464 3685.818 6318.896 2403.034 9561.918 9172.275 6765.071 8334.823 3359.536 9257.557 2513.272 3779.068 3679.316 5113.564 4387.524 11213.645 4518.919 3601.673 6649.120 4117.608 3736.291 4263.379 3907.703 3674.403 3004.941 9220.223 3350.442 4123.137 3077.546 7196.003 2909.792 3386.190 4734.915 3820.004 7185.674 13888.662 8953.977 9628.164 3531.806 3652.743 3679.900 3620.055 1977.220 3864.067 11377.725 6600.843 2332.815 4360.085 0.000 2224.755 11909.530 5355.830 3393.061 4454.838 16717.115 13587.718 5123.165 3557.274 3724.262 4813.345 4997.562 3721.865 3451.102 6596.117 3961.040 4751.738 12625.878 4418.520 1596.503 7920.593 4377.533 1594.316 3503.902 2080.678 6842.999 3829.175 12973.101 2647.255 4796.451 4629.162 6149.842 7742.158 2401.623 3829.061 4194.558 3849.098 4729.524 4969.125 8214.117 2382.294 6081.520 3604.477 8335.303 4254.380 6668.399 9083.702 4236.130 6783.042 2596.573 7270.614 12367.462 3743.047 5392.464 4807.063 11067.707 3715.125 7156.776 3686.510 4429.649 4370.226 3724.390 4390.077 13958.409 8660.829 14362.120 4066.708 3384.791 3917.208 7437.791 3009.783 13779.602 3926.540 3931.455 3357.752 10013.131 8156.234 8352.061
820.006 2772.317 2733.512 12456.059 3112.152 14037.288 3202.062 3654.273 2819.885 4328.064 3266.139 4038.995 2784.245 4453.768 2581.527 12483.931 3146.257 2946.588 15135.068 2284.341 1455.746 3738.498 3784.673 5937.161 3797.501 3157.101 4541.886 3379.679 2862.904 8267.494 3101.370 6153.086 3064.417 3773.213 3121.553 11035.151 3028.216 3270.936 15244.274 9143.779 4140.983 2632.119 9878.217 8200.572 2640.517 5887.966 4096.648 11867.471 7873.455 1220.567 4800.353 5151.637 2254.899 14837.051 3687.481 3419.743 3232.096 3232.576 3857.607 6997.983 1992.028 10241.005 11273.873 4578.825 6148.577 2244.819 11359.155 327.026 2999.197 2564.599 3998.848 3960.840 10786.962 5198.006 2739.687 4462.874 3690.925 2956.420 4942.466 3174.815 2215.933 2565.846 9899.310 2911.347 2361.433 2638.451 5009.757 2470.697 2271.474 2548.669 3459.320 7864.761 15689.538 7282.988 7441.918 2751.935 4331.830 3022.812 5629.044 956.680 3174.467 9706.736 4414.597 4656.094 3901.843 2954.047 0.000 10257.008 3465.208 2930.935 5133.925 18818.712 14463.434 2936.919 2100.686 2609.545 2627.098 3683.781 3295.181 1585.644 4409.871 1828.649 3971.867 12199.195 3303.803 2328.846 6014.169 3262.816 2004.395 2918.692 2281.821 4656.753 3402.492 12546.418 3441.957 2610.205 2870.285 3963.595 5555.912 3272.551 4508.148 3767.875 4528.185 4302.841 3316.602 6027.871 3877.096 6760.607 2824.606 6664.314 3474.509 4482.153 11185.300 3456.259 4596.796 1307.226 5084.368 11940.779 3914.836 4612.593 4380.380 11746.793 3959.019 4970.530 4365.597 3649.779 3590.355 3548.980 3610.206 15147.914 6474.583 13935.436 1880.462 2967.369 3137.337 5251.544 3189.517 13352.919 4605.627 3151.585 2243.035 11202.635 8851.793 7925.377
10458.693 8030.763 9214.421 21893.124 9571.992 23263.045 10460.860 9424.443 9300.793 11128.016 9376.287 10451.729 9265.154 12152.740 8771.284 13368.796 9836.625 9308.631 24360.824 8696.302 9830.595 10151.231 11032.084 7120.282 11573.356 9813.055 7615.028 8978.361 9322.744 17704.559 9520.097 14111.517 9524.257 9305.502 9472.101 12230.641 9390.259 9106.285 23652.077 17102.210 9031.626 10574.616 17836.648 17637.637 12077.582 9762.941 9185.166 19825.902 12404.980 10240.018 7873.495 8224.780 11160.244 23244.854 9391.234 9451.654 9650.823 9501.219 11105.017 14355.363 9995.859 18199.436 20710.938 8412.943 9584.593 9372.395 20796.220 10081.576 9361.240 9045.508 8400.235 9645.199 8234.522 13134.954 9220.596 7536.017 9394.678 9318.463 13160.155 9443.458 9123.460 9498.536 17857.741 9430.097 8217.206 9488.002 9319.190 9593.684 9318.501 7886.523 10092.630 15945.697 24915.294 12519.936 5719.999 9232.844 12070.004 9477.270 15066.109 10786.830 9566.260 14238.262 7487.739 14093.159 9180.300 12302.412 10542.225 0.000 7751.357 9411.843 13246.101 28255.778 22871.237 7531.787 9136.325 9090.454 7964.953 12238.551 9951.643 10392.483 8184.113 9692.984 9250.324 11766.935 8418.578 11333.423 4527.450 8377.590 11008.972 9399.601 10428.406 7729.895 9753.064 9993.977 12308.406 7948.060 7823.727 8495.486 8629.054 12267.772 12204.668 9891.843 11720.678 8631.234 8011.449 7039.517 13314.161 14214.039 9284.445 14792.722 8940.405 7555.295 20622.365 9054.941 7669.938 9861.000 8181.660 11508.518 11084.408 9891.050 8793.521 19705.224 11081.580 8332.690 12258.000 8928.236 8868.812 10796.390 8983.610 24373.670 6592.805 13707.694 8605.522 10320.875 9247.485 8324.687 10536.583 13125.176 13320.800 9334.709 9350.004 20428.392 18004.366 9106.076
3404.472 976.542 2160.200 14838.903 2517.771 16909.605 3406.639 3098.725 2246.572 4521.253 2322.066 4006.725 2210.933 5357.712 1717.063 11648.507 2782.404 2254.410 18007.385 1642.081 2776.374 3706.227 3977.863 4500.201 4519.135 2758.834 3104.926 2482.668 2268.523 10650.338 2465.876 7323.477 2470.035 3130.034 3474.904 10199.727 2336.038 2052.064 16864.037 10314.170 3239.932 3520.395 11048.608 10583.416 5023.361 5052.542 3199.638 13037.862 7400.050 3864.619 3363.393 3714.677 4106.023 16456.814 3131.934 2548.646 2596.602 2446.998 4050.796 7748.600 2941.638 11411.396 13656.717 3771.318 5169.584 2318.174 13741.999 3225.614 2307.019 1991.287 2385.623 3603.537 9408.410 6346.914 2166.374 3025.914 3135.378 2264.242 6365.127 2389.237 2069.239 2444.315 11069.700 2375.876 1162.985 2433.781 4174.333 2539.463 2264.280 1065.605 3427.050 9157.657 18224.983 7515.006 6004.958 2178.622 5274.976 2423.049 8011.888 3906.763 2538.972 9233.331 2977.637 7038.938 3004.832 5248.191 3588.576 7968.225 0.000 2357.622 6458.061 21201.556 16083.197 879.034 2082.104 2036.233 1144.035 5885.111 3262.911 3901.400 3574.447 3332.688 3074.856 10820.642 1364.357 4279.202 3979.288 1323.369 3954.751 2345.379 3374.184 3219.793 2846.944 11167.865 5254.185 1127.141 769.506 3128.171 4118.952 5213.551 5409.639 3735.604 4925.650 2839.540 297.353 4590.911 6259.940 7607.276 2230.224 8432.427 2386.058 3045.193 13568.144 2559.248 3159.836 2806.779 3671.558 10562.226 4108.026 3715.582 3001.828 12917.184 4152.208 3822.587 5462.972 2752.768 2693.344 3742.169 2429.263 18020.231 5037.623 12556.884 2315.404 3266.653 2193.264 3814.584 3482.362 11974.366 6397.579 2280.487 2295.783 14074.952 11650.927 6546.825
2027.711 2423.783 1300.281 12862.022 816.952 15207.225 1065.454 1280.817 869.320 2180.068 1233.460 1665.540 805.582 3016.527 1704.885 13839.569 772.801 913.908 16305.004 2054.006 1780.769 1365.042 1636.678 7169.412 2161.512 783.645 5774.136 1346.999 830.225 8673.457 871.505 4982.292 893.743 1399.758 5025.395 12390.790 995.537 1238.257 14522.852 7972.985 1767.528 1162.772 8707.423 8606.535 3046.480 7243.604 1754.752 10696.677 9591.112 3166.865 6032.604 6383.888 2129.142 14115.629 1314.026 1387.064 953.963 1165.325 1709.611 5407.415 1082.498 9070.211 11679.836 5962.380 7504.215 894.678 11765.118 2230.008 966.517 1131.368 2617.777 1587.385 8413.507 4005.729 789.122 5695.125 1317.470 923.741 4023.942 1107.564 1766.764 86.692 8728.516 537.891 2138.119 76.159 6365.395 181.841 887.028 3193.405 1085.865 6816.472 16248.103 9229.286 8674.168 719.255 2933.791 879.761 6035.007 2530.003 1063.929 11424.394 5646.848 5062.057 1559.946 3172.077 2211.815 9701.215 3147.515 0.000 4116.876 19224.676 13742.012 3580.341 1649.636 1176.314 3078.498 5630.079 921.726 3531.941 5765.509 3732.492 1939.188 9825.739 2210.205 2203.089 5712.278 2169.218 1878.638 691.351 1016.562 5889.003 1029.036 10172.962 2896.562 3095.392 2420.847 5319.234 6788.162 2871.782 3068.454 1394.419 2584.465 1929.385 2760.809 7260.121 4283.059 5266.091 791.926 8610.611 1441.829 5714.403 11591.263 1423.579 5829.046 1363.473 6340.768 9567.323 1766.841 2579.913 2006.924 10575.999 1811.024 6362.252 3121.787 1617.099 1557.675 1400.984 1577.526 16317.850 7706.833 11561.981 3649.219 909.031 1104.658 6483.795 1141.177 10979.463 4039.957 1118.905 892.894 12372.572 10520.693 5551.922
4371.451 5974.388 4907.495 14365.732 4129.541 16859.055 3033.532 4593.407 4476.534 2529.811 4687.683 3412.128 4412.796 1262.513 5136.611 17141.059 4085.391 4360.989 17956.835 5479.391 5128.774 3111.630 2495.930 10535.062 2261.997 4096.235 9139.787 4753.283 4352.258 10177.167 4184.095 2216.477 4206.332 4712.347 7778.681 15692.280 4448.033 4656.625 10890.477 5207.170 4379.335 3538.553 5941.608 10110.245 4858.347 10545.094 4366.559 7930.862 12530.583 5877.695 9398.254 9749.538 3941.009 10483.254 4626.615 4793.348 4266.552 4477.914 2530.635 3061.374 4206.972 6304.396 13183.546 9235.953 10805.705 4354.466 13268.828 4984.154 4308.380 4738.582 5245.739 3957.481 11025.314 154.101 4396.337 9060.775 4630.059 4377.964 510.021 4420.154 5114.769 3799.605 5962.700 4145.106 5563.504 3872.210 9666.885 3704.456 4381.120 6618.790 3373.957 3184.098 17899.933 11940.117 12039.819 4326.470 1277.091 4192.350 7631.326 4982.059 4376.518 14363.864 9012.498 6344.086 4171.754 4302.209 4663.871 12892.477 6754.730 4187.725 0.000 18537.303 10109.637 7005.725 4997.641 4783.528 6503.883 8340.909 3439.132 6242.772 9066.999 6485.777 4884.013 12437.546 5817.420 3333.221 8903.540 5776.432 3461.864 4298.566 3751.928 9254.654 4341.626 12784.769 2226.763 6520.777 6028.062 8620.724 10153.813 2721.771 1096.052 3764.515 1506.180 4541.193 6368.024 10625.772 6094.926 2823.998 4399.141 11321.442 4848.113 9080.054 13094.973 4789.653 9194.697 4711.478 9706.419 12179.130 2327.619 5419.907 4618.732 7810.184 2283.437 9627.658 1118.866 4584.752 4923.749 2796.024 4983.810 17969.680 11072.484 14173.788 6537.590 3404.093 4558.881 9849.445 2980.521 13591.270 1117.529 4525.189 4352.682 14024.402 12167.505 8163.729
18360.362 20971.718 20285.925 9657.587 20054.787 15669.671 19460.025 20518.653 20119.567 20582.613 20483.707 20814.070 20055.829 19315.315 20133.941 29812.751 20010.637 20164.155 16246.420 20476.720 19611.294 20513.573 19988.041 24394.397 19515.627 20021.481 22999.122 20597.246 20080.472 12043.882 20109.341 19294.406 20131.578 20637.593 20786.044 28363.972 20245.784 20488.504 7946.528 20675.691 21005.363 18890.081 20144.856 12079.019 16677.815 23987.812 20992.588 22029.095 22859.489 19262.107 22951.896 23209.656 17628.339 9106.913 20551.861 20637.311 20191.798 20403.160 20060.975 20468.581 18840.731 20507.644 7810.152 22554.184 24248.423 19797.233 7806.051 18941.300 20216.764 20117.012 21551.261 20825.220 27651.342 18426.156 20039.369 22920.110 20555.305 20173.988 18347.636 20345.400 20112.099 19442.637 20165.949 19788.138 20560.834 19515.243 23109.603 19347.489 19823.887 21162.942 20257.700 16882.366 14766.937 21792.065 25899.154 19969.502 19239.606 20117.596 14038.111 18405.248 20301.764 24407.608 22871.833 14573.123 20797.782 16859.255 18652.782 28347.227 21793.527 19830.758 18537.303 0.000 9464.863 21551.192 19994.971 20161.958 21241.372 17430.538 20159.561 19581.119 22867.107 19493.140 21189.435 29063.575 20856.217 17971.660 24358.290 20815.229 17969.474 19941.598 18518.375 23113.989 20266.871 29410.798 19022.412 21224.479 21066.859 22336.293 23613.930 18776.780 19148.854 20632.254 19558.982 21167.221 21406.821 24485.107 15532.570 20231.205 20042.173 20282.820 20692.076 22939.389 7737.246 20673.826 23054.032 19024.601 23073.436 28805.159 20118.204 21830.160 21244.760 21908.417 20090.282 22945.890 19116.809 20867.346 20807.923 20106.431 20827.773 16285.844 24931.819 30799.816 20494.736 19822.488 20354.905 23309.563 19447.479 30217.299 19016.392 20369.152 19795.448 14209.442 15539.897 24789.757
13763.014 15599.524 14532.631 14250.230 13754.677 20262.314 12658.668 14218.543 14101.670 12154.947 14312.819 13037.264 14037.932 10887.649 14761.747 26532.623 13710.527 13986.125 20839.063 15104.527 14731.018 12736.766 12121.066 19985.853 11796.845 13721.371 18590.578 14378.419 13977.394 16636.526 13809.231 10866.740 13831.468 14337.483 17170.245 25083.843 14073.169 14281.761 1651.520 12248.025 14004.471 13062.921 11717.190 16671.662 13544.056 19936.658 13991.695 13601.429 21922.147 15269.259 18849.045 19200.329 13332.573 481.366 14251.751 14418.484 13891.688 14103.050 12155.771 12040.915 13691.268 12079.979 12402.795 18627.517 20197.269 13979.602 12398.694 14375.718 13933.516 14363.718 14870.875 13582.617 20484.034 9998.490 14021.473 18511.566 14255.195 14003.100 9919.970 14045.290 14739.905 13424.741 11738.283 13770.242 15188.640 13497.346 19058.449 13329.592 14006.256 16243.926 12999.093 8454.700 19359.580 21331.680 21490.610 13951.606 10811.940 13817.486 14775.191 14373.622 14001.654 23755.428 18463.289 14645.736 13796.890 12603.860 14055.434 22517.613 16379.866 13812.861 10109.637 9454.612 0.000 16630.861 14622.777 14408.664 16129.019 17395.903 13064.268 15634.335 18458.563 15877.341 14509.149 22062.683 15442.556 12724.784 18528.676 15401.568 12853.428 13923.702 13214.671 18705.445 13966.762 22243.489 11115.367 16145.913 15653.198 18012.287 19604.603 11823.503 10721.188 13389.651 11131.316 14166.329 15993.160 20076.563 14780.635 11803.539 14024.277 20657.447 14473.249 18530.845 12329.890 14414.789 18645.488 14144.325 19133.060 21804.266 11952.756 15045.043 14243.868 13480.751 11908.573 19019.222 10689.144 14209.888 14548.885 12421.160 14608.946 20878.487 20523.274 22635.950 15929.154 13029.229 14184.017 19300.236 12605.657 22053.433 10588.726 14150.325 13977.818 18802.085 18896.623 17788.865
3113.958 1653.362 2679.794 14773.139 3058.433 16030.571 3942.670 3680.501 2766.166 5057.284 2998.885 4542.756 2730.527 5893.743 2079.295 10769.473 3353.869 2892.869 17128.351 1882.270 2888.261 4242.258 4513.894 4032.751 5038.728 3340.609 2637.476 3159.488 2809.186 10584.574 3047.652 7859.508 3010.698 3799.441 2595.870 9320.694 2974.498 2728.883 17400.068 10850.201 3916.752 3999.859 11584.639 10517.653 4957.597 4173.508 3876.457 13573.893 6521.016 2985.586 2895.943 3247.227 4548.851 16992.845 3713.709 3225.466 3178.377 3123.817 4586.827 8284.631 3394.561 11947.427 13590.953 2892.284 4434.119 2781.452 13676.235 2568.507 2945.478 2510.880 3062.443 4240.150 9975.610 6882.945 2685.968 2558.464 3717.153 2902.702 6901.158 3066.056 2309.429 2963.908 11605.732 2895.469 1403.175 2953.375 3295.299 3059.057 2783.874 384.366 3963.081 9693.688 17682.821 6635.972 5537.508 2698.216 5811.007 2969.093 7946.124 3273.761 3120.748 8354.297 2510.187 6973.174 3681.651 5271.127 3029.156 8645.044 714.080 2877.216 6994.092 21135.793 16619.228 0.000 2322.294 2555.827 462.796 5006.077 3798.942 3022.366 2695.413 2453.655 3751.676 11497.462 2041.176 4622.799 3996.554 2000.189 4298.347 2864.973 3853.649 2752.343 3428.720 11735.066 5735.909 445.902 1446.325 2249.138 3651.501 5566.503 5945.670 4271.635 5461.681 3516.360 974.173 4123.461 6194.176 8143.307 2770.887 7553.393 3062.878 2577.743 13502.380 3236.067 2692.386 2966.715 3204.107 11239.046 4644.057 4392.401 3678.647 13453.215 4688.240 3292.156 5999.003 3429.587 3370.164 4278.200 3106.083 17141.197 4570.172 13233.704 1436.370 3786.247 2870.083 3347.134 4018.393 12651.186 6899.579 2957.307 2759.061 13195.918 10771.893 7223.645
1871.987 1684.230 998.438 13239.873 1377.078 15585.075 2094.397 1999.145 1084.810 3209.012 1531.065 2861.400 1049.171 4045.470 846.453 12974.796 1672.513 1211.514 16682.855 1189.233 1248.809 2560.902 2665.621 6304.639 3100.798 1659.254 4909.364 1644.605 1127.830 9051.307 1366.296 6011.235 1329.343 2118.086 4493.436 11526.017 1293.142 1535.862 15551.795 9001.928 2459.737 1947.906 9736.366 8984.386 3424.331 6378.831 2361.574 11725.620 8726.339 2634.905 5167.831 5519.115 2506.992 15144.572 2032.354 1684.669 1497.022 1497.502 2738.555 6436.359 1342.608 10099.154 12057.687 5097.607 6639.442 1100.097 12142.969 1698.048 1264.123 829.525 2263.773 2558.794 9261.427 5034.672 1004.613 4830.352 2035.798 1221.346 5052.885 1439.741 1013.838 1282.553 9757.459 1214.114 1273.346 1272.019 5500.622 1351.645 1102.518 2328.632 2281.725 7845.415 16625.953 8697.326 7809.395 1016.861 3962.734 1287.737 6412.858 2374.279 1439.393 10559.621 4782.075 5439.908 2166.768 3649.160 2056.091 9059.739 2506.039 1195.860 5145.819 19602.526 14770.955 2715.568 0.000 874.471 2213.726 5098.119 2117.586 2999.981 4900.736 3200.532 2236.793 10673.660 1568.729 2680.172 5070.802 1527.742 2355.721 1183.618 1801.696 5024.230 1747.364 11020.883 3749.515 2230.619 1779.371 4454.461 5923.389 3614.520 4097.398 2590.279 3613.408 2717.690 2119.334 6395.348 4660.910 6295.034 1089.531 8078.652 1739.434 4849.631 11969.114 1721.184 4964.273 1207.748 5475.995 10415.244 2795.784 2877.518 2854.845 11604.943 2839.967 5497.479 4150.730 1914.704 1855.281 2429.927 1875.132 16695.701 6842.060 12409.901 2964.141 1848.317 1402.263 5619.022 2153.609 11827.384 4913.184 1416.510 1077.705 12750.422 10406.260 6399.842
1909.986 1609.936 123.967 13261.646 526.825 15606.848 1446.495 1148.892 316.672 2561.109 680.812 2046.581 252.934 3397.568 765.818 12900.502 822.260 361.261 16704.628 1114.939 1644.361 1746.083 2017.719 6230.345 2561.136 809.001 4835.070 794.352 277.577 9073.081 516.043 5363.333 479.090 1267.833 4668.803 11451.723 442.889 685.609 14903.893 8354.026 1609.484 1562.396 9088.464 9006.159 3446.104 6304.537 1511.321 11077.718 8652.045 3030.457 5093.537 5444.821 2528.765 14496.670 1182.101 834.416 646.769 647.249 2090.652 5788.456 1380.607 9451.252 12079.460 5023.313 6565.148 776.952 12164.742 2093.600 413.870 442.739 2065.130 1708.541 8411.174 4386.770 236.475 4756.058 1185.545 371.093 4404.982 589.488 1348.100 486.316 9109.556 417.877 1199.053 475.782 5426.328 581.464 334.380 2254.338 1466.906 7197.513 16647.726 8767.001 7735.101 166.608 3314.832 437.484 6434.631 2412.278 589.140 10485.327 4707.781 5461.681 1316.515 3571.701 2094.090 8979.104 2425.404 399.624 4497.917 19624.299 14123.053 2641.274 921.025 0.000 2139.432 5493.671 1302.767 3395.533 4826.443 3596.084 1386.540 9823.407 1488.094 2602.712 4990.167 1447.107 2278.261 387.381 1416.186 4949.937 897.111 10170.630 3296.186 2156.325 1698.736 4380.167 5849.095 3271.405 3449.495 1775.460 2965.505 1927.053 2038.698 6321.054 4682.683 5647.131 239.278 8474.204 889.181 4775.337 11990.887 870.931 4889.979 1245.747 5401.701 9564.991 2147.882 2027.265 2004.592 10957.040 2192.064 5423.185 3502.828 1064.451 1005.028 1782.025 1024.879 16717.474 6767.766 11559.648 3292.039 1308.655 552.010 5544.728 1522.218 10977.131 4439.580 566.257 775.168 12772.195 10801.811 5549.589
2954.254 1306.307 2216.998 14613.435 2595.638 15964.072 3479.874 3217.705 2303.370 4594.489 2642.856 4079.960 2267.731 5430.947 1616.499 10761.071 2891.073 2430.074 17061.852 1419.475 2553.768 3779.462 4051.098 4090.913 4575.932 2877.813 2695.638 2803.458 2346.390 10424.870 2584.856 7396.712 2547.902 3336.646 2529.371 9312.291 2511.702 2372.853 16937.272 10387.405 3618.590 3537.063 11121.843 10357.949 4797.893 4165.106 3520.427 13111.097 6512.614 2919.086 2954.105 3305.389 4096.149 16530.049 3250.913 2869.436 2715.582 2716.062 4124.032 7821.836 2931.765 11484.631 13431.249 2883.881 4425.717 2318.656 13516.531 2408.803 2482.683 2048.085 3033.819 3777.354 10033.773 6420.149 2223.172 2616.626 3254.357 2439.906 6438.362 2658.301 1846.633 2501.113 11142.936 2432.673 940.379 2490.579 3286.897 2596.261 2321.078 114.907 3500.285 9230.892 17616.321 6627.569 5595.670 2235.420 5348.211 2506.297 7786.420 3114.057 2657.952 8345.895 2568.349 6813.470 3325.621 5111.423 2869.452 8711.906 1077.959 2414.420 6531.296 20976.089 16156.432 503.157 1859.498 2093.031 0.000 4939.578 3336.146 2955.867 2687.011 2387.155 3395.646 11468.838 2109.396 4269.329 4054.716 2068.408 3944.878 2402.177 3390.853 2810.505 2965.924 11793.228 5310.982 16.894 1404.275 2240.735 3709.664 5203.677 5482.875 3808.839 4998.885 3487.736 1338.052 4181.623 6034.472 7680.511 2308.091 7486.894 2706.848 2635.905 13342.676 2880.037 2750.548 2632.223 3262.270 11210.422 4181.261 4036.371 3650.024 12990.420 4225.444 3283.754 5536.207 3073.557 3014.134 3815.404 2750.053 17074.697 4628.334 13205.080 1369.871 3323.451 2514.054 3405.296 3555.597 12622.562 6454.377 2601.277 2296.265 13129.419 10705.393 7195.021
3910.155 6432.057 5975.378 10957.727 6354.017 11458.326 6313.620 6896.138 6061.750 7569.929 6508.005 7280.861 6026.111 7543.918 5823.393 12595.164 6388.122 6188.453 12556.105 5944.081 4984.068 6980.363 7026.538 8533.342 6887.650 6398.966 7138.067 6621.544 6104.770 6769.161 6343.236 9243.235 6306.282 7015.078 4686.053 11146.385 6270.082 6512.802 17054.017 12233.929 7382.849 5743.677 12968.366 6702.240 3861.783 7348.946 7338.514 14957.620 5645.162 3751.525 7090.841 7348.601 4807.218 17927.201 6929.346 6661.609 6473.961 6474.441 7099.472 10088.132 5121.548 13331.154 9775.540 6693.129 7812.904 5486.685 9860.822 4035.693 6241.062 5806.464 7240.713 7202.706 14028.827 8288.155 5981.552 7059.056 6932.790 6198.286 8032.615 6416.681 5801.551 5807.711 12989.459 6153.212 6021.174 5880.316 6486.476 5712.563 5513.339 5693.973 6701.186 10954.910 13209.623 5054.695 10038.099 5993.800 7421.979 6264.677 4135.730 3447.927 6416.332 7478.443 7010.778 3157.761 7143.708 5192.833 3786.841 13267.541 6735.715 6172.800 8224.074 17320.380 17553.584 6082.223 5684.423 5851.411 5772.403 0.000 6537.047 4070.537 7006.053 3564.591 7213.733 15441.060 6545.669 5418.996 8610.350 6504.681 5094.545 6160.557 5371.970 7252.934 6644.357 15788.283 6532.106 5755.509 6530.025 6475.238 7752.875 6362.701 7598.298 7009.740 7618.334 7544.706 6976.343 8624.052 2776.384 9850.756 6066.471 4436.021 6716.374 7078.334 9686.967 6698.124 7192.977 4397.375 7212.381 15182.644 7156.701 7854.458 7622.245 14836.943 7200.884 7084.835 7455.746 6891.644 6832.220 6790.845 6852.071 12568.951 9070.764 17177.302 4714.365 6209.235 6379.203 7448.508 6301.075 16594.784 7695.776 6393.450 5484.901 8722.721 5946.218 11167.243
2758.577 2708.193 1826.129 13497.803 785.646 15843.006 991.306 1249.511 1395.168 1420.101 1343.788 743.814 1331.430 2444.825 2230.733 14365.417 741.495 1017.094 16940.785 2579.854 2511.634 443.316 1347.696 7492.974 1932.695 752.339 6097.699 1409.388 1008.362 9309.238 840.200 4403.602 862.437 1368.452 5756.261 12916.638 1104.138 1312.730 13944.161 7394.295 1087.513 1798.553 8128.733 9242.316 3682.261 7769.452 1074.737 10117.986 10116.960 3897.730 6356.166 6707.451 2764.922 13536.938 1282.720 1449.453 922.657 1134.019 1420.630 4647.448 1718.278 8491.521 12315.617 6488.228 8030.063 1737.326 12400.899 2960.874 964.485 1657.216 1953.917 665.659 7733.492 3427.038 1314.970 6018.688 1286.164 1034.069 3452.240 1076.258 2497.629 1182.465 8149.825 1496.372 2663.967 1255.070 6891.243 1087.316 1412.876 3719.253 164.139 6237.782 16883.883 9960.151 8997.731 1233.169 2362.089 848.455 6670.788 3260.869 1032.623 11950.242 5970.410 5697.838 879.932 3722.954 2942.681 9600.655 3431.925 1478.119 3538.185 19860.456 13163.322 3871.807 2380.501 1702.162 3604.346 6360.944 0.000 4262.807 6291.357 4463.357 1592.191 9145.725 2494.615 2753.965 5611.718 2453.628 2514.418 1465.876 1652.343 6212.566 997.730 9492.948 2941.611 3621.240 2705.257 5845.082 7111.725 2916.831 2496.752 472.693 2012.763 1249.371 3045.220 7583.684 4918.840 4506.123 1139.076 9341.477 1504.218 6037.966 12227.044 1485.968 6152.609 2094.338 6664.331 8887.308 1376.493 2128.085 1326.910 9997.309 1373.664 6815.361 2550.085 1292.930 1620.064 1112.003 1639.915 16953.631 8030.396 10881.966 4380.084 1168.089 1214.986 6807.358 1067.028 10299.448 3612.884 1181.294 1735.542 13008.352 11156.474 4871.907
1934.703 3614.093 3708.419 12887.982 4087.059 13873.766 4176.969 4629.180 3794.791 5302.971 4241.046 5013.902 3759.152 5568.465 3556.434 12481.407 4121.164 3921.495 14971.545 3259.248 2430.653 4713.404 4759.580 6023.120 4793.268 4132.008 4627.845 4354.586 3837.811 8699.417 4076.277 7267.783 4039.324 4748.120 2675.566 11032.627 4003.123 4245.843 16358.971 10258.476 5115.890 3607.026 10992.914 8632.496 3109.081 5885.442 5071.555 12982.168 7038.945 432.122 4849.526 5107.286 3357.836 15951.748 4662.388 4394.650 4207.003 4207.483 4832.514 8112.680 2966.935 11355.702 11705.796 4451.815 6146.053 3219.726 11791.078 1413.977 3974.104 3539.506 4973.755 4935.747 11761.869 6312.703 3714.594 4548.833 4665.832 3931.327 6057.163 4149.722 3190.840 3540.753 11014.007 3886.254 3234.389 3613.358 5007.233 3445.604 3246.381 2946.028 4434.227 8979.458 15526.015 6448.479 7527.876 3726.842 5446.527 3997.719 6060.967 1713.845 4149.374 8872.227 4500.556 5088.017 4876.749 3743.451 1849.901 10757.318 3897.783 3905.842 6248.622 19250.636 15578.131 3334.278 3075.593 3584.452 3024.458 2849.272 4270.088 0.000 4495.830 1382.662 4946.774 13174.102 4278.710 3443.543 6100.128 4237.723 3119.092 3893.599 3396.518 4742.712 4377.398 13521.325 4556.654 3007.564 3712.061 4049.554 5511.560 4387.248 5622.845 4742.781 5642.882 5277.748 4157.876 6113.830 4345.661 7875.304 3799.513 5829.805 4449.415 4568.112 11617.223 4431.166 4682.755 2330.337 4971.066 12915.686 4889.743 5587.500 5355.287 12861.490 4933.926 4843.520 5480.294 4624.685 4565.262 4523.886 4585.113 14984.391 6560.541 14910.343 1966.420 3942.276 4112.244 5207.193 4164.424 14327.826 5720.324 4126.491 3217.942 11039.113 8615.087 8900.284
4583.909 3588.066 4498.757 16243.090 4877.397 17292.979 5761.634 5499.464 4585.129 6876.248 4924.615 6361.719 4549.490 7712.707 3898.258 9677.029 5172.832 4711.833 18390.758 3701.234 4528.171 6061.222 6332.857 3005.119 6857.692 5159.573 1598.138 5085.217 4628.149 12054.525 4866.615 9678.471 4829.662 5618.405 3315.595 8228.250 4793.461 4654.613 19008.178 12669.165 5900.349 5704.544 13403.602 11987.604 6427.548 3081.064 5802.187 15392.856 5428.572 4269.952 1439.451 1802.475 6018.802 18600.954 5532.673 5151.195 4997.341 4997.821 6405.791 10103.595 5064.454 13766.391 15060.904 1296.609 3257.381 4600.416 15146.186 4038.458 4764.442 4329.844 5315.579 6059.113 9713.824 8701.908 4504.932 1519.127 5536.117 4721.665 8706.369 4940.060 4128.393 4782.872 13424.695 4714.433 3222.138 4772.338 2202.855 4878.020 4602.838 2203.329 5782.044 11512.651 18945.228 5543.528 4509.876 4517.180 7629.971 4788.057 9416.075 4743.712 4939.712 7261.854 1470.849 8443.125 5607.381 6741.078 4499.107 8391.957 3182.801 4696.180 8813.055 22605.744 18227.338 2534.705 4141.257 4374.790 2281.759 6268.485 5617.905 4336.652 0.000 3722.918 5677.405 13246.237 4391.155 6092.750 3734.767 4350.168 5768.298 4683.937 5541.388 1713.005 5247.683 11473.279 7205.860 2264.866 3686.034 1656.479 2206.749 7036.454 7764.634 6090.599 7280.644 5769.495 3442.894 3095.829 7664.127 9962.270 4589.850 8419.240 4988.607 1195.928 14972.331 5161.797 1310.571 4575.127 1666.255 12987.820 6463.020 6318.131 5931.783 15272.179 6507.203 1696.481 7817.967 5355.317 5295.893 6097.164 5031.812 18403.604 3542.541 15186.996 2635.456 5605.211 4795.813 1902.382 5837.356 14604.478 8369.530 4883.036 4578.024 14458.326 12034.300 9476.780
2345.088 3598.885 3937.989 13156.256 4316.629 14175.025 4414.327 4858.750 4024.362 5532.541 4470.616 5243.472 3988.722 5978.850 3786.004 11465.994 4350.734 4151.065 15272.805 3386.772 2668.010 4942.975 4989.150 5276.614 5030.626 4361.578 3881.339 4584.156 4067.381 8967.690 4305.847 7678.167 4268.894 4977.690 1424.540 10017.214 4232.693 4475.413 16769.356 10668.861 5345.460 3844.383 11403.298 8900.769 3377.354 4870.029 5301.125 13392.552 6906.988 1151.999 3834.113 4091.873 3779.981 16362.133 4891.958 4624.220 4436.573 4437.053 5062.084 8523.064 3204.293 11766.087 11974.069 3436.401 5130.640 3449.296 12059.351 1824.361 4203.674 3769.076 5203.325 5165.317 11332.679 6723.088 3944.164 3802.328 4895.402 4160.897 6467.548 4379.292 3420.410 3770.323 11424.391 4115.824 3219.181 3842.928 3991.820 3675.174 3475.951 2437.245 4663.797 9389.843 15827.274 6316.521 6781.371 3956.412 5856.911 4227.289 6329.240 2331.273 4378.944 8740.269 3754.050 5356.290 5106.320 4340.395 2260.285 10010.813 3478.987 4135.412 6659.006 19518.909 15988.516 2825.495 3305.163 3814.022 2515.675 3150.531 4499.658 1471.011 3749.325 0.000 5176.344 13403.672 4401.974 3853.928 5353.622 4360.986 3529.477 4123.169 3681.227 3996.206 4606.969 13092.135 4967.039 2498.781 3696.852 3218.510 4496.147 4797.633 6033.230 4972.352 5936.937 5507.318 3739.080 5367.324 4613.934 8285.688 4029.083 5697.847 4678.986 3821.606 11885.496 4660.736 3936.249 2688.055 3955.653 13145.256 5119.313 5817.070 5584.857 13271.875 5163.496 3828.107 5890.678 4854.255 4794.832 4753.457 4814.683 15285.651 5814.036 15139.913 1457.637 4171.846 4341.814 4191.780 4401.781 14557.396 6130.708 4356.062 3447.512 11340.372 8916.347 9129.854
3030.695 1819.102 1719.878 14398.581 1266.531 16743.783 1987.785 771.976 1545.034 2609.354 1241.760 1933.067 1481.296 3634.078 1541.556 13752.189 1363.550 1174.103 17841.563 2017.322 2546.744 1632.570 2559.009 6603.884 3137.573 1339.980 5208.609 325.894 1225.355 10210.015 1106.216 5592.855 1218.796 653.035 5571.186 12303.410 1104.028 971.757 15133.415 8583.548 820.801 2766.416 9317.986 10143.094 4583.039 7156.224 722.638 11307.240 9503.733 3932.840 5467.076 5818.360 3665.700 14726.192 738.767 799.187 1154.731 1015.189 2631.943 5836.701 2501.316 9680.774 13216.395 5875.000 7273.266 1877.852 13301.677 2995.983 1145.747 1550.964 760.914 1126.537 7622.491 4616.292 1464.837 5129.597 742.211 1175.824 4641.493 957.429 2250.483 1714.678 9339.079 1646.239 2101.436 1704.144 6278.016 1809.826 1562.743 3156.722 1573.968 7427.035 17784.661 9618.688 8108.640 1383.035 3551.342 1121.964 7571.566 3532.987 913.793 11337.014 5081.320 6598.616 527.833 4719.434 3214.799 8521.257 2542.835 1627.986 4727.439 20761.234 14352.575 2982.716 1823.409 1595.911 3041.815 6396.054 1432.981 4297.916 5678.130 4498.467 0.000 9034.724 1719.743 3750.445 4532.320 1678.755 3482.282 1615.743 2620.206 5323.476 1100.597 9381.947 4062.921 3058.709 1816.167 5231.854 6222.634 4038.141 3686.006 1373.181 3202.016 1138.370 2156.129 6694.594 5819.618 5695.377 1288.943 9376.587 287.938 5148.876 13127.822 402.474 5263.519 2366.456 5775.240 8776.308 2565.746 1238.583 1215.909 11186.562 2562.918 5926.270 3739.338 275.769 216.345 2323.315 331.143 17854.409 7141.305 10770.966 4194.422 2135.953 1112.958 5918.267 2063.508 10188.448 4802.138 1062.464 1855.460 13909.130 11704.195 4760.907
10648.721 9827.725 9486.368 21957.343 8758.208 24302.546 9479.462 8263.653 9055.407 9706.829 8964.581 9030.542 8991.669 10731.553 9550.179 21056.075 8855.227 8684.476 25400.326 10025.945 10401.778 8730.044 9720.425 14450.699 10235.048 8831.657 13055.424 8607.327 8717.033 17768.778 8597.893 12690.330 8710.473 8144.712 13579.809 19917.920 8595.705 8730.715 22230.890 13385.964 7610.439 10258.093 14120.402 17701.857 12141.801 15164.847 7763.979 16109.656 17512.356 11787.874 13313.891 13665.175 11224.463 21823.667 8230.444 8290.864 8646.408 8506.866 9793.358 12934.176 10119.341 14483.190 20775.157 13853.339 15120.082 9515.687 20860.439 10851.017 8637.424 9317.455 8100.481 8224.012 4637.213 11713.767 8975.209 12976.412 8233.888 8667.501 11738.968 8449.106 10259.106 9225.051 14141.494 9156.612 10110.059 9214.517 14286.638 9320.199 9073.115 11165.345 8671.443 14069.275 25343.424 17627.311 14219.004 8893.408 10648.817 8613.641 15130.328 11151.012 8405.470 19345.637 12928.135 14157.378 8019.510 12211.111 10832.824 11947.989 10551.457 9138.358 11824.914 28319.997 21450.050 10991.339 9832.032 9362.401 11050.438 14251.088 8530.456 12152.950 13624.509 12353.501 8281.433 0.000 9728.366 11242.122 10439.714 9687.378 10973.959 9126.115 10111.883 13170.291 8592.274 4235.277 11326.426 11067.331 9824.789 13240.477 14069.450 11301.645 10783.481 8470.656 10299.491 7395.935 10164.752 14541.409 13378.380 12792.852 8799.315 17231.621 8569.371 12995.691 20686.584 8187.073 13110.334 9984.482 13622.056 524.810 9663.221 8817.327 7473.474 15988.978 9660.393 13773.086 10836.813 7982.172 8321.169 9496.818 8612.576 25413.171 14280.084 4765.897 12203.045 9627.630 8835.779 13765.083 9555.185 1790.797 11899.613 8554.141 9513.903 21467.893 19559.229 4202.140
2211.721 906.330 900.904 13579.607 1258.475 15924.810 2163.780 1880.542 987.276 3278.395 1204.849 2763.866 951.637 4114.853 722.582 12839.417 1553.910 1092.911 17022.589 1198.348 1727.770 2463.368 2735.004 5691.112 3259.838 1540.650 4295.837 1365.452 1009.227 9391.042 1247.693 6080.618 1210.739 1999.483 4665.815 11390.638 1174.539 934.847 15621.178 9071.311 2180.584 2261.098 9805.749 9324.120 3764.065 6243.452 2082.421 11795.003 8590.961 3113.866 4554.304 4905.588 2846.726 15213.955 1913.750 1431.430 1378.419 1329.781 2807.938 6505.741 1682.342 10168.537 12397.421 4962.228 6360.494 1058.878 12482.703 2177.010 1145.520 731.990 1595.813 2440.191 8618.599 5104.055 907.078 4216.825 1917.194 1102.743 5122.268 1272.020 1431.509 1185.018 9826.842 1116.579 1282.462 1174.485 5365.243 1280.167 1004.984 2256.515 2184.191 7914.798 16965.687 8705.916 7195.868 919.326 4032.117 1169.134 6752.592 2714.013 1320.789 10424.242 4168.548 5779.642 1887.615 3988.895 2395.825 8183.762 1630.062 1098.326 5215.202 19942.260 14840.338 2069.944 1004.435 776.937 2220.345 5577.080 2020.052 3478.943 4765.358 3679.493 1957.640 10030.832 0.000 3019.906 4194.825 84.615 2695.455 1086.083 2114.888 4410.704 1628.761 10378.055 3994.888 2237.238 903.395 4319.082 5309.862 3954.254 4166.780 2492.745 3682.791 2049.730 1243.357 5781.822 5000.644 6364.417 970.928 8557.613 1268.841 4236.104 12308.848 1442.031 4350.747 1547.482 4862.468 9772.416 2865.167 2598.365 2212.017 11674.326 2909.350 5013.498 4220.113 1635.551 1576.128 2499.310 1312.046 17035.435 6228.533 11767.074 3375.449 2007.357 1076.047 5005.495 2239.503 11184.556 5138.283 1163.271 1036.487 13090.156 10885.221 5757.015
1810.124 4178.252 3492.459 11032.512 2998.096 13525.834 2074.852 3461.962 3062.876 3555.998 3427.016 3428.898 2999.138 2678.111 3340.474 14579.733 2953.946 3107.465 14623.614 3683.254 2778.128 3128.400 2516.314 8032.963 2043.899 2964.790 6637.688 3540.556 3023.781 6843.946 3052.650 4377.429 3074.887 3580.902 5217.355 13130.953 3189.093 3431.813 13445.876 7368.122 3944.975 1833.390 8102.560 6777.025 1544.316 7983.768 3932.199 10091.814 9943.045 3316.369 6896.155 7247.439 842.573 13038.653 3495.170 3580.620 3135.107 3346.470 2589.247 5222.326 1877.086 8465.348 9850.326 6674.627 8244.379 2940.808 9935.608 2422.828 3160.074 3323.546 4757.795 3523.121 10590.954 3422.349 2982.678 6558.676 3498.614 3117.297 3166.809 3288.709 3318.633 2385.946 8123.652 2731.447 3767.368 2458.552 7105.559 2290.798 2967.462 4644.470 2872.528 6089.104 14566.712 9352.579 9537.720 2912.812 2556.172 3060.905 4298.105 2375.821 3245.073 11776.327 6510.399 3010.865 3737.394 968.988 2102.545 11553.760 5000.061 2774.067 3358.268 17395.165 12665.036 5032.721 3201.505 3368.492 4707.747 5396.163 2857.462 3681.446 6505.673 3924.451 4132.744 12003.187 4062.751 0.000 7564.823 4021.763 740.415 2884.908 1461.684 6752.555 3210.181 12350.410 1550.684 4706.007 4273.393 6059.397 7651.714 1305.052 2732.491 3330.155 2752.528 4106.833 4613.355 8123.673 2780.895 4984.950 2985.482 8733.905 3635.385 6577.955 9761.753 3617.135 6692.598 2191.435 7180.170 11744.770 2646.477 4773.469 4184.372 9971.136 2618.554 7066.332 2589.940 3810.655 3751.232 2634.704 3771.083 14636.460 8570.384 13739.428 3976.264 2445.413 3298.214 7347.346 2062.307 13156.910 2829.969 3312.461 2939.023 10691.181 8834.284 7729.369
6128.720 3700.791 4884.448 17563.152 5242.019 18905.737 6130.888 5094.470 4970.821 6798.044 5046.315 6121.757 4935.182 7822.768 4441.312 10998.247 5506.653 4978.658 20003.517 4366.329 5500.623 5821.259 6702.111 4652.996 7243.383 5483.082 3257.721 4648.389 4992.772 13374.586 5190.125 9781.544 5194.284 4975.530 5114.793 9860.092 5060.286 4776.313 19322.104 12772.238 4701.653 6244.643 13506.675 13307.665 7747.609 5500.726 4855.194 15495.929 8047.673 5882.711 3516.188 3867.472 6830.271 18914.881 5061.262 5121.682 5320.850 5171.246 6775.045 10025.391 5665.887 13869.464 16380.965 4055.635 5322.378 5042.423 16466.248 5724.269 5031.267 4715.535 4070.263 5315.227 6470.502 8804.981 4890.623 3178.709 5064.706 4988.490 8830.182 5113.486 4793.488 5168.563 13527.768 5100.124 3887.234 5158.030 4961.882 5263.712 4988.529 3529.216 5762.658 11615.724 20557.986 8162.628 4161.177 4902.871 7740.032 5147.297 10736.137 6429.522 5236.287 9880.954 3130.432 9763.187 4850.327 7972.439 6184.917 4707.770 3394.049 5081.871 8916.128 23925.805 18541.264 3174.479 4806.352 4760.481 3607.645 7881.243 5621.671 6035.175 3826.806 5335.676 4920.352 10002.915 4088.605 7003.451 0.000 4047.618 6679.000 5069.628 6098.433 3372.588 5423.092 8229.958 7978.433 3590.752 3493.754 4138.178 4271.746 7937.799 7874.695 5561.871 7390.705 4301.261 3654.142 4668.968 8984.189 9884.066 4954.473 10435.415 4610.433 3197.988 16292.393 4724.969 3312.631 5531.027 3824.352 9744.499 6754.435 5561.077 4463.549 15375.252 6751.607 3975.382 7928.028 4598.263 4538.840 6466.418 4653.638 20016.363 4222.257 11943.674 4248.215 5990.902 4917.513 3967.379 6206.610 11361.157 8990.827 5004.736 5020.031 16071.084 13647.058 7435.066
2296.336 990.945 985.518 13664.222 1343.089 16009.424 2248.395 1965.157 1071.891 3363.009 1289.464 2848.481 1036.251 4199.468 807.197 12924.032 1638.524 1177.525 17107.204 1282.963 1812.385 2547.983 2819.619 5775.726 3344.453 1625.265 4380.451 1450.066 1093.841 9475.656 1332.308 6165.233 1295.354 2084.097 4750.429 11475.253 1259.153 1019.462 15705.793 9155.926 2265.198 2345.713 9890.364 9408.735 3848.679 6328.067 2167.036 11879.618 8675.575 3198.481 4638.918 4990.203 2931.341 15298.570 1998.365 1516.044 1463.033 1414.396 2892.552 6590.356 1766.956 10253.152 12482.035 5046.843 6445.109 1143.492 12567.317 2261.624 1230.134 816.605 1680.428 2524.806 8703.214 5188.670 991.693 4301.440 2001.809 1187.357 5206.882 1356.635 1516.124 1269.633 9911.456 1201.194 1367.077 1259.099 5449.858 1364.781 1089.599 2341.130 2268.806 7999.413 17050.302 8790.531 7280.483 1003.941 4116.732 1253.749 6837.206 2798.627 1405.404 10508.857 4253.162 5864.256 1972.230 4073.509 2480.439 8268.377 1714.677 1182.941 5299.817 20026.875 14924.953 2154.559 1089.050 861.551 2304.959 5661.695 2104.667 3563.557 4849.972 3764.108 2042.254 10115.447 84.615 3104.521 4279.440 0.000 2780.070 1170.698 2199.503 4495.318 1713.376 10462.670 4079.503 2321.853 988.009 4403.697 5394.477 4038.869 4251.395 2577.360 3767.405 2134.344 1327.971 5866.436 5085.258 6449.031 1055.543 8642.228 1353.456 4320.718 12393.462 1526.646 4435.361 1632.097 4947.083 9857.031 2949.782 2682.980 2296.632 11758.940 2993.964 5098.113 4304.728 1720.166 1660.742 2583.925 1396.661 17120.050 6313.148 11851.688 3460.063 2091.972 1160.662 5090.110 2324.118 11269.171 5222.897 1247.885 1121.101 13174.771 10969.835 5841.629
1211.425 3579.552 2893.760 11389.246 2399.397 13734.449 1804.635 2863.263 2464.177 3285.781 2828.317 3158.680 2400.439 2785.274 2741.775 13981.034 2355.247 2508.765 14832.229 3084.555 2179.429 2858.183 2413.893 7434.264 2129.006 2366.091 6038.989 2941.856 2425.082 7200.681 2453.951 4484.591 2476.188 2982.203 4618.656 12532.254 2590.394 2833.114 13575.780 7475.285 3349.973 1234.691 8209.722 7133.760 1573.704 7385.069 3337.198 10198.976 9370.558 2717.670 6297.456 6648.740 656.366 13168.557 2896.471 2981.921 2536.408 2747.770 2486.827 5329.488 1278.387 8572.510 10207.060 6075.928 7645.680 2342.108 10292.342 1824.129 2561.374 2724.847 4159.095 3169.830 9995.952 3529.512 2383.979 5959.977 2899.915 2518.598 3273.971 2690.010 2719.934 1787.247 8230.815 2132.748 3168.668 1859.853 6506.860 1692.099 2368.763 4045.771 2602.310 6196.267 14775.327 8780.091 8939.020 2314.112 2663.335 2462.206 4562.231 1822.033 2646.374 11203.839 5911.700 3477.032 3142.392 1435.155 1503.845 10955.061 4401.361 2175.368 3465.430 17751.900 12794.940 4434.021 2602.805 2769.793 4109.048 5180.884 2504.171 3082.746 5906.974 3325.752 3534.045 11408.185 3464.051 466.167 6966.124 3423.064 0.000 2286.208 862.985 6153.856 2611.481 11755.408 1744.412 4107.308 3674.693 5460.698 7053.014 1498.780 2839.654 2976.864 2859.690 3511.831 4014.656 7524.974 2810.283 5092.112 2386.783 8161.417 3036.686 5979.256 10118.487 3018.436 6093.899 1592.735 6581.471 11149.769 2544.056 4174.770 3589.370 10078.299 2588.239 6467.633 2697.102 3211.956 3152.533 2506.696 3172.383 14845.075 7971.685 13144.426 3377.564 2167.098 2699.515 6748.647 1792.089 12561.908 2937.132 2713.762 2340.324 10899.796 9047.917 7134.367
2140.877 2536.949 1413.447 12975.188 930.118 15320.391 1178.620 1393.983 982.486 2293.235 1346.626 1778.706 918.748 3129.693 1818.051 13952.735 885.967 1027.074 16418.171 2167.172 1893.935 1478.208 1749.844 7282.578 2274.678 896.811 5887.303 1460.165 943.391 8786.623 984.672 5095.458 1006.909 1512.924 5138.561 12503.956 1108.703 1351.423 14636.018 8086.151 1880.694 1275.938 8820.589 8719.702 3159.646 7356.770 1867.918 10809.843 9704.278 3280.031 6145.770 6497.054 2242.308 14228.795 1427.192 1500.230 1067.129 1278.491 1822.778 5520.581 1195.664 9183.377 11793.002 6075.546 7617.381 1007.844 11878.284 2343.174 1079.684 1244.534 2730.943 1700.551 8526.673 4118.895 902.288 5808.291 1430.636 1036.907 4137.108 1220.730 1879.930 199.858 8841.682 651.057 2251.286 189.325 6478.561 295.007 1000.194 3306.571 1199.031 6929.638 16361.269 9342.452 8787.334 832.421 3046.957 992.927 6148.173 2643.169 1177.095 11537.560 5760.014 5175.223 1673.113 3285.243 2324.981 9814.381 3260.681 113.166 4230.042 19337.842 13855.178 3693.507 1762.802 1289.480 3191.665 5743.245 1034.892 3645.107 5878.675 3845.658 2052.354 9938.905 2323.371 2316.255 5825.444 2282.384 1991.804 0.000 1129.728 6002.170 1142.202 10286.128 3009.728 3208.558 2534.013 5432.400 6901.328 2984.948 3181.620 1507.585 2697.631 2042.552 2873.975 7373.287 4396.225 5379.257 905.092 8723.777 1554.995 5827.570 11704.429 1536.745 5942.212 1476.639 6453.934 9680.489 1880.007 2693.079 2120.091 10689.166 1924.190 6475.418 3234.953 1730.265 1670.842 1514.150 1690.692 16431.016 7819.999 11675.147 3762.385 1022.197 1217.824 6596.961 1254.343 11092.629 4153.123 1232.071 1006.060 12485.738 10633.859 5665.088
1529.127 2750.213 2032.153 11845.460 1536.412 14190.663 941.650 2000.278 1601.192 2422.796 1965.332 2295.696 1537.454 2636.729 1912.436 13981.045 1492.262 1645.781 15288.442 2255.216 1752.256 1995.198 1779.752 7310.887 1557.949 1503.106 5915.612 2078.872 1562.097 7656.895 1590.966 4658.947 1613.204 2119.218 4936.358 12532.265 1727.409 1970.129 13750.136 7649.641 2486.988 371.707 8384.078 7589.973 2029.918 7385.080 2474.213 10373.332 9688.260 3035.372 6174.079 6525.363 1112.579 13342.913 2033.486 2118.936 1673.423 1884.786 1852.686 5503.844 476.934 8746.867 10663.274 6103.855 7645.691 1479.124 10748.556 2141.831 1698.390 1863.240 3329.756 2306.845 9132.967 3703.868 1520.994 5836.600 2036.930 1655.613 3448.328 1827.025 1890.594 924.262 8405.171 1269.764 2339.329 996.868 6506.871 829.114 1505.778 3394.615 1739.325 6370.623 15231.540 9097.793 8815.644 1451.128 2514.790 1599.221 5018.445 2139.735 1783.389 11521.541 5788.323 4045.495 2279.407 2155.515 1821.547 10125.722 3572.022 1312.383 3639.786 18208.113 12969.296 3781.550 1773.466 1908.186 3279.708 5498.586 1641.187 3400.448 5906.985 3643.454 2671.060 10545.200 2634.712 1186.527 6136.785 2593.725 862.075 1423.224 0.000 6030.479 1748.497 10892.423 1947.819 3296.602 2845.354 5460.709 6929.638 1923.038 2769.690 2113.880 2521.889 2648.846 3185.316 7401.597 3266.497 5266.468 1523.798 8479.119 2173.701 5855.879 10574.701 2155.451 5970.522 1243.576 6482.244 10286.784 1909.915 3311.785 2726.385 10252.655 1954.098 6503.728 2702.785 2348.971 2289.548 1643.712 2309.399 15301.288 7848.309 12281.442 3695.266 1304.113 1836.530 6625.270 929.105 11698.924 3111.488 1850.777 1477.339 11356.010 9504.131 6271.383
5188.615 3934.399 5118.056 16793.150 5475.627 17811.920 6364.495 6056.581 5204.428 7479.110 5279.922 6964.581 5168.789 8315.568 4668.876 9462.197 5740.260 5212.266 18909.700 4471.852 5354.605 6664.083 6935.719 1962.584 7476.991 5716.690 114.867 5440.524 5226.379 12604.585 5423.732 10281.333 5427.892 6087.891 3990.223 8324.042 5293.894 5009.920 19612.883 13272.026 6197.788 6478.251 14006.464 12537.664 7014.249 2873.252 6157.494 15995.718 5700.086 4788.894 1355.226 1239.997 6623.508 19205.660 6089.790 5506.503 5554.458 5404.854 7008.653 10706.456 5890.887 14369.252 15610.964 1971.236 2694.903 5276.030 15696.246 4643.164 5264.875 4949.143 5343.480 6561.393 9272.878 9304.770 5124.231 263.707 6093.234 5222.098 9311.075 5347.093 4899.010 5402.171 14027.557 5333.732 3992.756 5391.637 2490.433 5497.319 5222.137 2973.947 6384.906 12115.513 19464.169 5815.042 3467.341 5136.479 8232.832 5380.905 9966.135 5348.417 5496.829 7533.367 242.156 8993.185 5962.688 7345.784 5103.812 7951.012 2995.117 5315.479 9415.917 23155.804 18832.043 2775.547 4911.875 4994.089 3052.377 6787.426 6220.767 4941.358 1713.005 4241.859 6032.713 12805.291 4322.213 6697.455 3293.821 4281.225 6373.004 5303.236 6332.041 0.000 5804.800 11032.334 7810.566 3035.483 3727.362 2331.107 1644.271 7641.160 8367.495 6693.460 7883.506 5797.396 3255.209 2053.294 8250.828 10565.132 5188.081 8690.754 5343.914 629.715 15522.391 5517.104 495.604 5413.861 1476.766 12546.875 7065.882 6673.438 5959.684 15875.041 7110.065 1627.795 8420.828 5710.624 5651.201 6700.025 5387.119 18922.546 2500.006 14746.050 3154.397 6224.510 5151.120 1339.904 6440.218 14163.532 8974.235 5238.344 5253.639 14977.267 12553.241 9504.681
2561.243 2241.508 1398.890 13632.944 564.713 15978.147 1155.064 251.781 967.929 2269.678 877.103 1617.960 904.191 3106.137 1803.494 13938.178 530.828 596.998 17075.927 2152.615 2314.300 1317.462 1726.287 7026.290 2311.285 507.258 5631.015 694.758 629.555 9444.379 404.398 5071.901 516.978 370.722 5558.927 12489.399 508.227 643.237 14612.461 8062.595 919.790 1933.695 8797.032 9377.458 3817.402 7342.213 907.015 10786.286 9689.722 3700.396 5889.482 6240.766 2900.064 14205.238 284.989 516.873 328.953 419.389 1799.221 5497.025 1853.420 9159.820 12450.758 6060.989 7602.825 1428.209 12536.040 2763.540 549.946 1229.977 1786.195 811.430 7565.769 4095.338 887.732 5552.003 288.433 580.023 4113.551 361.628 2300.295 1137.573 8818.125 1069.134 2236.729 1127.039 6464.004 1222.458 985.637 3292.015 1175.474 6906.081 17019.025 9762.817 8531.047 805.930 3023.401 502.996 6805.929 3063.535 317.992 11523.003 5503.726 5832.979 712.209 3886.712 2745.347 9432.933 2965.241 1050.881 4206.485 19995.598 13831.621 3405.123 1958.702 1274.923 3177.108 6163.610 1011.335 4065.473 5864.119 4266.023 1286.946 8978.002 2027.931 2917.723 5443.996 1986.943 2649.560 1038.638 1787.484 5745.882 0.000 9325.225 3230.200 3194.001 2238.573 5417.843 6645.040 3205.419 3158.064 1058.074 2674.074 1081.648 2578.535 7117.000 5053.981 5355.700 711.838 9144.143 789.587 5571.282 12362.185 771.337 5685.925 1897.004 6197.646 8719.586 1856.450 1927.671 1159.187 10665.609 1900.633 6348.676 3211.396 964.857 905.434 1490.594 925.285 17088.773 7563.711 10714.244 4182.750 1303.231 748.301 6340.673 1230.786 10131.726 4212.741 466.663 1426.425 13143.494 11291.615 4704.185
10898.247 10016.446 9735.894 22206.869 9007.734 24552.072 9728.988 8513.179 9304.933 9956.355 9214.107 9280.068 9241.195 10981.079 9799.705 19054.750 9104.753 8934.002 25649.852 10275.471 10651.304 8979.571 9969.951 12449.375 10484.574 9081.183 11054.100 8856.853 8966.559 18018.304 8847.419 12939.856 8959.999 8394.238 12911.172 17916.595 8845.231 8980.241 22480.416 13128.888 7859.965 10507.619 13863.326 17951.383 12391.327 13297.105 8013.506 15852.580 15844.052 12037.400 11312.567 11663.851 11473.989 22073.193 8479.970 8540.390 8895.934 8756.392 10042.884 13183.702 10368.867 14226.114 21024.683 11852.014 13118.757 9765.213 21109.965 11100.543 8886.950 9566.981 8350.007 8473.538 1843.309 11963.293 9224.735 10975.088 8483.414 8917.027 11988.494 8698.632 10508.632 9474.577 13884.419 9406.138 10359.585 9464.043 12758.261 9569.725 9322.641 11325.595 8920.969 13812.199 25592.950 15959.007 12217.679 9142.934 10898.343 8863.167 15379.854 11400.538 8654.996 17677.333 10926.811 14406.904 8269.036 12460.637 11082.351 8926.851 10740.178 9387.884 12074.440 28569.523 21699.576 10970.858 10081.558 9611.927 11299.964 14500.614 8779.982 12402.476 11623.185 12603.027 8530.959 4320.060 9563.947 11491.648 8438.390 9522.959 11223.485 9375.641 10361.409 11168.967 8841.800 0.000 11575.952 11316.857 10013.510 11934.557 12068.125 11551.171 11033.007 8720.182 10549.017 7645.461 10353.472 12540.084 13627.906 13042.378 9048.841 17481.147 8818.897 10994.367 20936.110 8436.599 11109.010 10234.008 11620.731 4433.561 9912.747 9066.853 7723.000 15731.903 9909.919 11771.761 11086.339 8231.698 8570.695 9746.344 8862.102 25662.697 12278.760 7950.832 12044.594 9877.156 9085.305 11763.758 9804.711 6110.857 12149.139 8803.667 9763.429 21717.419 19808.755 4790.710
2752.039 4805.682 4021.619 12746.320 3249.696 15239.643 2147.656 3713.561 3590.658 3087.210 3807.838 3021.792 3526.920 2177.659 3967.905 15521.647 3205.545 3481.144 16337.423 4310.685 3720.042 2721.294 2015.861 8974.877 1543.447 3216.389 7579.602 3873.438 3472.412 8557.755 3304.250 3876.976 3326.487 3832.502 6159.269 14072.868 3568.188 3776.780 11927.967 6867.670 3988.998 2051.945 7602.107 8490.834 3238.935 8925.682 3976.223 9591.361 10911.171 4258.283 7838.069 8189.353 2321.597 11520.744 3746.770 3913.503 3386.707 3598.069 2088.795 4721.873 2680.292 7964.895 11564.134 7616.541 9186.293 3468.589 11649.416 3364.742 3428.535 3852.706 4855.403 3567.144 10634.977 2653.945 3510.460 7500.590 3750.214 3498.119 2398.405 3540.308 3946.063 2913.728 7623.200 3259.229 4394.798 2986.334 8047.473 2818.580 3495.244 5450.084 2945.331 5085.433 16280.521 10320.705 10479.634 3440.593 2055.720 3312.505 6011.914 3362.647 3496.673 12744.452 7452.313 4724.674 3781.417 2682.797 3044.459 12181.191 5627.491 3301.849 2589.864 19108.974 11147.127 5837.020 3828.935 3897.652 5335.177 6721.497 2930.266 4623.360 7447.587 4866.365 4465.626 12047.210 4690.181 1713.809 8192.254 4649.194 1842.452 3412.689 2203.695 7694.469 3461.780 12394.433 0.000 5352.071 4900.823 7001.312 8593.628 1017.605 2232.039 3374.179 2252.075 4150.856 5240.785 9065.587 4475.514 4484.497 3513.264 9702.030 3968.268 7519.869 11475.561 3950.018 7634.512 3133.349 8122.084 11788.794 2146.024 5029.571 4228.395 9470.684 2118.102 8008.246 2089.487 4143.538 4084.114 2134.251 4103.965 16350.268 9512.299 13783.452 4918.178 2518.217 3679.036 8289.261 2135.111 13200.934 2329.517 3645.344 3466.805 12404.990 10548.093 7773.393
2937.361 1323.200 2233.891 14596.542 2612.531 15947.178 3496.768 3234.599 2320.264 4611.382 2659.749 4096.854 2284.624 5447.841 1633.393 10744.177 2907.966 2446.967 17044.958 1436.368 2570.662 3796.356 4067.992 4074.019 4592.826 2894.707 2678.744 2820.351 2363.283 10407.977 2601.750 7413.606 2564.796 3353.539 2512.477 9295.398 2528.595 2389.747 16954.166 10404.299 3635.484 3553.957 11138.737 10341.055 4781.000 4148.212 3537.321 13127.991 6495.720 2902.192 2937.211 3288.496 4113.043 16546.943 3267.807 2886.330 2732.475 2732.955 4140.925 7838.729 2948.658 11501.525 13414.356 2866.988 4408.823 2335.550 13499.638 2391.909 2499.576 2064.978 3050.713 3794.248 10016.879 6437.043 2240.066 2599.733 3271.251 2456.799 6455.256 2675.195 1863.527 2518.006 11159.829 2449.567 957.273 2507.472 3270.003 2613.155 2337.972 98.013 3517.179 9247.786 17599.428 6610.676 5578.776 2252.314 5365.105 2523.191 7769.527 3097.163 2674.846 8329.001 2551.455 6796.577 3342.515 5094.529 2852.558 8695.013 1094.853 2431.314 6548.190 20959.195 16173.326 486.263 1876.392 2109.924 16.894 4922.684 3353.040 2938.973 2670.117 2370.262 3412.540 11485.732 2126.289 4286.223 4037.822 2085.302 3961.772 2419.071 3407.747 2793.611 2982.818 11776.335 5327.876 0.000 1421.168 2223.842 3692.770 5220.571 5499.768 3825.733 5015.779 3504.630 1354.946 4164.729 6017.579 7697.405 2324.985 7470.000 2723.741 2619.011 13325.783 2896.931 2733.654 2649.117 3245.376 11227.316 4198.155 4053.265 3666.917 13007.313 4242.337 3266.860 5553.101 3090.451 3031.028 3832.298 2766.946 17057.804 4611.441 13221.974 1352.977 3340.345 2530.947 3388.403 3572.491 12639.456 6471.271 2618.171 2313.159 13112.525 10688.500 7211.915
2736.066 308.137 1657.507 14279.894 2036.147 16450.915 2920.383 2618.324 1743.879 4034.998 1841.664 3520.469 1708.240 4871.456 1057.008 12143.478 2302.002 1774.008 17548.695 973.675 2107.969 3219.971 3491.607 4995.173 4016.441 2278.432 3599.898 2002.267 1786.899 10091.329 1985.474 6837.221 1988.411 2649.633 3947.422 10694.699 1855.636 1571.662 16377.781 9827.914 2759.531 2979.643 10562.352 10024.408 4464.352 5547.513 2719.236 12551.606 7895.022 3494.065 3858.365 4209.649 3547.014 15970.558 2651.532 2068.245 2116.200 1966.596 3564.541 7262.345 2382.629 10925.140 13097.708 4266.289 5664.555 1759.165 13182.990 2557.208 1826.617 1488.594 1905.222 3123.135 8928.008 5860.658 1663.681 3520.886 2654.976 1783.840 5878.871 1908.835 1400.834 1941.622 10583.445 1873.182 494.580 1931.088 4669.304 2036.770 1761.587 1532.957 2940.794 8671.401 17665.975 8009.977 6499.929 1675.929 4788.720 1942.647 7452.879 3238.358 2058.571 9728.303 3472.609 6479.929 2524.430 4689.182 2920.170 7487.823 934.123 1854.929 5971.805 20642.548 15596.941 1374.005 1413.698 1533.540 1418.051 5957.279 2776.655 3859.141 4069.419 3646.866 2594.455 10340.241 883.955 3720.194 3498.886 842.968 3395.743 1842.686 2833.433 3714.765 2366.542 10687.464 4751.491 1434.944 0.000 3623.143 4613.923 4654.542 4923.384 3249.348 4439.394 2359.139 547.418 5085.882 5700.931 7121.020 1748.600 8746.605 1905.657 3540.165 13009.135 2078.846 3654.808 2186.424 4166.529 10081.825 3621.770 3235.180 2521.426 12430.929 3665.953 4317.559 4976.716 2272.366 2212.943 3255.913 1948.862 17561.540 5532.594 12076.483 2646.857 2763.960 1712.862 4309.556 2996.106 11493.965 5894.886 1800.086 1736.774 13616.262 11265.419 6066.424
4701.233 4122.600 5033.291 15839.695 5411.931 16858.465 6296.168 6033.999 5119.664 7410.782 5459.149 6896.254 5084.025 8247.241 4432.793 8850.892 5707.366 5246.367 17956.245 4235.768 4896.369 6595.756 6867.392 3102.013 7258.985 5694.107 1935.056 5619.751 5162.683 11651.130 5401.150 10034.312 5364.196 6152.939 2194.375 7402.112 5327.996 5189.147 19125.501 13025.006 6434.884 6072.742 13759.443 11584.209 6060.794 2254.927 6336.721 15748.697 4517.066 3835.439 1219.011 1476.771 6136.126 18718.278 6067.207 5685.730 5531.875 5532.355 6940.325 10638.129 5432.652 14122.232 14657.509 821.299 2515.538 5134.950 14742.791 4155.781 5298.976 4864.378 5850.113 6593.648 10248.358 9079.233 5039.466 1909.687 6070.651 5256.199 8823.693 5474.595 4662.927 5317.406 13780.536 5248.967 3756.673 5306.873 1376.718 5412.555 5137.372 2737.864 6316.579 11745.988 18510.714 4632.022 4385.611 5051.714 8164.505 5322.591 9012.680 4861.035 5474.246 6350.348 1869.282 8039.730 6141.915 6858.402 4616.430 8926.492 3717.336 5230.714 9015.151 22202.349 18344.661 3069.239 4675.792 4909.324 2816.294 5833.971 6152.440 4154.451 1427.083 3083.314 6211.940 13780.771 4925.689 6210.073 4269.301 4884.702 5885.622 5218.471 5909.586 2049.922 5782.218 12007.814 7323.184 2799.400 4220.568 0.000 1881.045 7153.778 8299.168 6625.133 7815.179 6304.030 3977.428 2971.564 7297.373 10496.805 5124.385 7507.734 5523.141 1618.573 14568.936 5696.331 1616.199 4943.325 1340.551 13522.355 6997.555 6852.665 6466.317 15628.020 7041.737 1213.005 8246.823 5889.851 5830.428 6631.698 5566.346 17969.091 3418.276 15721.530 2706.789 6139.745 5330.347 1576.678 6371.891 15139.012 8486.853 5417.571 5112.559 14023.812 11599.786 10011.315
6023.385 4894.561 5938.232 17209.147 6316.872 18227.917 7201.109 6938.940 6024.605 8315.723 6240.085 7801.195 5988.965 9152.182 5337.734 9415.342 6612.307 6151.308 19325.696 5140.709 5967.646 7500.697 7772.333 2379.386 8297.167 6599.048 1523.488 6400.687 6067.624 13020.582 6306.090 11117.947 6269.137 7048.053 3563.826 7966.563 6232.936 5970.083 20447.653 14108.640 7157.951 7144.020 14843.078 12953.660 7430.246 2387.398 7117.657 16832.332 5038.618 5204.890 960.890 754.143 7458.278 20040.430 6972.148 6466.665 6436.816 6365.017 7845.266 11543.070 6503.929 15205.866 16026.961 1509.847 2209.050 6039.891 16112.243 5477.933 6203.917 5769.319 6303.642 7498.589 10233.041 10141.384 5944.407 1498.120 6975.592 6161.140 10145.844 6307.256 5567.868 6222.347 14864.170 6153.908 4661.614 6211.813 2004.579 6317.496 6042.313 3642.805 7221.520 12952.127 19880.166 5153.574 3662.984 5956.655 9069.446 6227.532 10382.132 6183.187 6379.187 6871.899 1457.715 9409.182 6922.851 8180.553 5938.582 8911.175 3955.280 6135.655 10252.531 23571.800 19666.813 3735.710 5580.732 5814.265 3721.235 7203.423 7057.381 5523.902 2255.260 4452.765 6992.876 13765.454 5282.376 7532.225 4253.984 5241.388 7207.774 6123.412 6980.863 1638.355 6687.159 11992.497 8645.336 3704.341 4687.525 1904.710 0.000 8475.930 9204.109 7530.074 8720.120 6757.559 4215.372 2248.937 8666.825 11401.746 6029.326 8029.286 6304.077 1330.118 15938.388 6477.267 1153.378 6014.602 1082.429 13507.038 7902.496 7633.601 6919.847 16711.654 7946.678 966.328 9257.442 6670.787 6611.363 7536.639 6347.282 19338.542 2695.648 15706.213 4074.931 7044.686 6111.283 854.051 7276.832 15123.695 9809.005 6198.507 6017.500 15393.263 12969.238 10464.844
2488.379 4690.249 3931.779 12386.186 3159.856 14879.509 2057.816 3623.721 3500.818 2997.369 3717.998 2931.952 3437.080 2087.819 3852.471 15257.988 3115.705 3391.304 15977.289 4195.251 3456.383 2631.454 1926.021 8711.218 1453.607 3126.549 7315.943 3783.598 3382.572 8197.621 3214.410 3787.136 3236.647 3742.662 5895.610 13809.208 3478.348 3686.940 12847.737 6777.830 3899.158 1962.105 7512.267 8130.700 2897.991 8662.023 3886.383 9501.521 10647.512 3994.624 7574.410 7925.694 1996.969 12440.513 3656.930 3823.663 3296.867 3508.229 1998.955 4632.033 2416.632 7875.055 11204.000 7352.881 8922.634 3378.749 11289.282 3101.083 3338.695 3762.866 4765.563 3477.304 10545.137 2832.056 3420.620 7236.931 3660.374 3408.279 2576.516 3450.468 3830.630 2823.888 7533.360 3169.389 4279.365 2896.493 7783.814 2728.740 3405.404 5322.725 2855.491 5498.811 15920.387 10057.045 10215.974 3350.753 1965.880 3222.665 5651.780 3098.987 3406.833 12480.793 7188.654 4364.540 3691.577 2322.663 2780.799 12065.757 5512.057 3212.008 2767.975 18748.840 12066.897 5710.975 3713.502 3807.812 5219.744 6457.838 2840.426 4359.700 7183.928 4602.706 4375.786 11957.370 4574.747 1353.675 8076.820 4533.760 1482.318 3322.849 1940.035 7430.810 3371.940 12304.593 952.545 5236.637 4785.389 6737.652 8329.968 0.000 2142.199 3284.339 2162.235 4061.016 5125.352 8801.928 4134.570 4394.657 3423.424 9438.371 3878.428 7256.210 11115.427 3860.178 7370.853 2869.689 7858.425 11698.954 2056.184 4939.731 4138.555 9380.844 2028.262 7744.587 1999.647 4053.698 3994.274 2044.411 4014.125 15990.135 9248.639 13693.612 4654.518 2428.377 3589.196 8025.601 2045.271 13111.094 2239.677 3555.504 3376.965 12044.856 10187.959 7683.553
3891.790 4952.197 3885.305 13886.071 3107.350 16379.394 2011.342 3571.216 3454.344 1590.716 3665.492 2389.937 3390.606 240.322 4114.420 16183.029 3063.200 3338.798 17477.174 4457.200 4106.584 2089.440 1473.739 9512.871 1239.806 3074.044 8117.596 3731.093 3330.067 9697.506 3161.904 1987.699 3184.142 3690.156 7299.021 14734.249 3425.843 3634.434 11528.259 4978.392 3357.144 2566.304 5712.830 9630.585 4378.686 9587.064 3344.369 7702.084 11934.572 5398.035 8376.063 8727.348 3461.348 11121.036 3604.424 3771.157 3244.362 3455.724 1508.445 2832.596 3234.724 6075.618 12703.885 8305.840 9847.675 3332.275 12789.167 4504.493 3286.189 3716.392 4223.548 2935.290 10003.123 1011.136 3374.146 8038.585 3607.868 3355.773 1186.922 3397.963 4092.579 2777.414 5733.923 3122.915 4541.313 2850.019 8708.855 2682.266 3358.929 5596.599 2351.766 3821.879 17420.272 11460.456 11017.628 3304.279 254.901 3170.159 7151.665 4502.398 3354.327 13767.853 7990.307 5864.425 3149.563 3822.548 4184.210 11870.287 5732.539 3165.534 1122.283 19175.085 10747.419 5983.535 3975.450 3761.338 5481.693 7861.249 2416.941 5763.111 8108.969 6006.117 3861.822 11415.356 4795.229 2853.560 7881.349 4754.241 2982.203 3276.375 2779.680 8232.463 3319.435 11762.579 1850.488 5498.586 5005.871 7662.693 9131.622 2242.110 0.000 2742.324 483.990 3519.002 5345.833 9603.581 5615.266 2595.220 3376.950 10841.782 3825.922 8057.863 12615.312 3767.462 8172.506 3689.288 8684.228 11156.940 1305.429 4397.717 3596.541 7581.407 1261.246 8705.712 259.401 3562.561 3901.559 1773.833 3961.620 17490.020 10050.293 13151.597 5975.034 2381.903 3536.691 8827.255 1958.330 12569.080 1387.400 3502.998 3330.491 13544.741 11687.844 7141.538
3442.834 3188.023 2510.386 14182.060 1469.903 16527.263 1675.563 1351.141 2079.425 1860.631 2028.045 1184.344 2015.687 2885.355 2910.477 15049.674 1425.753 1701.351 17625.042 3264.111 3195.892 883.846 1874.226 7972.805 2388.849 1436.597 6577.530 1694.815 1692.620 9993.495 1524.457 4844.131 1546.694 1232.200 6440.518 13600.895 1683.193 1818.203 14384.691 7834.825 864.243 2482.810 8569.262 9926.573 4366.518 8453.709 851.467 10558.516 10801.218 4581.988 6835.997 7187.281 3449.180 13977.468 1317.932 1378.352 1606.914 1594.354 1947.160 5087.978 2402.536 8932.050 12999.874 7172.485 8642.187 2421.583 13085.156 3645.131 1648.742 2341.473 1730.647 216.847 7510.222 3867.568 1999.227 6498.518 1321.376 1718.326 3892.769 1536.594 3181.887 1866.722 8590.355 2180.630 3348.225 1939.327 7575.500 1771.574 2097.133 4403.511 825.245 6678.311 17568.141 10644.409 9477.562 1917.426 2802.619 1532.712 7355.045 3945.126 1492.958 12634.499 6450.241 6382.095 656.662 4407.211 3626.938 9377.385 3911.756 2162.377 3978.715 20544.714 13603.851 4351.638 3064.759 2386.419 4288.604 7045.202 684.257 4947.064 6975.615 5147.615 1368.921 8922.454 3088.664 3438.223 5388.448 3047.676 3198.676 2150.134 2336.600 6692.397 1679.762 9269.677 3480.227 4305.497 3185.088 6529.339 7591.555 3455.447 2937.282 0.000 2453.292 1026.101 3525.050 8063.515 5603.097 4946.653 1823.334 10025.734 1656.859 6517.797 12911.301 1274.561 6632.440 2778.596 7144.162 8664.038 1817.022 1904.815 1103.640 10437.839 1814.194 7295.191 2990.615 1069.660 1408.657 1650.619 1700.064 17637.888 8510.226 10658.696 5064.342 1852.347 1899.243 7287.188 1751.286 10076.178 4053.414 1641.629 2419.799 13692.610 11840.731 4648.637
3752.110 4468.208 3401.315 13746.391 2623.361 16239.714 1527.352 3087.226 2970.354 1301.892 3181.503 1905.948 2906.616 432.063 3630.430 15699.039 2579.210 2854.809 17337.493 3973.210 3622.594 1605.450 989.750 9028.882 967.755 2590.054 7633.607 3247.103 2846.077 9557.826 2677.915 2397.827 2700.152 3206.167 6867.221 14250.260 2941.853 3150.444 11938.387 5388.521 2873.155 2227.475 6122.958 9490.904 4239.006 9103.074 2860.379 8112.212 11450.582 5008.690 7892.074 8243.358 3321.668 11531.164 3120.435 3287.168 2760.372 2971.734 1024.455 3242.724 2760.920 6485.746 12564.205 7821.850 9363.685 2848.286 12649.487 4071.833 2802.200 3232.402 3739.559 2451.300 9519.133 1421.264 2890.156 7554.595 3123.879 2871.784 1497.986 2913.973 3608.589 2293.424 6144.051 2638.925 4057.324 2366.030 8224.865 2198.276 2874.940 5112.610 1867.776 4232.007 17280.592 11071.111 10533.638 2820.289 407.835 2686.170 7011.985 4362.718 2870.338 13283.864 7506.318 5724.745 2665.573 3682.868 4044.530 11386.297 5248.549 2681.545 1532.411 19585.213 11157.547 5499.545 3491.461 3277.348 4997.703 7471.904 1932.952 5373.766 7624.980 5574.317 3377.833 10931.366 4311.239 2713.879 7397.360 4270.252 2842.523 2792.385 2440.851 7748.474 2835.445 11278.589 1869.368 5014.597 4521.881 7178.704 8647.632 2102.430 483.990 2258.335 0.000 3035.012 4861.844 9119.592 5475.585 3005.348 2892.960 10452.437 3341.933 7573.874 12475.632 3283.473 7688.517 3205.298 8200.238 10672.950 821.439 3913.727 3112.551 7991.535 777.256 8221.722 595.831 3078.572 3417.569 1289.843 3477.630 17350.339 9566.303 12667.608 5491.044 1897.913 3052.701 8343.265 1474.340 12085.090 1658.631 3019.009 2846.501 13405.061 11548.164 6657.549
3438.674 2431.790 2276.321 14747.297 1548.162 17092.499 2269.416 1053.606 1845.360 2496.783 1754.534 1820.496 1781.622 3521.507 2154.244 14364.877 1645.181 1474.429 18190.279 2630.010 3159.432 1519.998 2510.378 7216.572 3025.001 1621.610 5821.297 1282.672 1506.986 10558.731 1387.846 5480.283 1500.426 934.666 6183.874 12916.098 1385.658 1520.668 15020.843 8470.977 400.392 3048.047 9205.414 10491.810 4931.754 7768.912 553.933 11194.668 10116.421 4545.528 6079.764 6431.048 4014.416 14613.620 1020.398 1080.817 1436.362 1296.820 2583.312 5724.130 2909.295 9568.202 13565.110 6487.688 7885.954 2305.641 13650.393 3608.671 1427.377 2107.408 704.546 1013.966 6568.870 4503.720 1765.163 5742.285 1023.842 1457.454 4528.921 1239.059 2863.171 2015.004 9226.507 1946.565 2714.124 2004.470 6890.703 2110.152 1863.069 3769.410 1461.397 7314.463 18133.377 10231.376 8462.654 1683.361 3438.771 1403.595 7920.281 3940.966 1195.423 11949.702 5694.008 6947.332 809.463 5001.064 3622.778 8351.285 3155.523 1928.312 4614.867 21109.950 14240.003 3595.404 2436.097 2152.354 3654.503 7008.742 1320.409 4910.604 6290.818 5111.155 1071.387 7981.102 2332.431 4032.076 4362.347 2291.443 3763.912 1916.069 2901.837 5936.164 1382.227 8328.325 4116.379 3671.397 2428.855 5844.542 6835.322 4091.599 3573.434 1260.610 3089.444 0.000 2768.817 7307.282 6168.334 5582.805 1589.269 9989.275 1244.716 5761.564 13476.538 977.026 5876.207 2774.436 6387.928 7722.686 2453.174 1607.281 162.288 11073.991 2450.346 6538.958 3626.767 772.125 1111.123 2286.771 1287.921 18203.125 7740.922 9717.344 4807.110 2417.583 1625.733 6530.955 2345.138 9134.826 4689.566 1344.094 2303.856 14257.846 12316.883 3707.285
3182.684 754.755 1938.412 14617.116 2295.983 16897.533 3184.852 2876.938 2024.785 4299.466 2100.279 3784.937 1989.145 5135.925 1495.275 11703.784 2560.617 2032.622 17995.312 1420.293 2554.587 3484.439 3756.075 4555.478 4297.347 2537.046 3160.203 2260.881 2046.735 10428.550 2244.088 7101.689 2248.248 2908.247 3530.181 10255.004 2114.250 1830.276 16642.249 10092.383 3018.145 3298.607 10826.820 10361.629 4801.573 5107.819 2977.850 12816.074 7455.327 3919.896 3418.670 3769.954 3884.235 16235.026 2910.146 2326.859 2374.814 2225.210 3829.009 7526.813 2719.850 11189.608 13434.929 3826.594 5224.860 2096.386 13520.211 3003.826 2085.231 1769.499 2163.836 3381.749 9186.622 6125.126 1944.587 3081.191 2913.590 2042.454 6143.339 2167.450 1847.452 2222.527 10847.913 2154.088 941.197 2211.993 4229.610 2317.676 2042.493 1120.882 3205.262 8935.869 18003.196 7570.282 6060.235 1956.835 5053.189 2201.261 7790.100 3684.976 2317.185 9288.608 3032.914 6817.150 2783.044 5026.403 3366.788 7746.438 494.429 2135.835 6236.273 20979.769 15861.409 934.311 1860.316 1814.445 1199.311 5940.388 3041.123 3956.677 3629.724 3387.965 2853.069 10598.855 1142.569 4057.415 3757.500 1101.582 3732.964 2123.592 3152.397 3275.070 2625.157 10946.078 5032.397 1182.418 547.718 3183.448 4174.228 4991.763 5187.852 3513.816 4703.862 2617.753 0.000 4646.188 6038.153 7385.488 2008.437 8487.704 2164.271 3100.470 13346.356 2337.460 3215.113 2584.991 3726.835 10340.439 3886.238 3493.794 2780.040 12695.397 3930.421 3877.864 5241.184 2530.980 2471.557 3520.382 2207.476 18008.158 5092.899 12335.097 2370.681 3044.866 1971.477 3869.861 3260.574 11752.579 6175.792 2058.700 2073.995 14062.880 11706.203 6325.038
6550.137 5295.921 6479.579 18154.673 6837.149 19173.442 7726.018 7418.104 6565.951 8840.632 6641.445 8326.103 6530.312 9677.091 6030.398 7408.903 7101.783 6573.788 20271.222 5833.374 6716.127 8025.606 8297.241 130.449 8838.513 7078.212 2125.788 6802.047 6587.902 13966.108 6785.255 11642.855 6789.414 7449.413 4602.946 6270.748 6655.417 6371.443 20974.405 14633.549 7559.311 7839.773 15367.986 13899.186 8375.772 2723.424 7519.016 17357.240 5566.323 6150.416 1967.526 1473.545 7985.030 20567.182 7451.312 6868.025 6915.980 6766.376 8370.175 12067.979 7252.410 15730.775 16972.487 2583.960 2545.076 6637.553 17057.769 6004.686 6626.397 6310.665 6705.002 7922.915 10634.401 10666.292 6485.753 2046.776 7454.756 6583.620 10672.597 6708.616 6260.533 6763.693 15389.079 6695.254 5354.278 6753.160 2340.606 6858.842 6583.659 4335.469 7746.428 13477.035 20825.692 5681.278 1414.047 6498.001 9594.355 6742.427 11327.658 6709.940 6858.351 7399.604 1998.499 10354.708 7324.211 8707.306 6465.335 7343.514 4356.639 6677.001 10777.439 24517.326 20193.565 4137.070 6273.397 6355.611 4413.899 8148.948 7582.290 6302.880 3063.757 5491.885 7394.235 14166.814 5683.735 8058.977 4650.857 5642.748 7734.526 6664.758 7693.563 2122.827 7166.323 12393.856 9172.088 4397.006 5088.884 2943.830 2256.572 9002.682 9729.018 8054.983 9245.028 7158.919 4616.732 0.000 9612.351 11926.654 6549.603 8556.991 6705.437 2106.971 16883.914 6878.627 1913.829 6775.383 2089.066 13908.397 8427.404 8034.961 7321.206 17236.563 8471.587 2240.096 9782.351 7072.146 7012.723 8061.548 6748.642 20284.068 446.712 16107.573 4515.920 7586.032 6512.643 1348.282 7801.740 15525.055 10335.758 6599.866 6615.161 16338.789 13864.806 10866.204
3158.441 5769.797 5084.005 9265.511 4852.866 11323.475 4258.104 5316.732 4917.646 5739.250 5281.786 5612.150 4853.908 5477.287 4932.020 15217.901 4808.716 4962.235 12421.254 5274.800 4409.373 5311.652 5096.206 9192.477 4821.020 4819.560 7797.201 5395.326 4878.551 5076.945 4907.420 7176.605 4929.657 5435.672 5584.123 13769.121 5043.863 5286.583 15361.801 10167.298 5803.442 3688.160 10901.736 5010.024 1475.894 8785.891 5790.667 12890.990 8267.898 4060.186 7749.975 8007.735 2426.418 15860.570 5349.940 5435.390 4989.877 5201.240 5169.140 8021.502 3638.810 11264.524 8083.324 7352.264 9046.502 4595.312 8168.606 3739.379 5014.844 4915.091 6349.340 5623.299 12449.421 6221.525 4837.448 7718.190 5353.384 4972.067 5965.985 5143.479 4910.178 4240.716 10922.829 4586.217 5358.913 4313.322 7907.682 4145.568 4621.966 5961.022 5055.779 8888.280 12651.591 7677.432 10697.233 4767.582 5355.349 4915.675 2438.495 3203.327 5099.843 10101.180 7669.913 1465.545 5595.861 2782.390 3450.861 13145.306 6591.606 4628.837 6157.444 15628.164 15486.953 6349.272 4793.050 4960.038 6039.452 2835.688 4957.641 4379.198 7665.187 4291.219 5987.514 13861.654 5654.296 3160.879 9156.369 5613.309 2859.331 4739.678 3316.454 7912.068 5064.951 14208.877 4384.808 6022.558 5864.938 7134.372 8412.009 4139.175 5531.667 5430.334 5551.704 5965.300 6204.900 9283.186 0.000 7784.126 4840.252 7058.758 5490.155 7737.468 7994.751 5471.905 7852.111 3822.680 7871.515 13603.238 5226.369 6628.239 6042.839 12770.312 5270.552 7743.969 5389.116 5665.425 5606.002 4960.166 5625.853 12434.100 9729.898 15597.896 5292.815 4620.567 5152.984 8107.642 4245.559 15015.378 5629.145 5167.231 4593.528 8488.822 6546.854 9587.837
5986.967 7130.307 6248.243 15981.249 5207.760 18474.571 4559.697 5671.626 5817.282 3086.540 5765.902 4395.110 5753.544 2788.678 6652.847 18731.384 5163.610 5439.208 19572.351 7001.968 6654.939 4094.613 4022.094 11915.089 3788.161 5174.454 10519.814 5831.502 5430.477 11792.683 5262.314 1700.829 5284.551 5730.274 9394.198 17282.605 5526.252 5734.844 12774.336 4032.344 5362.317 5114.660 4766.782 11725.762 6473.864 12135.419 5349.542 6756.036 14146.099 7493.212 10778.281 11129.565 5556.525 12367.113 5704.834 5871.567 5344.771 5556.133 4056.800 319.665 5783.079 5129.570 14799.062 10851.469 12396.030 5880.630 14884.344 6599.670 5386.599 6079.330 6228.721 4940.463 12008.296 2266.132 5737.084 10440.802 5708.278 5456.183 2654.417 5498.373 6640.934 5325.769 4787.875 5671.270 7086.082 5398.375 11257.210 5230.621 5834.990 8141.368 4356.939 3966.040 19515.449 13555.633 13419.845 5655.283 2803.256 5270.569 9246.842 6597.575 5454.737 15979.381 10392.525 7959.602 5154.736 5917.725 6279.387 13875.460 7854.040 5713.890 2377.279 20421.162 11993.496 8293.921 6523.806 6124.276 8026.461 9956.426 4422.114 7858.288 10657.325 8101.294 5866.995 13420.529 6916.730 4948.737 9886.522 6875.742 5077.380 5824.730 5328.035 10634.681 5419.845 13767.752 3842.280 8043.354 7127.372 10211.049 11533.839 4337.287 2622.217 4747.497 3032.345 5524.175 7467.334 12005.799 7710.443 0.000 5561.191 12936.959 5926.332 10460.081 14710.489 5772.635 10574.724 6237.643 11086.445 13162.113 3853.784 6402.890 5601.714 6635.359 3809.601 11237.475 2645.031 5567.734 5906.732 4185.962 6062.029 19585.197 12452.510 14420.270 8153.106 4930.258 5637.100 11229.472 4506.685 13837.752 3141.980 5603.408 5878.846 15639.918 13783.021 9146.711
1849.405 1669.498 687.053 13201.065 287.546 15546.268 1207.217 909.614 256.092 2321.831 441.534 1807.302 192.354 3158.290 1091.657 13226.341 582.982 121.982 16644.047 1440.778 1602.463 1506.804 1778.440 6454.279 2363.438 569.722 5059.004 555.073 38.299 9012.500 276.765 5124.054 239.811 1028.554 4847.090 11777.561 203.611 446.331 14664.614 8114.748 1370.205 1501.815 8849.185 8945.578 3385.523 6630.376 1272.043 10838.439 8977.884 2988.559 5317.471 5668.755 2468.185 14257.391 942.822 595.138 407.490 407.970 1851.374 5549.178 1320.026 9211.973 12018.879 5349.152 6890.987 716.372 12104.161 2051.702 174.591 518.139 1863.492 1469.263 8171.896 4147.491 175.894 4979.992 946.266 131.815 4165.704 350.210 1588.458 425.735 8870.278 357.296 1524.891 415.202 5752.167 520.884 273.800 2580.177 1227.627 6958.234 16587.146 9050.980 7959.036 94.093 3075.554 198.206 6374.050 2351.697 349.861 10811.165 4931.715 5401.100 1077.237 3511.120 2033.509 8946.930 2393.230 339.043 4258.638 19563.719 13883.774 2833.112 1246.864 563.086 2465.270 5451.773 1063.488 3353.635 5152.281 3554.186 1147.262 9584.128 1455.920 2542.132 4957.993 1414.933 2217.681 326.800 1355.605 5173.871 657.833 9931.351 3235.605 2482.164 1666.562 4706.005 6073.030 3210.825 3210.217 1536.181 2726.227 1687.775 2006.524 6544.989 4622.102 5407.853 0.000 8432.306 649.903 4999.271 11930.306 631.653 5113.914 1185.167 5625.636 9325.712 1908.603 1787.987 1765.314 10717.762 1952.786 5749.024 3263.549 825.173 765.749 1542.747 785.600 16656.893 6991.701 11320.370 3470.913 1248.074 312.732 5768.663 1282.939 10737.852 4264.894 326.979 714.588 12711.615 10759.913 5310.311
6987.695 8589.202 8761.411 13317.037 9140.051 11655.912 9229.961 9682.171 8847.783 10355.962 9294.038 10066.894 8812.144 10621.457 8609.426 12530.017 9174.155 8974.486 12753.692 8312.239 7483.644 9766.396 9812.572 8652.844 9846.260 9184.999 8328.674 9407.577 8890.803 10644.509 9129.269 12320.775 9092.315 9801.112 6419.642 11081.237 9056.115 9298.835 19418.102 15311.468 10168.882 8660.017 16045.906 10577.588 7743.456 7266.791 10124.547 18035.159 4651.600 5485.114 7480.596 7560.734 8287.895 20578.487 9715.380 9447.642 9259.994 9260.474 9885.505 13165.672 8019.927 16408.694 13272.794 7343.304 7527.402 8272.718 13358.076 6466.968 9027.096 8592.498 10026.746 9988.739 16322.996 11365.695 8767.585 8303.305 9718.824 8984.319 11110.155 9202.714 8243.831 8593.744 16066.998 8939.245 8209.498 8666.349 6200.974 8498.596 8299.372 7427.562 9487.219 14032.450 14005.381 3584.176 9936.442 8779.833 10499.518 9050.710 7953.890 6766.836 9202.365 6199.720 8262.900 7331.268 9929.741 8673.510 6902.892 15001.130 8469.304 8958.833 11301.613 20817.634 20562.345 7815.812 8128.585 8637.444 7505.992 4496.251 9323.080 5804.126 8182.700 5298.180 9999.766 18227.093 9331.702 8496.535 10343.939 9290.715 8172.084 8946.590 8449.510 8443.541 9430.390 18082.452 9609.646 7489.098 8687.169 7485.479 8089.017 9440.240 10675.837 9795.773 10695.874 10330.739 8729.397 8522.395 7001.507 12928.295 8852.504 0.000 9502.407 8012.191 13184.221 9484.157 8009.817 7383.329 7602.136 17968.677 9942.735 10640.491 10408.278 17914.482 9986.917 6993.352 10533.285 9677.677 9618.254 9576.878 9638.104 12766.538 8969.106 19963.335 6447.954 8995.268 9165.236 7435.471 9217.416 19380.817 10773.315 9179.483 8270.934 10446.405 6099.115 13953.276
2907.774 1696.182 1596.957 14275.660 1357.472 16620.863 2078.726 862.917 1422.114 2700.296 1118.839 2024.008 1358.376 3725.020 1418.635 13629.269 1454.491 1051.182 17718.642 1894.402 2423.823 1723.511 2649.950 6480.963 3228.514 1430.921 5085.688 96.610 1204.320 10087.095 1197.157 5683.796 1309.737 743.976 5448.265 12180.489 1132.811 848.837 15224.356 8674.489 911.742 2667.837 9408.927 10020.173 4460.118 7033.304 813.580 11398.181 9380.812 3809.919 5344.155 5695.439 3542.779 14817.133 829.708 890.128 1245.672 1106.130 2722.884 5927.643 2378.395 9771.715 13093.474 5752.079 7150.345 1754.931 13178.756 2873.063 1103.791 1428.044 1425.433 1217.479 7713.433 4707.233 1341.916 5006.676 833.152 1061.014 4732.434 1048.370 2127.562 1591.757 9430.020 1523.318 1978.515 1581.224 6155.095 1686.906 1439.822 3033.801 1664.910 7517.976 17661.740 9495.767 7985.720 1260.115 3642.284 1212.905 7448.645 3410.066 1004.734 11214.093 4958.399 6475.695 618.774 4677.142 3091.878 8973.614 2419.914 1505.065 4818.380 20638.313 14443.516 2859.796 1700.488 1472.990 2918.894 6273.133 1523.922 4174.996 5555.209 4375.546 688.798 9125.665 1596.822 3708.154 4984.677 1555.835 3383.703 1492.822 2521.627 5200.555 1191.538 9472.888 4153.863 2935.788 1693.246 5108.933 6099.713 4129.082 3776.947 1464.122 3292.957 1229.311 2033.208 6571.673 5696.697 5786.318 1166.022 9253.666 0.000 5025.955 13004.901 173.190 5140.598 2243.536 5652.320 8867.249 2656.687 1329.524 1306.850 11277.504 2653.859 5803.349 3830.279 366.710 307.286 2414.256 135.697 17731.488 7018.384 10861.907 4071.502 2226.894 990.037 5795.346 2154.449 10279.389 4893.079 1077.260 1732.540 13786.210 11581.274 4851.848
4998.011 3743.795 4927.452 16602.547 5285.023 17621.316 6173.892 5865.978 5013.825 7288.506 5089.318 6773.977 4978.185 8124.965 4370.266 9532.158 5549.657 5021.662 18719.096 4173.241 5000.179 6473.479 6745.115 2032.545 7286.387 5526.086 514.848 5249.921 5035.775 12413.981 5233.128 10090.729 5237.288 5897.287 3452.668 8144.179 5103.290 4819.316 19422.279 13081.423 6007.185 6176.552 13815.860 12347.060 6823.645 2565.015 5966.890 15805.114 5391.849 4598.290 894.234 931.760 6432.904 19015.056 5899.186 5315.899 5363.854 5214.250 6818.049 10515.853 5536.461 14178.648 15420.360 1433.682 2386.667 5072.423 15505.642 4452.560 5074.271 4758.539 5152.876 6370.789 9082.274 9114.166 4933.627 489.479 5902.630 5031.494 9120.471 5156.489 4600.400 5211.567 13836.953 5143.128 3694.146 5201.033 2182.196 5306.715 5031.533 2675.337 6194.302 11924.909 19273.565 5506.805 3537.302 4945.875 8042.229 5190.301 9775.531 5157.813 5306.225 7225.131 449.074 8802.581 5772.084 7155.180 4913.209 7760.408 2804.513 5124.875 9225.313 22965.200 18641.439 2584.943 4613.265 4803.485 2753.767 6596.822 6030.163 4750.754 1204.852 4051.255 5842.109 12614.687 4131.609 6506.851 3103.218 4090.622 6182.400 5112.632 6013.395 629.715 5614.197 10841.730 7619.962 2736.873 3536.758 1793.552 1336.035 7450.556 8176.892 6502.856 7692.902 5606.793 3064.606 2123.255 8060.225 10374.528 4997.477 8382.517 5153.311 0.000 15331.787 5326.500 202.708 5047.134 1168.529 12356.271 6875.278 6482.834 5769.080 15684.437 6919.461 1319.559 8230.224 5520.020 5460.597 6509.422 5196.516 18731.942 2569.967 14555.446 2963.794 6033.906 4960.516 1031.667 6249.614 13972.929 8783.631 5047.740 5050.032 14786.663 12362.638 9314.078
10725.309 13336.665 12650.872 2022.534 12419.734 8053.333 11824.971 12883.599 12484.514 13306.117 12848.653 13179.017 12420.776 12514.786 12498.887 22177.698 12375.583 12529.102 9101.061 12841.667 11976.241 12878.519 12352.988 16759.344 11880.574 12386.427 15364.069 12962.193 12445.418 4408.829 12474.288 14214.103 12496.525 13002.540 13150.991 20728.918 12610.731 12853.450 10820.165 17204.796 13370.310 11255.028 17939.234 4443.966 9042.762 16352.758 13357.534 19928.488 15224.436 11627.054 15316.843 15574.603 9993.286 11980.549 12916.808 13002.258 12556.745 12768.107 12425.922 15059.000 11205.678 18302.022 412.644 14919.131 16613.369 12162.179 497.926 11306.247 12581.711 12481.959 13916.208 13190.167 20016.289 13259.023 12404.316 15285.057 12920.252 12538.934 13003.483 12710.346 12477.046 11807.584 17960.327 12153.085 12925.781 11880.189 15474.549 11712.436 12188.834 13527.889 12622.647 15925.778 8189.218 14157.012 18264.101 12334.449 12392.847 12482.543 6403.058 10770.195 12666.711 16772.555 15236.780 6938.069 13162.729 9224.202 11017.729 20712.173 14158.474 12195.704 13194.942 7735.606 12338.500 13916.139 12359.918 12526.905 13606.319 9795.485 12524.508 11946.066 15232.054 11858.087 13554.381 21428.521 13221.164 10336.607 16723.236 13180.176 10334.420 12306.545 10883.322 15478.936 12631.818 21775.744 11387.359 13589.425 13431.806 14701.239 15978.877 11141.727 12569.165 12997.201 12589.202 13532.168 13771.768 16850.054 7897.517 14821.624 12407.120 12647.767 13057.023 15304.336 0.000 13038.773 15418.979 11389.547 15438.383 21170.105 12483.151 14195.107 13609.707 19807.811 12455.229 15310.837 12426.614 13232.293 13172.869 12471.378 13192.720 9113.907 17296.766 23164.763 12859.682 12187.434 12719.852 15674.510 11812.426 22582.245 12666.644 12734.099 12160.395 6574.389 7904.844 17154.704
3074.795 2334.711 1912.442 14383.418 1184.283 16728.620 1905.537 689.727 1481.481 2527.106 1390.655 1850.819 1417.743 3551.830 2057.164 14267.798 1281.302 1110.550 17826.400 2532.931 2827.852 1550.321 2476.760 7119.492 3055.324 1257.731 5724.217 841.503 1143.107 10194.852 1023.967 5510.606 1136.547 570.786 6072.479 12819.019 1021.779 1156.789 15051.166 8501.300 738.552 2684.168 9235.737 10127.931 4567.875 7671.833 640.390 11224.991 10019.341 4213.948 5982.684 6333.968 3650.537 14643.943 656.518 716.938 1072.482 932.941 2549.694 5754.453 2545.416 9598.525 13201.231 6390.609 7788.875 1941.761 13286.513 3277.092 1063.498 1743.529 1276.523 1044.289 7540.243 4534.043 1401.284 5645.205 659.962 1093.575 4559.244 875.180 2766.092 1651.125 9256.830 1582.686 2617.044 1640.591 6793.624 1746.273 1499.189 3672.330 1491.720 7344.786 17769.498 10134.297 8624.249 1319.482 3469.094 1039.715 7556.402 3577.087 831.544 11852.622 5596.928 6583.452 445.584 4637.185 3258.899 9036.865 3058.443 1564.433 4645.190 20746.071 14270.326 3498.325 2339.017 1788.475 3557.424 6677.162 1350.732 4579.025 6193.738 4779.575 515.609 8952.475 2235.351 3668.197 5047.928 2194.364 3400.033 1552.190 2537.958 5839.084 1018.348 9299.698 3980.673 3574.317 2331.775 5747.463 6738.243 3955.892 3603.757 1290.933 3119.767 1056.122 2671.737 7210.202 5804.454 5613.128 1225.390 9657.695 803.547 5664.484 13112.658 0.000 5779.127 2410.556 6290.849 8694.059 2483.497 1156.334 1133.661 11104.314 2480.669 6441.879 3657.090 193.520 134.096 2241.067 846.752 17839.246 7656.914 10688.717 4696.302 2053.704 1261.853 6433.876 1981.259 10106.199 4719.889 980.215 1939.977 13893.967 11985.303 4678.658
5112.654 3858.438 5042.095 16717.190 5399.666 17735.959 6288.535 5980.621 5128.468 7403.149 5203.961 6888.620 5092.828 8239.608 4484.909 9339.015 5664.299 5136.305 18833.739 4287.884 5114.822 6588.122 6859.758 1839.403 7401.030 5640.729 380.737 5364.564 5150.418 12528.624 5347.771 10205.372 5351.931 6011.930 3505.669 7967.439 5217.933 4933.959 19536.922 13196.066 6121.828 6291.195 13930.503 12461.703 6938.288 2388.275 6081.533 15919.757 5215.109 4712.933 870.249 755.020 6547.547 19129.699 6013.829 5430.542 5478.497 5328.893 6932.692 10630.496 5651.104 14293.291 15535.003 1486.683 2209.926 5187.066 15620.285 4567.203 5188.914 4873.182 5267.519 6485.432 9196.917 9228.809 5048.270 355.368 6017.273 5146.137 9235.114 5271.132 4715.043 5326.210 13951.596 5257.771 3808.789 5315.676 2005.456 5421.358 5146.176 2789.980 6308.945 12039.552 19388.208 5330.065 3344.159 5060.518 8156.872 5304.944 9890.174 5272.456 5420.868 7048.390 314.963 8917.224 5886.727 7269.823 5027.852 7875.051 2919.156 5239.518 9339.956 23079.843 18756.082 2699.586 4727.908 4918.128 2868.410 6711.465 6144.806 4865.397 1319.495 4165.898 5956.752 12729.330 4246.252 6621.494 3217.860 4205.265 6297.043 5227.275 6128.038 495.604 5728.839 10956.373 7734.605 2851.516 3651.401 1846.553 1159.294 7565.199 8291.535 6617.499 7807.545 5721.436 3179.249 1930.112 8174.868 10489.171 5112.120 8205.777 5267.954 202.708 15446.430 5441.143 0.000 5161.777 991.789 12470.914 6989.921 6597.477 5883.723 15799.080 7034.104 1142.818 8344.867 5634.663 5575.240 6624.065 5311.159 18846.585 2376.824 14670.089 3078.437 6148.549 5075.159 854.927 6364.257 14087.572 8898.274 5162.383 5164.675 14901.306 12477.280 9428.721
664.238 2066.906 1578.003 12395.746 1956.643 14740.948 1934.207 2498.763 1664.375 3172.554 2110.630 2883.486 1628.736 3657.350 1426.018 13107.245 1990.747 1791.079 15838.728 1578.929 586.693 2582.988 2629.164 6437.088 2550.506 2001.591 5041.813 2224.170 1707.395 8207.181 1945.861 5704.149 1908.907 2617.704 3860.760 11658.466 1872.707 2115.427 14849.768 8694.843 2985.474 1364.263 9429.280 8140.259 2580.204 6511.280 2941.139 11418.534 8623.233 1970.346 5300.280 5651.564 1860.393 14442.545 2531.972 2264.234 2076.587 2077.067 2702.097 6399.901 724.173 9792.069 11213.560 5230.056 6771.891 1089.310 11298.842 1033.489 1843.688 1409.090 2843.338 2805.331 9631.453 4727.586 1584.177 4962.801 2535.416 1800.911 4547.960 2019.306 1404.176 1410.336 9450.373 1755.837 1656.022 1482.942 5633.071 1315.188 1115.964 2694.835 2303.811 7470.255 15781.826 8032.767 7941.844 1596.425 3535.411 1867.302 5568.731 1166.530 2018.957 10456.515 4914.524 4595.781 2746.333 2893.733 848.342 9551.597 2997.897 1775.425 4739.418 18758.399 14068.928 3083.085 1287.048 1454.036 2596.401 4433.560 2139.672 2335.422 5033.186 2567.856 2816.358 11043.685 2148.294 1934.340 5562.659 2107.307 1609.889 1763.182 1201.107 5156.680 2246.982 11390.908 3047.451 2613.295 2164.874 4586.910 6055.838 2878.045 3790.312 2612.365 3514.446 3147.332 2611.191 6527.798 3816.783 6258.577 1669.096 7414.093 2318.999 4982.080 11124.987 2300.749 5096.723 0.000 5608.444 10785.269 2759.327 3457.083 3224.871 11297.857 2803.509 5629.928 3723.407 2494.269 2434.846 2393.470 2454.697 15851.574 6974.509 12779.927 2599.820 1811.860 1981.828 5751.471 1921.662 12197.409 4211.120 1996.075 1087.526 11906.295 9693.392 6769.868
5141.815 4145.972 5056.663 16360.061 5435.303 17378.831 6319.540 6057.370 5143.035 7434.154 5482.521 6919.625 5107.396 8270.613 4456.164 9076.174 5730.738 5269.739 18476.610 4259.140 5086.077 6619.127 6890.763 2608.020 7415.598 5717.479 1365.146 5643.123 5186.055 12171.496 5424.521 10236.377 5387.568 6176.311 2714.740 7627.395 5351.367 5212.519 19566.083 13227.071 6458.255 6262.450 13961.508 12104.574 6581.160 2480.210 6360.092 15950.762 4827.718 4355.804 725.018 982.778 6576.708 19158.860 6090.579 5709.101 5555.247 5555.727 6963.697 10661.501 5622.359 14324.296 15177.875 695.754 2437.684 5158.322 15263.157 4596.364 5322.348 4887.750 5859.989 6617.019 9789.388 9259.814 5062.838 1339.777 6094.023 5279.571 9264.275 5497.966 4686.298 5340.778 13982.601 5272.339 3780.044 5330.244 1602.001 5435.926 5160.743 2761.235 6339.950 12070.557 19031.080 4942.673 3891.618 5075.086 8187.877 5345.962 9533.046 5301.617 5497.618 6660.999 1299.372 8560.096 6165.287 7298.984 5057.013 8467.521 3511.626 5254.085 9370.961 22722.714 18785.243 3092.611 4699.163 4932.696 2839.665 6354.337 6175.811 4674.816 1373.691 3603.679 6235.311 13321.801 4838.722 6650.655 3810.331 4797.735 6326.204 5241.843 6099.294 1480.013 5805.589 11548.843 7763.766 2822.772 4243.872 1055.624 1387.052 7594.360 8322.540 6648.504 7838.550 6313.906 3771.719 2477.571 7817.739 10520.176 5147.756 7818.385 5546.513 1048.664 15089.302 5719.703 1046.289 5133.033 0.000 13063.385 7020.926 6876.037 6476.193 15830.085 7065.109 917.531 8375.872 5913.223 5853.799 6655.070 5589.718 18489.456 2924.283 15262.560 3193.362 6163.117 5353.719 1082.685 6395.262 14680.042 8927.435 5440.942 5135.930 14544.178 12120.152 10021.191
10390.304 9569.309 9227.952 21698.927 8499.792 24044.130 9221.046 8005.236 8796.991 9448.413 8706.165 8772.126 8733.253 10473.137 9291.763 20797.659 8596.811 8426.060 25141.909 9767.529 10143.362 8471.628 9462.009 14192.283 9976.631 8573.241 12797.008 8348.911 8458.616 17510.362 8339.477 12431.914 8452.057 7886.296 13321.393 19659.504 8337.289 8472.299 21972.474 13127.548 7352.022 9999.677 13861.985 17443.440 11883.385 14906.431 7505.563 15851.239 17253.939 11529.458 13055.475 13406.759 10966.047 21565.251 7972.028 8032.448 8387.992 8248.450 9534.942 12675.760 9860.925 14224.774 20516.741 13594.923 14861.666 9257.271 20602.023 10592.601 8379.008 9059.039 7842.065 7965.596 4378.797 11455.351 8716.793 12717.996 7975.472 8409.085 11480.552 8190.690 10000.690 8966.635 13883.078 8898.195 9851.643 8956.101 14028.222 9061.783 8814.699 10906.928 8413.027 13810.859 25085.008 17368.895 13960.588 8634.992 10390.401 8355.225 14871.912 10892.596 8147.054 19087.221 12669.719 13898.962 7761.094 11952.695 10574.408 11732.401 10293.041 8879.942 11566.498 28061.581 21191.634 10732.923 9573.616 9103.985 10792.022 13992.672 8272.040 11894.534 13366.093 12095.085 8023.017 524.810 9469.949 10983.706 10181.298 9428.962 10715.543 8867.699 9853.467 12911.875 8333.858 4348.778 11068.010 10808.915 9566.373 12982.061 13811.034 11043.229 10525.064 8212.240 10041.075 7137.519 9906.336 14282.993 13119.964 12534.436 8540.899 16973.205 8310.955 12737.275 20428.168 7928.657 12851.918 9726.066 13363.640 0.000 9404.805 8558.911 7215.058 15730.562 9401.976 13514.669 10578.397 7723.756 8062.753 9238.402 8354.160 25154.755 14021.668 5290.707 11944.629 9369.214 8577.363 13506.666 9296.769 2315.607 11641.196 8295.725 9255.487 21209.477 19300.812 3943.724
3048.097 3646.769 2579.876 13263.126 1801.922 15756.449 705.913 2265.787 2148.915 1082.932 2360.064 1280.466 2085.177 1249.686 2808.991 14877.600 1757.771 2033.370 16854.228 3151.771 2801.155 979.968 168.310 8207.443 618.838 1768.615 6812.168 2425.664 2024.638 9074.561 1856.475 3215.451 1878.713 2384.728 6045.782 13428.821 2120.414 2329.005 12756.011 6206.144 2247.672 1406.036 6940.582 9007.639 3649.330 8281.635 2234.897 8929.836 10629.143 4187.251 7070.635 7421.919 2731.991 12348.788 2298.996 2465.728 1938.933 2150.295 203.016 4060.348 1939.481 7303.370 12080.940 7000.411 8542.246 2026.846 12166.222 3250.394 1980.761 2410.963 3114.077 1825.818 8893.651 2238.888 2068.717 6733.156 2302.439 2050.345 2257.101 2092.534 2787.150 1471.985 6961.675 1817.486 3235.885 1544.591 7403.426 1376.837 2053.501 4291.170 1242.294 5049.631 16797.326 10249.672 9712.199 1998.850 1166.950 1864.731 6528.719 3550.389 2048.898 12462.425 6684.879 5241.479 2040.091 3199.603 3232.201 10760.815 4427.110 1860.106 2350.035 19625.779 11975.171 4678.106 2670.022 2455.909 4176.264 6650.465 1307.470 4552.327 6803.540 4752.878 2752.351 10305.884 3489.800 2230.614 6771.878 3448.813 2359.257 1970.946 1619.412 6927.034 2014.006 10653.107 2102.764 4193.157 3700.442 6357.265 7826.193 2077.984 1301.614 1632.853 817.624 2409.530 4040.404 8298.152 4885.909 3822.972 2071.521 9630.998 2520.493 6752.435 11992.367 2502.244 6867.077 2383.859 7378.799 10047.468 0.000 3288.245 2487.069 8809.159 44.183 7400.283 1354.946 2453.090 2636.340 468.404 2656.191 16867.074 8744.864 12042.126 4669.605 1076.474 2231.262 7521.826 652.901 11459.608 2417.746 2197.569 2025.062 12921.795 11064.898 6032.067
3824.347 2968.321 2661.995 15132.970 1933.835 17478.173 2655.089 1439.279 2231.034 3276.658 2140.208 2600.371 2167.296 4301.382 2690.775 14901.409 2030.854 1860.103 18575.952 3166.542 3577.405 2299.873 3226.313 7753.103 3804.876 2007.284 6357.828 1475.113 1892.659 10944.405 1773.520 6260.159 1886.100 1320.339 6720.405 13452.629 1771.332 1906.341 15800.719 9250.852 1488.105 3433.720 9985.290 10877.483 5317.428 8305.444 1389.942 11974.544 10652.952 4963.501 6616.295 6967.579 4400.090 15393.496 1406.071 1466.491 1822.035 1682.493 3299.246 6504.005 3294.968 10348.078 13950.784 7024.219 8422.485 2691.314 14036.066 4026.644 1813.051 2493.082 1910.134 1793.841 8289.795 5283.596 2150.836 6278.816 1409.515 1843.128 5308.797 1624.732 3399.702 2400.677 10006.383 2332.238 3250.655 2390.144 7427.235 2495.826 2248.742 4305.941 2241.272 8094.339 18519.051 10767.907 9257.860 2069.035 4218.646 1789.268 8305.955 4326.639 1581.097 12486.233 6230.539 7333.005 1195.136 5386.738 4008.451 9670.476 3692.054 2313.985 5394.743 21495.624 15019.879 4131.936 2972.628 2538.028 4191.034 7426.715 2100.285 5328.577 6827.349 5529.128 1149.219 9702.028 2868.962 4417.749 5681.539 2827.974 4149.586 2301.742 3287.510 6472.695 1767.901 10049.251 4730.225 4207.928 2965.386 6381.073 7371.853 4705.445 4353.309 2040.485 3869.320 1805.674 3305.348 7843.813 6554.007 6362.681 1974.942 10407.248 1437.157 6298.095 13862.211 1362.700 6412.738 3160.109 6924.460 9443.612 3233.050 0.000 1883.213 11853.866 3230.221 7075.489 4406.642 962.814 1365.564 2990.619 1480.362 18588.798 8290.524 11438.270 5343.642 2803.257 2011.406 7067.486 2730.812 10855.752 5469.442 1729.768 2689.530 14643.520 12734.855 5428.211
3558.519 2737.524 2396.167 14867.142 1668.007 17212.345 2389.261 1173.451 1965.206 2616.628 1874.380 1940.341 1901.468 3641.352 2459.978 14670.611 1765.026 1594.275 18310.124 2935.744 3311.577 1639.843 2630.223 7522.305 3144.846 1741.456 6127.030 1517.126 1626.831 10678.577 1507.692 5600.129 1620.272 1054.511 6489.608 13221.832 1505.503 1640.513 15140.689 8590.822 520.237 3167.892 9325.260 10611.655 5051.600 8074.646 673.778 11314.514 10422.154 4697.673 6385.497 6736.782 4134.262 14733.466 1140.243 1200.663 1556.207 1416.665 2703.157 5843.975 3029.140 9688.048 13684.956 6793.422 8191.688 2425.486 13770.238 3760.816 1547.222 2227.254 1010.280 1133.811 6432.231 4623.566 1885.008 6048.019 1143.687 1577.300 4648.767 1358.904 3168.905 2134.849 9346.352 2066.410 3019.858 2124.316 7196.437 2229.998 1982.914 4075.143 1581.242 7434.309 18253.222 10537.110 8768.388 1803.207 3558.616 1523.440 8040.127 4060.811 1315.269 12255.436 5999.741 7067.177 929.308 5120.909 3742.623 8657.018 3461.256 2048.157 4734.713 21229.795 14359.849 3901.138 2741.830 2272.200 3960.237 7160.887 1440.255 5062.749 6596.551 5263.300 1191.232 7844.464 2638.164 4151.921 4668.081 2597.177 3883.758 2035.914 3021.682 6241.897 1502.073 8191.687 4236.225 3977.130 2734.588 6150.276 7141.056 4211.444 3693.279 1380.455 3209.290 305.734 3074.551 7613.015 6288.179 5702.650 1709.114 10141.420 1479.170 6067.297 13596.383 1096.872 6181.940 2894.281 6693.662 7586.048 2573.020 1727.126 0.000 11193.836 2570.191 6844.692 3746.612 891.971 1230.968 2406.616 1522.375 18322.970 8046.656 9580.706 5112.844 2537.429 1745.578 6836.689 2464.984 8998.188 4809.411 1463.940 2423.702 14377.692 12469.027 3570.647
10969.272 12482.858 11415.965 20963.554 10638.011 23456.876 9542.002 11101.876 10985.004 9038.281 11196.153 9920.598 10921.266 7770.983 11645.080 23713.689 10593.860 10869.459 24554.656 11987.860 11637.244 9620.100 9004.400 17043.532 8770.466 10604.704 15648.257 11261.753 10860.727 16774.988 10692.565 6683.134 10714.802 11220.817 14376.503 22264.910 10956.503 11165.094 14263.359 2845.437 10887.805 10096.965 2064.939 16708.067 11456.169 17117.724 10875.029 120.677 19128.405 12475.517 15906.724 16258.008 10538.830 13856.136 11135.085 11301.818 10775.022 10986.384 9039.105 6911.700 10765.384 2382.606 19781.367 15833.774 17378.335 10862.936 19866.650 11581.976 10816.850 11247.052 11754.209 10465.950 14063.429 7248.437 10904.806 15569.245 11138.529 10886.434 7636.722 10928.623 11623.239 10308.074 1838.412 10653.575 12071.974 10380.680 16239.515 10212.926 10889.590 13127.260 9882.426 5077.049 24497.754 18537.938 18548.288 10834.939 7785.561 10700.820 14229.147 11579.880 10884.988 20961.686 15520.968 12941.907 10680.223 10900.030 11261.692 19400.947 13263.199 10696.195 7359.584 21910.185 13482.519 13514.195 11506.111 11291.998 13012.353 14938.731 9947.602 12840.593 15639.630 13083.599 11392.483 16265.035 12325.889 9931.042 15412.010 12284.902 10059.685 10807.035 10310.340 15763.124 10850.095 15822.885 8824.585 13029.247 12536.531 15193.354 16662.282 9319.592 7604.522 10272.985 8014.650 11049.662 12876.494 17134.242 12692.748 6674.324 10907.610 17919.264 11356.583 15588.524 19692.795 11298.123 15703.167 11219.948 16214.888 16006.619 8836.089 11928.377 11127.201 0.000 8791.906 16225.480 7627.336 11093.222 11432.219 9304.493 11492.280 24567.502 17580.953 16215.345 13135.411 9912.563 11067.351 16357.915 9488.990 15632.828 8124.285 11033.659 10861.151 20622.223 18765.326 14364.069
3092.280 3690.951 2624.059 13307.309 1846.104 15800.631 750.096 2309.970 2193.098 1127.115 2404.246 1324.648 2129.360 1205.504 2853.174 14921.783 1801.954 2077.552 16898.411 3195.954 2845.338 1024.151 212.493 8251.625 574.655 1812.798 6856.350 2469.847 2068.821 9118.743 1900.658 3171.268 1922.896 2428.910 6089.964 13473.003 2164.597 2373.188 12711.828 6161.962 2291.855 1450.219 6896.399 9051.822 3693.512 8325.818 2279.080 8885.653 10673.326 4231.433 7114.817 7466.101 2776.174 12304.605 2343.178 2509.911 1983.115 2194.478 247.199 4016.165 1983.663 7259.188 12125.122 7044.594 8586.429 2071.029 12210.404 3294.577 2024.943 2455.145 3158.259 1870.001 8937.834 2194.705 2112.900 6777.338 2346.622 2094.527 2212.918 2136.717 2831.332 1516.168 6917.492 1861.669 3280.067 1588.773 7447.609 1421.020 2097.683 4335.353 1286.477 5005.448 16841.509 10293.855 9756.382 2043.033 1122.768 1908.913 6572.902 3594.572 2093.081 12506.607 6729.061 5285.662 2084.274 3243.785 3276.384 10804.998 4471.293 1904.288 2305.852 19669.962 11930.988 4722.289 2714.204 2500.092 4220.446 6694.647 1351.652 4596.510 6847.723 4797.060 2796.534 10350.067 3533.983 2274.797 6816.060 3492.995 2403.440 2015.129 1663.595 6971.217 2058.189 10697.290 2058.581 4237.340 3744.625 6401.447 7870.376 2033.801 1257.431 1677.035 773.441 2453.713 4084.587 8342.335 4930.092 3778.789 2115.704 9675.180 2564.676 6796.617 12036.549 2546.426 6911.260 2428.042 7422.982 10091.651 44.183 3332.428 2531.252 8764.976 0.000 7444.466 1310.764 2497.272 2680.523 512.587 2700.374 16911.257 8789.047 12086.308 4713.788 1120.657 2275.444 7566.009 697.084 11503.791 2373.563 2241.752 2069.245 12965.978 11109.081 6076.249
5355.434 4363.313 5274.004 16493.897 5652.644 17512.667 6536.881 6274.712 5360.377 7651.495 5699.862 7136.967 5324.737 8487.954 4673.505 8810.497 5948.079 5487.080 18610.446 4476.481 5303.418 6836.469 7108.105 2316.633 7632.939 5934.820 1335.321 5860.464 5403.396 12305.332 5641.862 10453.719 5604.909 6393.652 2848.576 7361.718 5568.708 5429.860 19779.703 13444.412 6675.596 6479.791 14178.850 12238.410 6714.996 2324.645 6577.434 16168.104 4072.291 4489.640 487.244 691.390 6790.328 19372.480 6307.920 5926.442 5772.588 5773.068 7181.038 10878.842 5839.701 14541.638 15311.711 824.161 2146.296 5375.663 15396.993 4809.983 5539.689 5105.091 5973.027 6834.360 9902.426 9477.156 5280.179 1309.953 6311.364 5496.912 9477.894 5715.307 4903.640 5558.119 14199.942 5489.680 3997.386 5547.585 1359.196 5653.267 5378.085 2978.577 6557.292 12287.899 19164.916 4187.246 3600.231 5292.427 8405.218 5563.304 9666.882 5515.237 5714.959 5905.572 1269.548 8693.932 6382.628 7512.603 5270.632 8580.560 3624.665 5471.427 9588.303 22856.551 18998.863 3309.952 4916.504 5150.037 3057.007 6488.173 6393.153 4808.652 1716.281 3737.516 6452.653 13434.839 4951.761 6864.275 3923.369 4910.773 6539.824 5459.184 6316.635 1450.188 6022.930 11661.882 7977.386 3040.113 4356.910 1189.460 1095.665 7807.980 8539.881 6865.846 8055.891 6426.944 3884.757 2186.184 7951.575 10737.517 5365.098 7062.958 5763.854 1018.839 15223.138 5937.044 1016.464 5350.374 608.784 13176.423 7238.268 7093.378 6589.232 16047.426 7282.450 0.000 8593.214 6130.564 6071.140 6872.411 5807.059 18623.292 2632.895 15375.598 3360.990 6380.458 5571.060 791.297 6612.604 14793.080 9141.055 5658.283 5353.272 14678.014 12253.988 10134.229
3735.774 4989.488 3922.595 13730.056 3144.641 16223.378 2048.632 3608.506 3491.634 1740.972 3702.783 2427.228 3427.896 309.935 4151.711 16220.319 3100.490 3376.089 17321.158 4494.490 4143.874 2126.730 1511.030 9550.162 1172.901 3111.335 8154.887 3768.383 3367.357 9541.491 3199.195 2015.382 3221.432 3727.447 7143.005 14771.540 3463.133 3671.725 11555.942 5006.075 3394.435 2499.400 5740.513 9474.569 4222.671 9624.355 3381.659 7729.767 11894.907 5242.019 8413.354 8764.638 3305.332 11148.719 3641.715 3808.448 3281.652 3493.014 1545.735 2860.279 3167.819 6103.301 12547.870 8343.130 9884.966 3369.566 12633.152 4348.478 3323.480 3753.682 4260.839 2972.581 10040.414 1038.819 3411.437 8075.875 3645.159 3393.064 967.354 3435.254 4129.869 2814.705 5761.606 3160.206 4578.604 2887.310 8746.146 2719.556 3396.220 5633.890 2389.056 3849.562 17264.256 11304.440 11054.919 3341.570 187.996 3207.450 6995.649 4346.382 3391.618 13728.188 8027.598 5708.409 3186.853 3666.533 4028.194 11907.577 5769.829 3202.825 1149.966 19202.768 10775.102 6020.825 4012.741 3798.628 5518.983 7705.233 2454.232 5607.095 8146.260 5850.101 3899.113 11452.646 4832.519 2697.544 7918.640 4791.532 2826.187 3313.666 2712.775 8269.754 3356.725 11799.869 1591.087 5535.877 5043.161 7699.984 9168.912 2086.095 259.401 2779.615 621.256 3556.292 5383.124 9640.872 5459.250 2622.903 3414.240 10685.766 3863.213 8095.154 12459.297 3804.753 8209.797 3726.578 8721.519 11194.230 1342.719 4435.007 3633.831 7609.089 1298.537 8743.003 0.000 3599.852 3938.849 1811.124 3998.910 17334.004 10087.583 13188.888 5901.913 2419.193 3573.981 8864.545 1995.621 12606.370 1127.999 3540.289 3367.782 13388.725 11531.828 7178.829
2881.275 2141.191 1718.922 14189.898 990.763 16535.100 1712.017 496.207 1287.961 2333.586 1197.135 1657.299 1224.223 3358.310 1863.645 14074.278 1087.782 917.030 17632.880 2339.411 2634.333 1356.801 2283.240 6925.972 2861.804 1064.211 5530.697 647.983 949.587 10001.332 830.447 5317.086 943.027 377.267 5878.959 12625.499 828.259 963.269 14857.646 8307.780 545.033 2490.648 9042.217 9934.411 4374.355 7478.313 446.870 11031.471 9825.821 4020.428 5789.164 6140.449 3457.017 14450.423 462.999 523.418 878.963 739.421 2356.174 5560.933 2351.896 9405.006 13007.711 6197.089 7595.355 1748.242 13092.994 3083.572 869.978 1550.009 1083.003 850.769 7346.723 4340.523 1207.764 5451.686 466.443 900.055 4365.724 681.660 2572.572 1457.605 9063.310 1389.166 2423.525 1447.071 6600.104 1552.753 1305.670 3478.810 1298.200 7151.266 17575.978 9940.777 8430.729 1125.962 3275.574 846.196 7362.883 3383.567 638.024 11659.103 5403.408 6389.933 252.064 4443.665 3065.379 8843.345 2864.923 1370.913 4451.670 20552.551 14076.806 3304.805 2145.498 1594.955 3363.904 6483.642 1157.213 4385.505 6000.219 4586.055 322.089 8758.956 2041.831 3474.677 4854.408 2000.844 3206.513 1358.670 2344.438 5645.564 824.828 9106.179 3787.153 3380.797 2138.255 5553.943 6544.723 3762.372 3410.237 1097.413 2926.247 862.602 2478.218 7016.682 5610.935 5419.608 1031.870 9464.175 610.027 5470.964 12919.139 419.627 5585.607 2217.037 6097.329 8500.539 2289.977 962.814 940.141 10910.794 2287.149 6248.359 3463.570 0.000 538.434 2047.547 653.232 17645.726 7463.394 10495.197 4502.783 1860.184 1068.334 6240.356 1787.739 9912.679 4526.369 786.695 1746.457 13700.447 11791.783 4485.138
2940.698 2200.614 1778.346 14249.321 1050.186 16594.524 1771.440 555.630 1347.385 2393.009 1256.559 1716.722 1283.647 3417.733 1923.068 14133.702 1147.205 976.454 17692.303 2398.835 2693.756 1416.224 2342.664 6985.396 2921.227 1123.635 5590.121 707.406 1009.010 10060.756 889.871 5376.510 1002.451 436.690 5938.383 12684.922 887.683 1022.693 14917.070 8367.203 604.456 2550.071 9101.641 9993.834 4433.779 7537.737 506.293 11090.895 9885.245 4079.852 5848.588 6199.872 3516.441 14509.847 522.422 582.842 938.386 798.844 2415.597 5620.356 2411.319 9464.429 13067.135 6256.512 7654.778 1807.665 13152.417 3142.995 929.402 1609.433 1142.427 910.192 7406.146 4399.947 1267.187 5511.109 525.866 959.479 4425.148 741.083 2631.995 1517.028 9122.734 1448.589 2482.948 1506.495 6659.528 1612.177 1365.093 3538.234 1357.623 7210.690 17635.402 10000.200 8490.153 1185.386 3334.997 905.619 7422.306 3442.990 697.448 11718.526 5462.832 6449.356 311.487 4503.089 3124.802 8902.769 2924.347 1430.336 4511.094 20611.975 14136.230 3364.229 2204.921 1654.379 3423.327 6543.066 1216.636 4444.928 6059.642 4645.479 381.512 8818.379 2101.255 3534.100 4913.832 2060.267 3265.937 1418.093 2403.861 5704.988 884.252 9165.602 3846.576 3440.221 2197.679 5613.366 6604.146 3821.796 3469.660 1156.836 2985.671 922.025 2537.641 7076.106 5670.358 5479.032 1091.293 9523.599 669.450 5530.388 12978.562 479.051 5645.031 2276.460 6156.753 8559.963 2349.401 1022.238 999.564 10970.217 2346.572 6307.782 3522.993 59.423 0.000 2106.970 712.655 17705.149 7522.817 10554.621 4562.206 1919.608 1127.757 6299.779 1847.163 9972.103 4585.793 846.119 1805.881 13759.871 11851.206 4544.562
2853.602 3452.273 2385.381 13068.631 1607.426 15561.953 511.418 2071.292 1954.420 1099.421 2165.569 984.203 1890.682 1712.205 2614.496 14683.105 1563.276 1838.875 16659.733 2957.276 2606.660 683.705 332.356 8012.947 917.354 1574.120 6617.672 2231.169 1830.143 8880.065 1661.980 3677.970 1684.218 2190.232 5851.286 13234.326 1925.919 2134.510 13218.530 6668.663 1951.409 1211.541 7403.101 8813.144 3454.835 8087.140 1938.634 9392.355 10434.648 3992.756 6876.139 7227.424 2537.496 12811.307 2104.500 2271.233 1744.438 1955.800 405.290 4326.768 1744.986 7765.889 11886.444 6805.916 8347.751 1832.351 11971.727 3055.899 1786.266 2216.468 2817.814 1529.555 8597.388 2701.407 1874.222 6538.661 2107.944 1855.850 2719.620 1898.039 2592.655 1277.490 7424.194 1622.991 3041.390 1350.095 7208.931 1182.342 1859.006 4096.675 946.031 5512.150 16602.831 10055.177 9517.704 1804.355 1629.469 1670.235 6334.224 3355.894 1854.403 12267.929 6490.383 5046.984 1743.828 3005.107 3037.706 10464.552 4232.615 1665.610 2812.554 19431.284 12437.690 4483.611 2475.527 2261.414 3981.769 6455.970 1011.207 4357.832 6609.045 4558.383 2456.088 10009.621 3295.305 2036.119 6475.615 3254.318 2164.762 1776.451 1424.917 6732.539 1819.511 10356.844 1926.271 3998.662 3505.947 6162.770 7631.698 1901.490 1764.132 1336.590 1280.143 2113.267 3845.909 8103.657 4691.414 4185.444 1877.026 9436.502 2325.998 6557.939 11797.872 2307.748 6672.582 2189.364 7184.304 9751.205 462.519 2991.982 2190.806 9271.677 506.702 7205.788 1817.465 2156.827 2441.845 0.000 2461.696 16672.579 8550.369 11745.863 4475.110 881.979 2036.767 7327.331 458.406 11163.345 2818.809 2003.074 1830.567 12727.300 10870.403 5735.804
2950.979 1739.387 1640.162 14318.865 1425.700 16664.068 2214.424 998.614 1465.319 2835.993 1162.044 2159.706 1401.581 3860.717 1461.840 13672.474 1590.189 1094.387 17761.847 1937.607 2467.028 1859.208 2785.647 6524.168 3364.211 1566.618 5128.893 232.308 1247.525 10130.300 1305.854 5819.493 1377.965 879.674 5491.470 12223.694 1176.016 892.042 15360.053 8810.187 1047.440 2711.042 9544.624 10063.378 4503.323 7076.509 949.277 11533.878 9424.017 3853.124 5387.360 5738.644 3585.984 14952.830 965.406 1025.826 1381.370 1241.828 2858.581 6063.340 2421.600 9907.413 13136.679 5795.284 7193.550 1798.136 13221.961 2916.268 1146.996 1471.249 1468.638 1353.176 7849.130 4842.930 1385.121 5049.881 968.850 1104.219 4868.131 1184.067 2170.767 1634.962 9565.717 1566.523 2021.720 1624.429 6198.300 1730.111 1483.027 3077.006 1800.607 7653.674 17704.945 9538.972 8028.925 1303.320 3777.981 1263.026 7491.850 3453.271 1140.431 11257.298 5001.604 6518.900 754.471 4720.347 3135.083 9016.819 2463.119 1548.270 4954.077 20681.518 14579.213 2903.001 1743.693 1516.195 2962.099 6316.338 1659.620 4218.201 5598.414 4418.751 824.496 9261.363 1640.027 3751.359 5027.882 1599.039 3426.908 1536.027 2564.832 5243.760 1327.236 9608.586 4289.560 2978.993 1736.451 5152.138 6142.918 4264.779 3912.644 1599.820 3428.654 1365.009 2076.413 6614.878 5739.902 5922.015 1209.227 9296.871 135.697 5069.160 13048.106 308.887 5183.803 2286.741 5695.525 9002.947 2792.384 1465.221 1442.548 11413.201 2789.556 5846.554 3965.977 502.407 442.984 2549.954 0.000 17774.693 7061.589 10997.604 4114.707 2362.591 1033.242 5838.551 2290.146 10415.086 5028.776 1120.465 1775.745 13829.415 11624.479 4987.545
14821.595 17343.497 16886.817 8850.937 16715.928 1137.204 16121.166 17179.794 16780.708 17602.312 17144.848 17475.211 16716.970 17147.400 16734.833 24173.623 16671.778 16825.296 39.425 16855.521 15895.508 17174.714 16959.268 19975.816 16513.188 16682.622 18580.541 17258.387 16741.613 10248.099 16770.482 18846.717 16792.719 17298.734 16323.507 22724.844 16906.925 17149.645 19497.887 21837.411 17666.504 15551.222 22571.848 10283.236 13338.956 18910.397 17653.729 24561.102 16295.206 14794.321 18533.314 18791.074 14289.480 20658.272 17213.002 17298.452 16852.939 17064.301 17032.201 19691.614 15501.872 22934.636 9251.230 18135.603 19171.008 16398.124 9336.512 14947.132 16877.906 16717.904 18152.153 17486.361 24312.483 17891.637 16700.510 18501.529 17216.446 16835.129 17636.097 17006.541 16712.991 16103.778 22592.941 16449.279 16932.613 16176.384 17844.580 16008.630 16424.779 17144.554 16918.841 20558.392 2008.425 15227.783 21480.572 16630.643 17025.461 16778.737 11209.179 14359.367 16962.905 17843.326 18453.252 11570.683 17458.923 13856.816 14698.281 24710.014 18085.315 16491.899 17827.556 16413.328 21016.223 17532.804 16595.863 16762.850 17222.984 12358.014 16820.702 15113.333 18448.526 15074.558 17850.576 25724.716 17457.109 14969.221 20052.824 17416.121 14722.393 16602.739 15179.516 18695.407 16928.012 26071.939 16019.973 17206.091 17441.465 17917.711 19195.348 15774.341 17201.780 17293.395 17221.816 17828.362 17887.782 20066.525 12193.711 19454.238 16703.314 12543.197 17353.217 18520.808 9162.657 17334.967 18635.450 15308.815 18654.854 25466.300 17089.431 18491.301 17905.901 24440.425 17087.843 18527.308 17059.228 17528.487 17469.064 16823.227 17488.914 0.000 20513.237 27460.957 16164.947 16483.629 17016.046 18890.981 16108.620 26878.440 17299.258 17030.293 16396.340 6307.773 6897.422 21450.898
6947.165 5692.949 6876.606 18551.700 7234.177 19570.470 8123.045 7815.131 6962.978 9237.660 7038.472 8723.131 6927.339 10074.118 6427.426 6962.191 7498.810 6970.816 20668.250 6230.402 7113.155 8422.633 8694.269 527.477 9235.541 7475.240 2522.816 7199.074 6984.929 14363.135 7182.282 12039.883 7186.442 7846.441 5049.658 5824.036 7052.444 6768.470 21371.433 15030.576 7956.338 8236.801 15765.014 14296.214 8772.799 3170.136 7916.044 17754.268 6013.034 6547.443 2414.238 1920.257 8382.058 20964.210 7848.340 7265.053 7313.008 7163.404 8767.203 12465.006 7649.437 16127.802 17369.514 3030.671 2991.788 7034.580 17454.796 6401.713 7023.425 6707.693 7102.030 8319.943 10439.367 11063.320 6882.781 2443.804 7851.784 6980.648 11069.625 7105.643 6657.560 7160.721 15786.107 7092.282 5751.306 7150.187 2787.317 7255.869 6980.687 4732.497 8143.456 13874.063 21222.719 6127.990 967.335 6895.029 9991.382 7139.455 11724.685 7106.967 7255.379 7846.316 2395.527 10751.735 7721.238 9104.334 6862.362 6896.803 4753.667 7074.028 11174.467 24914.354 20590.593 4534.097 6670.425 6752.639 4810.927 8545.976 7979.317 6699.908 3460.784 5938.597 7791.263 13971.780 6080.763 8456.005 4204.145 6039.775 8131.554 7061.786 8090.591 2519.855 7563.350 12198.823 9569.116 4794.033 5485.912 3390.542 2703.283 9399.710 10126.045 8452.010 9642.056 7555.946 5013.759 446.712 10009.378 12323.682 6946.631 9003.702 7102.464 2503.999 17280.941 7275.654 2310.856 7172.411 2535.777 13713.364 8824.432 8431.988 7718.234 17633.591 8868.615 2686.807 10179.378 7469.174 7409.751 8458.575 7145.669 20681.095 0.000 15912.539 4912.947 7983.060 6909.670 1794.994 8198.768 15330.021 10732.785 6996.894 7012.189 16735.817 14311.518 11157.831
12356.260 11535.264 11193.907 23664.882 10465.747 26010.085 11187.001 9971.191 10762.946 11414.368 10672.120 10738.081 10699.208 12439.092 11257.718 22623.895 10562.766 10392.015 27107.864 11733.484 12109.317 10437.583 11427.964 16018.520 11942.586 10539.196 14623.245 10314.866 10424.571 19476.317 10305.432 14397.869 10418.012 9852.251 15287.348 21485.740 10303.244 10438.254 23284.479 13441.440 9317.977 11965.632 14175.877 19409.395 13849.340 16866.250 9471.518 16165.131 19219.894 13495.413 14881.712 15232.996 12932.002 22877.256 9937.983 9998.403 10353.947 10214.405 11500.897 14641.715 11826.880 14538.665 22482.696 15421.160 16687.902 11223.226 22567.978 12558.556 10344.963 11024.994 9808.020 9931.551 6205.033 13421.306 10682.748 14544.233 9941.427 10375.040 13446.507 10156.645 11966.645 10932.590 14196.970 10864.151 11817.598 10922.056 15994.177 11027.738 10780.654 12872.883 10378.982 14124.751 27050.963 19334.850 15786.825 10600.947 12356.356 10321.180 16837.867 12858.551 10113.009 21053.176 14495.956 15864.917 9727.049 13918.650 12540.363 13558.638 12258.996 10845.897 13532.453 30027.536 22503.640 12698.878 11539.571 11069.940 12757.977 15958.627 10237.995 13860.489 15192.330 14061.040 9988.972 4736.075 11435.905 12949.661 12007.535 11394.917 12681.498 10833.654 11819.422 14738.112 10299.813 7964.489 13033.965 12774.870 11532.328 14948.016 15637.270 13009.184 12491.019 10178.195 12007.030 9103.474 11872.291 16109.230 15085.919 14453.760 10506.854 18939.160 10276.910 14563.512 22394.123 9894.612 14678.155 11692.021 15189.876 5260.886 11370.760 10524.866 9181.013 16044.454 11367.932 15340.906 12544.352 9689.711 10028.708 11204.357 10320.115 27120.710 15847.905 0.000 13910.584 11335.169 10543.318 15332.903 11262.724 2998.578 13607.152 10261.680 11221.442 23175.432 21266.768 5909.679
2172.081 2514.971 3372.578 13831.263 3751.218 14933.030 4113.534 4373.285 3458.950 5231.749 3837.744 4942.680 3423.311 5805.844 2811.387 11161.878 4046.653 3585.654 16030.809 2302.859 2367.218 4642.182 4688.358 4615.108 4729.833 4033.394 3219.833 3998.346 3501.970 9642.697 3740.436 7505.161 3703.483 4492.226 1986.092 9713.098 3667.282 3567.742 16596.350 10495.855 4813.478 3543.591 11230.292 9575.776 4015.720 4565.913 4715.315 13219.546 6869.745 1888.044 3478.300 3829.584 3606.975 16189.127 4406.494 4058.809 3871.162 3871.642 4761.292 8350.058 2903.500 11593.080 12649.076 3284.689 4826.524 3148.504 12734.358 1626.630 3638.263 3203.665 4228.707 4864.525 10671.173 6550.081 3378.753 3140.821 4409.938 3595.486 6294.541 3813.881 2510.862 3469.530 11251.385 3588.254 2135.267 3542.136 3687.704 3374.382 3175.158 1353.331 4363.005 9216.836 16585.279 6984.701 6119.865 3391.001 5683.905 3661.877 7004.247 2331.884 3813.533 8703.027 3092.544 6031.297 4520.510 4329.250 2087.279 9349.307 2395.074 3570.000 6486.000 20193.916 15815.510 1741.581 2742.882 3248.611 1431.761 3908.536 4198.866 1924.825 3087.818 1356.113 4590.534 12663.727 3318.060 3680.922 4692.116 3277.073 3356.471 3557.757 3380.435 3334.700 4121.504 12430.629 4794.033 1414.868 2612.939 2641.542 4233.859 4624.627 5860.224 4671.559 5636.145 4682.624 2655.166 4705.818 5252.300 8112.682 3463.671 6455.851 3901.736 3160.100 12560.503 4074.926 3274.743 2414.174 3762.315 12405.310 4818.521 5231.260 4844.912 13098.869 4862.704 3684.561 5717.672 4268.446 4209.022 4452.664 3944.941 16043.655 5152.529 14399.968 0.000 3871.054 3708.942 3929.491 4100.989 13817.450 5957.702 3790.650 3146.720 12098.377 9674.351 8389.909
2412.582 3011.254 1944.361 12707.567 1172.438 15145.291 277.508 1636.304 1513.400 1758.654 1730.580 1603.505 1449.662 2359.325 2173.477 14242.085 1128.288 1403.886 16243.070 2516.256 2165.640 1303.007 1155.939 7571.928 1252.481 1139.132 6176.653 1796.180 1395.154 8519.001 1226.992 4406.125 1249.229 1755.244 5410.267 12793.306 1490.930 1699.522 13789.848 7396.818 2119.582 741.252 8131.256 8452.080 2984.546 7646.120 2106.807 10120.510 9993.629 3551.736 6435.120 6786.404 2067.208 13382.625 1669.512 1836.245 1309.449 1520.811 1228.873 4986.001 1303.966 8494.044 11525.380 6364.896 7906.731 1391.332 11610.662 2614.879 1351.277 1775.448 2985.986 1697.728 8765.561 3429.562 1433.202 6097.641 1672.956 1420.861 3327.537 1463.051 2151.635 836.470 8152.348 1181.971 2600.370 909.076 6767.911 741.322 1417.986 3655.656 1047.135 6240.305 16186.169 9614.157 9076.685 1363.335 2237.387 1235.247 5973.073 2914.874 1419.415 11826.910 6049.364 4685.920 1912.001 2644.043 2596.686 10345.295 3791.595 1224.591 3518.996 19070.220 13009.008 4042.591 2034.507 1820.394 3540.749 6014.950 1032.069 3916.812 6168.026 4117.363 2388.369 10177.794 2854.285 1675.055 6356.358 2813.298 1803.698 1335.432 954.628 6291.520 1384.522 10525.017 1987.531 3557.643 3064.927 5721.750 7190.678 1962.751 2492.287 1504.762 2103.726 2281.440 3404.890 7662.638 4221.125 4844.676 1436.006 8995.483 1891.010 6116.920 11436.807 1872.760 6231.563 1748.344 6743.284 9919.378 1286.102 3029.094 2358.979 9999.832 1330.285 6764.768 2425.382 2066.280 2006.856 979.570 2026.707 16255.916 8109.349 11914.035 4034.090 0.000 1601.778 6886.311 305.292 11331.518 3130.925 1568.086 1389.547 12310.638 10458.759 5903.976
2087.595 1493.207 925.242 13439.255 525.736 15784.458 1350.122 1042.208 494.281 2464.736 128.802 1950.207 430.543 3301.195 1101.442 13362.772 725.887 197.892 16882.237 1577.209 1840.653 1649.709 1921.345 6277.988 2506.343 702.316 4882.713 630.983 276.488 9250.690 409.358 5266.959 478.001 1161.148 5085.279 11913.993 279.520 522.240 14807.519 8257.653 1446.115 1740.005 8992.090 9183.768 3623.713 6766.807 1347.952 10981.344 9114.315 3226.749 5141.180 5492.465 2706.374 14400.296 1075.416 671.048 540.084 483.880 1994.279 5692.083 1558.216 9354.878 12257.069 5485.583 6947.371 954.562 12342.351 2289.892 250.501 756.329 1687.201 1601.856 8247.805 4290.396 414.084 4803.702 1078.860 207.724 4308.609 426.119 1810.370 663.925 9013.183 595.486 1661.322 653.391 5888.598 759.074 511.990 2716.608 1370.532 7101.139 16825.335 9229.271 7782.745 332.282 3218.459 366.531 6612.240 2589.887 482.455 10947.597 4755.424 5639.290 1153.147 3749.310 2271.699 8770.639 2216.939 577.233 4401.543 19801.908 14026.679 2656.821 1383.295 801.275 2601.701 5689.963 1206.393 3591.825 5288.712 3792.375 1223.171 9660.038 1279.629 2780.322 4781.702 1238.642 2455.870 564.990 1593.795 4997.580 790.427 10007.261 3425.258 2618.595 1490.271 4842.437 5896.739 3400.477 3353.122 1679.086 2869.132 1763.684 1830.234 6368.698 4860.292 5550.758 238.190 8670.495 725.813 4822.980 12168.496 707.563 4937.623 1423.357 5449.345 9401.622 2051.508 1863.897 1841.223 10860.667 2095.691 5600.375 3406.454 901.083 841.659 1685.652 861.510 16895.083 6815.410 11396.280 3709.103 1486.264 0.000 5592.372 1425.844 10813.762 4407.799 402.889 952.777 12949.805 10998.103 5386.221
5681.739 4552.916 5596.587 16899.985 5975.227 17918.754 6859.463 6597.294 5682.959 7974.078 5898.439 7459.549 5647.320 8810.536 4996.088 8561.291 6270.662 5809.662 19016.534 4799.064 5626.001 7159.051 7430.687 1525.335 7955.521 6257.402 1181.843 6059.042 5725.979 12711.419 5964.445 10776.301 5927.491 6706.408 3254.664 7112.512 5891.291 5628.437 20106.007 13766.994 6816.306 6802.374 14501.432 12644.498 7121.084 1533.347 6776.011 16490.686 4376.246 4895.728 619.244 125.263 7116.632 19698.784 6630.502 6125.020 6095.170 6023.371 7503.621 11201.425 6162.283 14864.220 15717.798 1235.678 1354.999 5698.245 15803.080 5136.288 5862.272 5427.674 5961.997 7156.943 9891.395 9799.738 5602.761 1156.474 6633.946 5819.495 9804.199 5965.610 5226.222 5880.701 14522.525 5812.262 4319.968 5870.168 1150.529 5975.850 5700.667 3301.159 6879.874 12610.481 19571.003 4491.202 2808.933 5615.009 8727.800 5885.886 10072.969 5841.541 6037.541 6209.527 1116.069 9100.020 6581.205 7838.908 5596.936 8569.529 3613.634 5794.009 9910.885 23262.638 19325.167 3394.064 5239.087 5472.620 3379.589 6894.260 6715.735 5214.740 1913.615 4143.603 6651.230 13423.808 4940.730 7190.579 3912.339 4899.743 6866.128 5781.766 6639.218 1296.710 6345.513 11650.851 8303.690 3362.695 4345.879 1595.548 908.289 8134.284 8862.463 7188.428 8378.474 6415.914 3873.727 1394.886 8357.663 11060.100 5687.680 7366.914 5962.432 988.473 15629.226 6135.621 811.733 5672.957 740.784 13165.392 7560.850 7291.955 6578.201 16370.009 7605.033 891.813 8915.796 6329.141 6269.718 7194.993 6005.637 19029.380 1841.598 15364.567 3733.286 6703.040 5769.637 0.000 6935.186 14782.050 9467.359 5856.861 5675.854 15084.101 12660.076 10123.199
2395.196 2993.867 1926.975 12719.449 1155.052 15157.173 53.012 1618.917 1496.014 1534.158 1713.194 1407.058 1432.276 2210.589 2156.090 14224.699 1110.901 1386.500 16254.953 2498.870 2148.254 1106.560 990.767 7554.541 1103.745 1121.745 6159.266 1778.794 1377.768 8530.884 1209.605 4257.388 1231.843 1737.858 5392.880 12775.919 1473.544 1682.135 13797.948 7248.082 1923.135 753.135 7982.519 8463.962 2996.428 7628.734 1910.359 9971.773 9976.242 3534.349 6417.733 6769.018 2079.090 13390.725 1652.125 1818.858 1292.063 1503.425 1063.701 4761.505 1286.580 8345.308 11537.263 6347.510 7889.345 1373.945 11622.545 2597.493 1333.891 1758.062 2789.539 1501.280 8569.113 3280.825 1415.816 6080.255 1655.569 1403.475 3178.801 1445.664 2134.249 819.084 8003.612 1164.585 2582.983 891.689 6750.525 723.936 1400.599 3638.269 850.687 6091.568 16198.051 9596.771 9059.298 1345.949 2088.650 1217.861 5984.955 2897.488 1402.028 11809.523 6031.977 4697.802 1715.553 2655.926 2579.300 10327.909 3774.209 1207.204 3370.259 19082.102 13017.108 4025.205 2017.120 1803.008 3523.362 5997.563 835.622 3899.426 6150.639 4099.976 2370.982 9981.346 2836.899 1686.937 6338.972 2795.911 1815.581 1318.045 966.511 6274.133 1367.136 10328.569 1999.413 3540.256 3047.541 5704.363 7173.292 1974.633 2343.551 1308.315 1938.554 2084.992 3387.503 7645.251 4233.008 4620.180 1418.620 8978.096 1873.623 6099.533 11448.690 1855.374 6214.176 1730.958 6725.898 9722.930 1120.930 2963.707 2162.531 9851.096 1165.113 6747.382 2276.646 2048.893 1989.470 755.074 2009.321 16267.799 8091.963 11717.588 4016.704 423.573 1584.392 6868.925 0.000 11135.070 3005.200 1550.699 1372.161 12322.520 10470.642 5707.529
11837.906 11016.911 10675.554 23146.529 9947.394 25491.732 10668.648 9452.838 10244.593 10896.015 10153.767 10219.728 10180.855 11920.739 10739.365 22105.542 10044.413 9873.661 26589.511 11215.131 11590.964 9919.230 10909.610 15500.167 11424.233 10020.842 14104.891 9796.513 9906.218 18957.964 9787.079 13879.516 9899.659 9333.898 14768.995 20967.387 9784.890 9919.900 22766.126 12923.086 8799.624 11447.279 13657.524 18891.042 13330.987 16347.897 8953.165 15646.778 18701.541 12977.060 14363.359 14714.643 12413.648 22358.903 9419.630 9480.050 9835.594 9696.052 10982.544 14123.362 11308.527 14020.312 21964.343 14902.806 16169.549 10704.873 22049.625 12040.203 9826.609 10506.641 9289.667 9413.198 5686.680 12902.953 10164.395 14025.880 9423.074 9856.687 12928.154 9638.291 11448.292 10414.236 13678.617 10345.797 11299.244 10403.703 15475.824 10509.385 10262.301 12354.530 9860.629 13606.397 26532.609 18816.497 15268.471 10082.594 11838.003 9802.827 16319.514 12340.198 9594.656 20534.823 13977.603 15346.564 9208.695 13400.296 12022.010 13040.285 11740.643 10327.544 13014.100 29509.182 21985.286 12180.525 11021.217 10551.587 12239.624 15440.274 9719.642 13342.136 14673.977 13542.687 9470.619 1793.785 10917.551 12431.308 11489.182 10876.564 12163.144 10315.301 11301.069 14219.758 9781.460 6029.062 12515.612 12256.517 11013.975 14429.663 15118.917 12490.831 11972.666 9659.842 11488.677 8585.121 11353.937 15590.876 14567.566 13935.406 9988.501 18420.807 9758.557 14045.158 21875.770 9376.259 14159.801 11173.668 14671.523 2318.595 10852.407 10006.513 8662.660 15526.100 10849.578 14822.553 12025.999 9171.358 9510.355 10686.003 9801.762 26602.357 15329.552 2975.100 13392.231 10816.815 10024.965 14814.550 10744.371 0.000 13088.798 9743.327 10703.089 22657.079 20748.414 5391.326
3825.956 5860.829 4979.028 13820.238 4201.074 16313.561 3105.065 4664.939 4548.067 2797.405 4759.216 3483.661 4484.329 1366.368 5023.052 16595.565 4156.923 4432.522 17411.340 5365.831 4793.960 3183.163 2567.463 10048.795 2003.326 4167.768 8653.520 4824.816 4423.790 9631.673 4255.628 2608.272 4277.865 4783.880 7233.187 15146.785 4519.566 4728.158 11354.991 5598.965 4450.868 3107.092 6333.403 9564.751 4312.853 9999.600 4438.092 8322.657 11985.089 5332.201 8911.987 9263.271 3395.515 10947.768 4698.148 4864.881 4338.085 4549.447 2602.168 3453.169 3754.210 6696.191 12638.052 8690.459 10260.211 4425.999 12723.334 4438.660 4379.913 4810.115 5317.272 4029.014 11096.847 1167.035 4467.870 8574.508 4701.592 4449.497 911.495 4491.687 5001.210 3871.138 6354.495 4216.639 5449.945 3943.743 9121.391 3775.989 4452.653 6505.231 3445.489 3833.790 17354.439 11394.622 11553.552 4398.003 1244.429 4263.883 7085.832 4436.565 4448.051 13818.370 8526.231 5798.591 4243.287 3756.715 4118.377 12964.010 6682.638 4259.258 1102.954 19001.817 10574.151 6892.166 4884.082 4855.061 6390.324 7795.415 3510.665 5697.278 8521.505 5940.283 4955.546 12509.079 5745.328 2787.726 8975.073 5704.340 2916.370 4370.099 3277.613 8768.387 4413.158 12856.302 1584.395 6407.218 5955.970 8075.229 9667.546 2176.277 1420.748 3836.048 1677.689 4612.726 6295.932 10139.505 5549.432 3215.793 4470.673 10775.948 4919.646 8593.787 12549.479 4861.186 8708.430 4207.267 9196.002 12250.663 2399.152 5491.440 4690.265 8201.979 2354.970 9082.164 1170.318 4656.285 4995.282 2867.557 5055.343 17424.186 10586.217 14245.321 5992.096 3475.626 4630.414 9363.178 3052.054 13662.803 0.000 4596.722 4424.215 13478.908 11622.011 8235.262
2186.689 1866.954 1024.336 13538.348 517.901 15883.551 1338.818 845.313 593.375 2453.432 502.549 1938.903 529.637 3289.891 1428.940 13563.624 714.583 222.444 16981.331 1778.061 1939.746 1638.406 1910.041 6651.735 2495.040 691.012 5256.460 252.058 375.582 9349.783 398.055 5255.655 470.166 899.424 5184.373 12114.845 133.673 261.266 14796.215 8246.349 1067.190 1839.098 8980.786 9282.862 3722.806 6967.659 969.027 10970.040 9315.167 3325.842 5514.927 5866.212 2805.468 14388.992 878.522 292.122 528.780 206.205 1982.975 5680.779 1657.309 9343.575 12356.162 5686.435 7228.270 1053.655 12441.444 2388.985 275.053 855.423 1605.160 1372.926 7868.880 4279.092 513.177 5177.449 881.966 205.469 4297.305 148.444 1925.741 763.019 9001.879 694.579 1862.174 752.485 6089.450 858.167 611.083 2917.460 1359.228 7089.836 16924.429 9388.263 8156.492 431.376 3207.155 355.227 6711.333 2688.980 406.728 11148.449 5129.171 5738.383 774.221 3848.404 2370.792 9144.386 2590.686 676.326 4390.239 19901.002 14015.375 3030.568 1584.147 900.369 2802.553 5789.056 1195.090 3690.918 5489.564 3891.469 844.246 9281.113 1653.376 2879.415 5155.449 1612.389 2554.964 664.083 1692.888 5371.327 593.532 9628.336 3413.954 2819.447 1864.018 5043.289 6270.486 3389.173 3341.818 1619.570 2857.828 1384.759 2203.981 6742.445 4959.385 5539.454 337.283 8769.589 346.887 5196.727 12267.589 328.637 5311.370 1522.450 5823.092 9022.697 2040.204 1484.971 1462.298 10849.363 2084.387 5974.122 3395.151 522.157 462.734 1674.348 482.585 16994.177 7189.157 11017.354 3808.196 1486.985 373.747 5966.119 1414.540 10434.837 4396.495 0.000 1051.871 13048.898 11097.196 5007.295
1758.164 2356.836 1671.043 13126.050 1832.529 15471.253 1855.572 2296.395 1757.416 2970.186 2203.670 2681.117 1721.776 3806.645 1519.058 13587.667 1788.379 1884.119 16569.033 1861.838 1511.222 2380.620 2426.795 6917.510 2861.972 1799.223 5522.235 2317.210 1800.435 8937.485 1887.083 5772.409 1909.320 2415.335 4755.849 12138.888 1965.747 2208.467 15312.969 8763.103 2783.105 1709.080 9497.540 8870.564 3310.508 6991.702 2770.330 11486.794 9339.210 2897.318 5780.702 6131.986 2393.170 14905.746 2329.603 2357.275 1969.540 2170.107 2499.729 6197.533 1228.785 9860.328 11943.864 5710.478 7252.313 264.163 12029.146 1960.461 1936.728 1502.130 2936.379 2602.962 9429.084 4795.846 1677.218 5443.223 2333.047 1893.951 4814.059 2112.346 1497.217 1207.968 9518.633 1553.469 1945.952 1280.573 6113.493 1112.819 290.818 3001.238 2101.442 7606.589 16512.131 8959.739 8422.266 1689.466 3723.909 1895.338 6299.035 2260.456 2079.506 11172.492 5394.946 5326.085 2575.524 3535.338 1942.268 9732.345 3178.645 1596.088 4906.993 19488.704 14532.129 3388.173 1380.089 1547.076 2886.331 5360.532 1937.304 3262.394 5513.608 3462.945 2909.398 10841.317 2241.335 2566.350 5743.407 2200.347 2241.898 1706.929 1562.870 5637.102 2044.614 11188.540 3510.689 2903.224 2451.977 5067.332 6536.260 3485.908 3858.572 2409.997 3374.582 2944.963 2791.939 7008.220 4547.087 6056.208 1762.137 8341.065 2412.040 5462.502 11855.291 2393.790 5577.145 1093.926 6088.866 10582.901 2556.958 3550.124 3022.502 11366.117 2601.141 6110.350 3911.904 2587.310 2527.886 2191.102 2547.737 16581.878 7454.931 12577.559 3379.672 1609.491 2074.868 6231.893 1914.783 11995.041 4674.358 2089.116 0.000 12636.600 10668.672 6567.500
11205.550 13816.905 13131.113 6234.855 12899.975 5457.774 12305.212 13363.840 12964.755 13786.358 13328.894 13659.258 12901.017 13331.446 12979.128 20946.075 12855.824 13009.343 6555.554 13321.908 12456.481 13358.760 13143.314 16748.268 12697.234 12866.668 15352.993 13442.434 12925.659 6865.556 12954.528 15030.764 12976.766 13482.781 13095.959 19497.296 13090.971 13333.691 17264.547 18021.457 13850.551 11735.269 18755.895 6900.693 9523.003 15682.849 13837.775 20745.149 13067.658 11566.773 15305.766 15563.526 10473.527 18424.932 13397.049 13482.499 13036.986 13248.348 13216.248 15875.661 11685.918 19118.683 6635.148 14908.055 15943.460 12642.420 6720.430 11719.585 13061.952 12962.200 14396.448 13670.408 20496.530 14075.684 12884.557 15273.981 13400.493 13019.175 13820.144 13190.587 12957.287 12287.825 18776.988 12633.326 13406.022 12360.430 14617.032 12192.676 12669.074 13917.006 13102.888 16742.439 7499.333 12000.235 18253.024 12814.690 13209.507 12962.784 7393.225 11131.819 13146.951 14615.778 15225.704 7754.730 13642.969 10040.863 11470.733 21192.414 14638.714 12675.945 14011.603 14179.988 18782.882 14305.256 12840.159 13007.146 13995.436 9130.466 13004.749 11885.785 15220.978 11847.011 14034.622 21908.762 13701.404 11153.267 16825.276 13660.417 10906.439 12786.786 11363.562 15467.860 13112.059 22255.985 12204.019 13978.543 13912.046 14690.163 15967.801 11958.387 13385.826 13477.442 13405.863 14012.408 14252.009 16838.978 8377.758 15638.285 12887.361 10490.990 13537.264 15293.260 6546.575 13519.014 15407.903 11869.788 15427.306 21650.346 13273.477 14675.348 14089.947 20624.471 13271.889 15299.760 13243.275 13712.534 13653.110 13007.274 13672.961 6568.400 17285.689 23645.004 12937.399 12667.675 13200.092 15663.433 12292.667 23062.486 13483.304 13214.340 12640.636 0.000 4886.241 17634.945
8390.946 10912.848 10456.168 8586.276 10834.808 5978.880 10794.410 11376.928 10542.540 12050.719 10988.795 11761.651 10506.901 11907.705 10304.183 17742.974 10868.912 10669.244 7076.660 10424.871 9464.858 11461.153 11507.329 13545.166 11273.493 10879.756 12149.891 11102.335 10585.560 8660.103 10824.026 13607.023 10787.072 11495.869 9892.857 16294.194 10750.872 10993.592 18521.231 16597.716 11863.639 10224.467 17332.154 8593.182 8195.343 12479.747 11819.304 19321.408 9864.557 8363.671 12102.665 12360.425 9145.866 19681.616 11410.137 11142.399 10954.752 10955.232 11580.262 14451.920 9602.338 17694.942 8848.409 11704.953 12740.359 9967.475 8933.691 8516.483 10721.853 10287.255 11721.503 11683.496 18509.618 12651.943 10462.342 12070.879 11413.581 10679.076 12396.403 10897.471 10282.341 10288.501 17353.246 10634.002 10501.964 10361.107 11413.930 10193.353 9994.129 10713.905 11181.976 15318.698 8328.349 8797.133 15049.923 10474.591 11785.766 10745.467 5969.484 7928.717 10897.122 11412.676 12022.602 6330.989 11624.498 8617.122 8267.632 18279.365 11654.665 10653.590 12587.861 16393.249 19665.474 11102.155 10165.213 10332.201 10792.335 5927.365 11017.837 8682.683 12017.876 8643.909 11694.523 19921.850 11026.459 9729.526 13622.174 10985.472 9575.335 10641.347 9852.761 12264.758 11125.147 20269.073 10780.278 10775.441 11010.816 11487.061 12764.699 10534.646 11962.085 11490.530 11982.122 12025.497 11457.133 13635.876 7050.097 14214.544 10547.261 6094.753 11197.164 12090.158 8759.836 11178.914 12204.801 8878.165 12224.205 19663.434 11637.492 12335.248 12103.036 19200.730 11681.674 12096.659 11819.533 11372.434 11313.011 11271.635 11332.862 7089.506 14082.587 21658.092 9734.297 10690.025 10859.993 12460.332 10781.865 21075.574 12059.563 10874.240 9965.691 4974.542 0.000 15648.033
6811.091 5990.095 5648.738 18119.713 4920.578 20464.916 5641.832 4426.023 5217.777 5869.199 5126.951 5192.912 5154.039 6893.923 5712.549 17923.182 5017.597 4846.846 21562.696 6188.315 6564.148 4892.415 5882.795 10774.877 6397.418 4994.027 9379.602 4769.697 4879.403 13931.148 4760.263 8852.700 4872.843 4307.082 9742.179 16474.403 4758.075 4893.085 18393.260 11691.373 3772.809 6420.463 12425.810 13864.227 8304.171 11327.217 3926.349 14415.064 13674.726 7950.244 9638.069 9989.353 7386.833 17986.037 4392.814 4453.234 4808.778 4669.236 5955.728 9096.546 6281.711 12788.599 16937.527 10045.993 11444.259 5678.057 17022.809 7013.387 4799.794 5479.825 4262.851 4386.382 2861.585 7876.137 5137.579 9300.590 4396.258 4829.871 7901.338 4611.476 6421.476 5387.421 12446.903 5318.982 6272.429 5376.887 10449.008 5482.569 5235.485 7327.715 4833.813 10686.880 21505.794 13789.681 11343.682 5055.778 6811.187 4776.011 11292.698 7313.382 4567.840 15508.007 9252.313 10319.748 4181.880 8373.481 6995.194 9107.802 6713.827 5300.728 7987.284 24482.367 17612.420 7153.709 5994.402 5524.771 7212.808 10413.458 4692.826 8315.320 9849.123 8515.871 4443.803 4273.817 5890.736 7404.492 7243.376 5849.748 7136.329 5288.485 6274.253 9494.469 4754.644 4621.040 7488.796 7229.701 5987.159 9402.847 10393.627 7464.015 6945.851 4633.026 6461.861 3558.305 6327.122 10865.586 9540.750 8955.222 4961.685 13393.991 4731.741 9319.869 16848.954 4349.443 9434.511 6146.852 9946.233 4015.401 5825.591 4979.697 3635.844 14294.387 5822.763 10097.263 6999.183 4144.542 4483.539 5659.188 4774.946 21575.541 10961.009 6269.116 8365.415 5790.000 4998.149 10089.260 5717.555 5686.599 8061.983 4716.511 5676.273 17630.263 15721.599 0.000
NODE_COORD_SECTION
1 -534.872430 -1144.475237
2 -176.923345 -3173.572590
3 584.221036 -2287.989579
4 -1143.745369 8179.862979
5 863.084836 -2168.808606
6 -5615.117149 8858.239590
7 1134.565931 -1473.359338
8 1232.316100 -2491.563428
9 467.746692 -2168.375089
10 2380.638254 -1335.030605
11 598.360783 -2399.775129
12 1520.099002 -1619.724372
13 607.757738 -2184.204855
14 2403.319670 -183.840541
15 224.963818 -2766.591220
16 -8167.688192 -9633.201813
17 1096.593482 -2172.027313
18 764.255104 -2396.131674
19 -5458.075645 9928.753596
20 -169.979396 -2652.604886
21 -29.704437 -1818.713034
22 1659.142605 -1839.236554
23 1571.333890 -1123.689550
24 -3498.969340 -6138.734951
25 1562.295041 -550.414064
26 907.862558 -2222.966611
27 -2919.495291 -4577.975364
28 1074.755238 -2699.703534
29 703.450798 -2298.805077
30 -214.703337 5145.323579
31 909.922955 -2278.431760
32 3507.265064 420.286273
33 828.268769 -2201.465844
34 1158.661007 -2584.287557
35 -2731.348487 -2485.057010
36 -7876.485947 -8667.125298
37 830.582547 -2448.953311
38 739.936471 -2589.379979
39 8795.498860 7748.051123
40 6876.075528 1416.374097
41 1572.210028 -2851.746767
42 750.750735 -1172.123375
43 7671.636911 1661.197345
44 -258.319685 4998.205104
45 -648.916073 155.081616
46 -4805.357887 -4654.120547
47 1421.715954 -2805.135700
48 9266.145811 2802.676667
49 -6724.730126 -3681.098919
50 -1866.057739 -1317.160684
51 -3476.241336 -4581.442897
52 -3691.976435 -4860.128031
53 -59.557441 -410.027474
54 9401.443194 7162.227546
55 1210.219189 -2516.326774
56 1053.825850 -2485.772373
57 1008.166087 -2296.159421
58 912.749372 -2489.064416
59 1576.963508 -1057.727489
60 4808.659653 -187.241085
61 381.873599 -1600.785439
62 7903.465980 1468.634573
63 207.447301 7194.837007
64 -3504.784684 -4305.122480
65 -4685.837135 -5186.789530
66 428.572131 -2162.974930
67 274.167017 7174.549910
68 -933.945567 -1501.199503
69 802.721777 -2360.483708
70 468.139397 -2346.822879
71 1059.165639 -3255.761163
72 1750.247596 -2593.969804
73 4079.881215 -5166.415860
74 3088.151272 557.421264
75 528.064781 -2221.067205
76 -2884.859338 -4675.137170
77 1212.801640 -2518.605342
78 772.327908 -2407.092527
79 2903.545676 624.722501
80 935.063085 -2439.521132
81 -393.165026 -2565.521633
82 669.719154 -1960.134950
83 7721.832543 1742.299207
84 709.254730 -2144.148112
85 -378.363583 -2944.408450
86 656.758914 -1973.232888
87 -4322.425248 -4370.518909
88 724.554756 -1884.062148
89 454.314228 -2156.836117
90 -1323.162849 -3306.448354
91 1488.901608 -2015.195043
92 4936.972743 2509.876118
93 -3873.089881 9729.914339
94 -6616.617691 -2656.428213
95 -3884.667260 -7160.645495
96 612.891793 -2263.605883
97 2383.119070 -128.938952
98 831.619006 -2281.411690
99 -1713.198186 2623.316407
100 -1019.927827 -999.071352
101 967.548472 -2410.387923
102 -8629.890298 -3727.117941
103 -2897.788356 -4689.038847
104 -1328.223036 1768.938520
105 1342.412065 -2702.561568
106 -10.205570 375.296669
107 -832.402396 -1285.533882
108 -1687.588217 -8428.414043
109 -751.005926 -3656.973317
110 640.647440 -2041.474217
111 3067.369062 661.048735
112 7278.496950 9574.140485
113 9261.328136 6994.726738
114 -1340.151327 -3585.416708
115 118.652651 -2457.181913
116 501.525045 -2376.915346
117 -1259.997983 -3270.619237
118 -3182.399644 -43.101328
119 1458.592522 -2038.760707
120 -1972.817181 -1464.033528
121 -2628.585155 -4069.896990
122 -2315.520922 -1842.929078
123 1107.622874 -2968.886490
124 7034.592274 -5387.999650
125 257.957228 -2978.901541
126 359.434757 -240.540350
127 -804.049545 -5498.948550
128 245.139931 -3045.396080
129 273.277091 -543.777098
130 581.777664 -2079.891463
131 596.033752 -1249.030134
132 -2862.853022 -4623.640455
133 1194.360102 -2310.499700
134 5064.574506 -5955.418557
135 1421.726256 328.629399
136 -1275.811196 -3276.563724
137 -167.901306 -3333.598629
138 -3306.921315 -3943.383523
139 -4035.926836 -4507.055617
140 1128.352616 298.715292
141 2567.692855 -134.798365
142 1706.589321 -2414.878887
143 2238.861835 -436.040951
144 1673.610352 -3067.910577
145 -506.892411 -3602.323309
146 -3543.038501 -6184.357074
147 -1203.856991 1131.983552
148 4543.830283 -63.856540
149 673.121753 -2320.365542
150 -6615.232748 -284.273285
151 1008.883020 -2770.167022
152 -3097.048336 -4680.388407
153 170.800461 7425.884139
154 1141.986105 -2732.665553
155 -3181.222828 -4733.529849
156 -159.919883 -1668.012405
157 -3419.750981 -4371.643929
158 6794.558709 -5403.922817
159 1684.820863 -1034.784382
160 1515.633570 -3218.640301
161 1734.141561 -3133.797876
162 9191.702443 2742.046868
163 1715.363704 -1002.868151
164 -3847.565660 -4398.818867
165 2479.465050 -11.152867
166 1295.906597 -2849.679275
167 1249.299346 -2812.856901
168 1491.178719 -1378.191513
169 928.058284 -2770.769503
170 -5490.370972 9910.761704
171 -3664.785259 -6563.577792
172 8380.088204 -1733.655401
173 -1889.726756 -2561.708180
174 967.275747 -1392.164164
175 631.391599 -2501.430552
176 -3766.840264 -4946.619441
177 1178.514110 -1443.722418
178 7992.199959 -3969.054208
179 2415.671911 741.126392
180 921.377639 -2514.911374
181 376.178211 -2040.585343
182 -4480.304490 5208.713014
183 -4766.589917 3890.147968
184 3990.670496 -3980.249435
DEMAND_SECTION
1 0
2 99
3 43
4 42
5 45
6 6
7 53
8 32
9 11
10 70
11 29
12 10
13 36
14 87
15 80
16 98
17 2
18 22
19 45
20 67
21 82
22 8
23 90
24 92
25 84
26 7
27 88
28 24
29 7
30 33
31 6
32 53
33 31
34 5
35 83
36 70
37 13
38 14
39 87
40 75
41 26
42 74
43 75
44 20
45 13
46 100
47 9
48 54
49 89
50 42
51 72
52 61
53 38
54 84
55 34
56 47
57 10
58 24
59 69
60 79
61 40
62 77
63 31
64 59
65 93
66 12
67 28
68 62
69 4
70 43
71 47
72 47
73 9
74 80
75 18
76 56
77 23
78 13
79 75
80 39
81 69
82 12
83 67
84 47
85 87
86 48
87 74
88 47
89 37
90 79
91 16
92 61
93 16
94 52
95 88
96 46
97 72
98 46
99 50
100 33
101 40
102 70
103 93
104 11
105 2
106 29
107 22
108 95
109 63
110 20
111 92
112 53
113 82
114 71
115 51
116 32
117 78
118 22
119 13
120 22
121 54
122 86
123 5
124 47
125 78
126 29
127 80
128 59
129 44
130 6
131 61
132 82
133 40
134 25
135 56
136 80
137 74
138 86
139 53
140 79
141 76
142 46
143 55
144 35
145 79
146 69
147 42
148 70
149 6
150 37
151 10
152 66
153 9
154 48
155 54
156 94
157 74
158 41
159 97
160 33
161 10
162 90
163 88
164 95
165 71
166 42
167 41
168 97
169 39
170 5
171 51
172 10
173 66
174 84
175 42
176 81
177 80
178 40
179 78
180 7
181 15
182 40
183 23
184 20
DEPOT_SECTION
1
-1
EOF
