NAME : mamut-sao_paulo-n123-k9-poi
COMMENT : Mamut2026 shortest metric; city sao_paulo; No of trucks: 9 (lower bound, fleet not fixed); 3-decimal seconds/meters; ENU ref in mamut-sao_paulo-n123-k9-poi.vrp.json
TYPE : CVRP
DIMENSION : 124
EDGE_WEIGHT_TYPE : EXPLICIT
EDGE_WEIGHT_FORMAT : FULL_MATRIX
CAPACITY : 721
EDGE_WEIGHT_SECTION
0.000 27193.358 5497.391 6199.179 11586.011 5269.140 6004.457 9917.151 4926.272 8651.881 7364.626 8939.753 10080.510 11679.709 9884.339 28394.443 7771.183 10761.156 13390.845 11279.289 16115.125 9192.435 14778.483 14514.075 17671.675 45467.049 12118.805 19626.190 65615.099 19525.950 59959.461 20578.147 8897.145 11750.283 12322.949 22698.101 58212.711 6904.997 9158.086 5745.147 15587.593 6123.017 20317.452 10928.610 12518.937 7655.398 10959.137 8540.865 6064.009 24388.727 15443.422 7816.737 6226.673 6824.198 6699.353 10165.732 7504.201 15637.912 30486.749 10120.131 63685.494 7195.665 6845.328 9432.309 9128.557 7019.694 38909.597 15173.097 74328.113 13917.347 7702.833 8977.552 31640.904 11388.811 9731.850 8427.904 9005.386 3036.165 6358.029 17626.772 14662.938 8317.976 8755.037 16354.790 26808.403 9179.028 12793.482 12062.992 26441.307 5359.233 2899.005 10081.799 13215.078 15430.540 13890.741 11935.460 12346.947 5487.501 4207.605 11710.215 12256.472 9003.497 5678.977 13692.867 14500.525 45128.496 12693.230 6260.857 13160.873 13552.053 62295.265 8511.215 11274.838 3348.569 4099.311 12610.626 13472.401 12450.881 9721.701 32281.452 16751.423 5972.161 6807.981 36384.598
26974.215 0.000 22190.048 26439.508 38086.458 24135.454 24338.241 25571.323 22934.298 24239.252 27050.789 28184.139 32192.307 23151.183 29128.726 51972.022 32139.603 18038.920 36317.230 19989.079 36629.756 23177.993 36119.056 36996.216 14362.892 35314.547 30100.443 16054.066 81501.170 42942.438 75845.532 42252.237 25283.236 23401.225 19584.372 19775.709 74098.782 26151.299 29011.061 21624.882 36071.440 21504.472 41991.542 20687.815 34663.273 21072.300 20895.908 24086.293 25229.884 50397.212 36553.466 29011.995 24560.457 33324.645 33199.800 25819.904 20062.446 19794.551 55406.021 22900.563 79571.566 31574.898 26518.367 23345.404 18435.651 26265.996 51992.510 41673.544 90214.185 32307.607 32071.253 30345.076 32840.668 32584.069 34101.841 30386.180 31097.980 29536.611 21422.662 36608.838 36961.779 29513.234 34490.858 34346.568 23745.440 35021.461 29573.127 18206.679 36852.457 25308.143 25037.332 25878.893 35667.196 36733.381 36732.518 23406.934 19267.089 22620.222 24953.418 22047.098 26249.855 21472.868 22592.481 32172.534 34243.298 66364.237 39193.677 26413.693 25961.261 26457.048 78181.336 25808.005 32470.096 29779.719 28818.792 17836.288 26932.425 33344.968 23634.797 53517.193 40167.911 29396.885 24339.919 62677.407
5304.573 22362.374 0.000 6339.411 16526.606 3713.155 4277.167 8129.562 744.250 6803.065 7458.327 9198.385 14522.356 7989.536 10142.971 32313.361 12213.029 6825.456 17832.691 8130.230 17055.378 6241.640 16460.395 17337.555 12870.604 41531.349 11919.604 15501.983 68082.976 23283.777 62427.338 25019.993 7121.127 8060.111 7835.415 18762.401 60680.588 6076.639 12461.351 2496.799 16497.062 2327.600 24759.298 6441.076 16960.783 2773.163 6473.050 6669.356 5129.788 29329.322 16979.088 9353.334 4499.383 11764.793 11639.948 8378.143 3684.403 11439.708 35365.788 6429.958 66153.371 10729.643 6418.271 6481.514 4094.199 6191.336 37088.019 20113.692 76795.991 14126.768 12144.679 10686.415 27485.075 12925.408 14173.696 10727.519 12469.599 7976.759 2174.406 21811.845 17303.118 9854.573 13418.235 16656.362 22872.703 13921.747 15929.200 8222.476 23494.813 4867.179 3606.046 8305.780 16008.535 17074.720 18332.587 8245.287 9197.887 1092.323 4181.411 7981.244 10160.001 4905.061 2400.360 13991.694 18375.055 49536.700 17633.825 8190.006 14151.090 11013.124 64763.142 6783.924 12811.435 8222.156 8541.157 8674.926 15077.025 16517.431 6770.906 36689.656 20509.250 9177.105 4964.869 41325.193
5915.568 27021.875 6888.263 0.000 14318.378 3108.581 3571.548 4753.990 6417.678 4681.267 2064.700 3898.476 15614.087 8209.915 4843.062 25973.951 13304.760 12735.802 17969.734 14040.576 11070.227 5720.221 10120.984 10998.144 16177.406 47441.695 7073.907 21640.568 71117.311 16944.366 65461.673 25836.937 3861.239 8280.490 9670.297 24672.747 63714.923 1798.120 15073.653 8407.145 10542.695 8237.946 25576.242 8275.958 17675.881 9170.565 8306.485 4904.051 2060.459 27837.054 10640.608 3013.923 3312.064 10208.319 7455.774 4698.949 9594.748 12576.067 29322.672 7149.757 69187.706 5135.390 1348.725 5957.837 9477.106 1912.817 33868.320 17888.238 79830.326 8872.450 13236.410 4347.004 28053.825 6585.997 14614.189 4388.108 14554.099 6860.195 8123.154 23160.349 10963.707 3515.162 8051.351 11309.892 28783.049 8581.953 18709.050 14132.822 21397.444 2167.908 5128.644 4647.284 9669.124 10735.309 18271.051 8465.666 15108.233 7002.669 2718.701 8510.363 7136.165 6457.485 4835.432 8647.970 20034.102 50662.073 15466.713 11695.515 18663.086 9336.781 67797.477 3522.992 6472.025 5790.699 9648.024 14585.272 18974.614 17984.458 6247.229 37815.029 14169.839 2957.378 3628.187 37444.327
11437.333 38022.150 16256.642 14101.269 0.000 14882.091 15987.365 17530.963 15771.178 17458.239 14547.483 16074.731 10855.951 20986.887 16705.917 22912.687 8592.892 21859.727 8206.427 21746.286 16656.382 18774.424 13479.059 12716.289 28482.359 55725.158 18130.749 30724.761 70031.774 16271.643 64376.135 13633.365 16638.211 21057.462 22577.726 32956.209 62629.386 15082.587 13828.454 16913.485 19034.087 17291.355 13664.907 21183.387 9962.444 18524.066 21213.914 17685.455 15344.926 14188.627 15278.658 12940.864 15727.881 5175.975 6913.002 17475.922 18602.772 25353.039 19878.520 19926.730 68102.169 9853.562 14423.726 18752.602 19939.240 15197.284 44139.452 3609.957 78744.788 18869.052 8515.380 13296.987 40468.618 14412.063 8060.525 12401.460 11287.878 8882.044 17313.516 17637.678 12865.153 12662.273 7196.347 21063.117 37066.511 6666.661 16809.599 23161.563 32503.013 14664.423 13425.209 17424.256 11893.263 13980.964 8459.630 21242.638 22795.734 16356.170 13512.794 21287.336 19913.137 19258.274 15792.495 18644.572 14852.739 40434.653 1818.285 16661.083 18730.754 22113.754 66711.940 16384.891 14468.884 9964.085 9751.072 23709.197 19042.282 12936.893 19041.994 27575.858 13639.123 11733.709 16309.189 25740.955
5217.511 24086.286 3813.343 2726.660 15511.906 0.000 1285.068 5197.762 3342.757 3932.492 3975.654 6193.375 15134.480 7145.133 7137.961 28700.611 12825.152 9660.882 18023.427 10965.655 13796.888 4473.046 12847.644 13724.805 14438.205 44366.775 8927.505 18565.648 69490.558 19671.027 63834.920 25632.117 4177.756 7215.708 8205.933 21597.826 62088.170 3011.068 13822.542 5332.225 13269.356 5163.025 25371.422 6811.593 17572.906 6095.645 6842.120 3821.476 1785.740 28314.621 13367.268 5740.583 1507.284 10750.093 9477.085 5446.343 6519.828 11520.895 32049.332 6003.114 67560.953 7862.051 3074.223 4712.920 6541.516 3125.765 35490.654 19098.992 78203.573 11134.669 12756.802 7073.665 26989.043 9312.658 14566.487 7114.769 13686.364 6962.059 5048.234 22680.741 13690.368 6241.823 10778.011 13664.263 25708.128 11308.614 17336.782 11057.902 21901.474 1172.689 3153.940 5362.409 12395.784 13461.969 18324.744 7400.884 12033.313 3927.749 1267.767 7461.048 7537.083 4886.481 1828.024 10999.595 19554.494 50182.465 16619.125 9993.472 16751.611 8832.664 66170.724 3791.825 9198.685 6748.803 9153.281 11510.352 17347.861 17504.851 5002.312 37335.421 16896.500 5684.038 2088.592 40170.988
6421.902 24495.800 4501.671 2692.465 16808.139 1719.502 0.000 4010.615 4031.085 2745.345 3466.087 5206.145 16248.761 5957.986 6150.731 28387.321 13939.434 10349.210 19319.660 11653.983 13063.138 3366.680 12534.354 13411.514 13570.451 45055.103 7740.358 19071.856 70604.840 19357.736 64949.202 26746.398 2990.608 6028.561 7169.982 22286.154 63202.452 2206.118 14936.824 6020.553 12504.822 5851.353 26485.704 5775.643 18687.188 6783.973 5806.170 2634.329 1566.957 29610.855 12986.848 5427.293 320.137 12046.326 10038.543 4259.195 7208.156 10339.604 31821.320 4913.295 68675.235 7718.159 2707.613 3606.554 6951.030 2320.815 34303.507 20395.225 79317.855 9947.522 13871.084 6760.374 25801.896 8999.367 15862.720 6801.478 14800.646 8258.292 5736.562 23795.023 13377.077 5928.532 10634.120 12477.116 26396.456 11164.722 18451.064 11746.230 20714.326 1956.394 4268.222 4175.262 12082.494 13148.679 19620.977 6213.737 12721.641 4616.077 2611.054 6273.900 6349.936 3850.530 2309.357 9812.448 20668.776 51296.747 17915.358 11107.754 17674.843 7645.517 67285.006 2604.678 8885.395 7905.622 10267.562 12198.679 18462.142 18619.132 3895.947 38449.703 16583.209 5540.147 901.445 40027.096
9969.659 25411.552 8393.214 4370.065 17483.859 5621.613 4416.664 0.000 7933.196 1504.813 3701.999 3003.464 19567.450 3836.312 3948.050 28623.232 17258.123 14251.320 21919.583 15556.094 11610.133 2842.616 11783.188 12764.022 13065.893 47609.923 4811.865 21498.406 74506.950 19593.648 68851.312 29790.300 1904.827 3906.886 6944.225 25034.808 67104.562 4290.680 18838.935 9922.663 10791.692 9753.464 29529.605 5552.695 21629.244 10137.150 5485.744 1732.028 4744.991 31002.535 11533.844 5663.204 4410.175 13471.172 10621.255 248.581 11110.266 8602.850 32057.231 3176.540 72577.346 8300.871 3777.134 2563.994 9691.491 4405.377 30570.961 21053.718 83219.965 7019.029 17189.773 6730.958 23765.919 8242.458 18567.552 7037.390 18507.462 10669.402 9638.672 27113.712 12729.585 6164.444 11216.832 9548.623 29145.110 11747.434 22353.174 15648.340 17186.334 5400.082 8170.332 728.003 12318.405 12298.857 22220.900 4092.063 16623.751 8518.187 6701.093 4537.146 2407.001 5331.940 6088.343 6883.956 23987.465 54615.436 18632.194 15009.864 21576.953 4607.617 71187.116 2483.048 8237.902 9422.753 13601.388 16100.790 22364.253 21937.821 2516.214 41768.392 16189.479 6122.859 3553.204 40609.808
4560.322 23190.195 1333.650 5743.392 15782.355 3117.137 3681.148 7593.842 0.000 6328.573 6862.308 8602.366 13778.106 8622.865 9546.953 31717.343 11468.778 6749.709 17088.440 8054.483 16459.359 6826.600 15864.376 16741.537 13652.654 41455.602 11323.585 15654.475 67338.726 22687.759 61683.087 24275.743 6573.836 8693.439 8700.826 18686.654 59936.338 5480.621 11717.101 2421.052 15901.043 2251.853 24015.048 7306.487 16216.532 3184.472 7338.461 6217.557 4533.769 28585.071 16383.070 8757.315 3903.364 11020.543 10895.698 7842.423 3608.655 12305.119 34621.537 7063.287 65409.121 9985.393 5822.252 7066.474 4857.384 5595.318 37721.348 19369.441 76051.740 13530.749 11400.428 10090.396 28350.486 12329.389 13429.446 10131.500 11725.349 7232.509 2137.061 21067.594 16707.099 9258.555 12673.984 16060.343 22796.956 13177.496 15184.950 8146.729 24128.142 4271.160 2861.795 7758.490 15412.516 16478.701 17588.337 8878.616 9122.140 1016.576 3585.392 8653.371 9933.164 5770.471 2873.281 13395.676 17630.805 48792.450 16889.574 7445.755 13773.515 11228.744 64018.892 6187.906 12215.417 7477.906 7796.907 8599.179 14607.402 15773.181 7355.866 35945.406 19913.232 8581.087 4484.672 40580.942
8819.200 23960.970 6888.401 3986.864 17390.675 4116.800 2911.851 1450.314 6428.383 0.000 3671.729 3944.887 18646.059 3550.873 4889.473 28592.963 16336.732 12746.507 21683.542 14051.281 12541.949 1337.803 12631.761 13508.922 12012.491 46159.341 6257.176 20047.824 73002.138 19563.378 67346.499 29143.696 1043.984 3621.447 5493.643 23584.226 65599.750 3854.155 17334.122 8417.850 11983.634 8248.651 28883.001 4102.113 21084.486 8632.338 4035.162 227.215 4008.743 30909.352 12465.660 5632.935 2905.363 13377.988 10528.071 1698.894 9605.454 7932.491 32026.962 2506.181 71072.533 8207.687 3393.933 1298.797 8240.909 3968.852 31900.419 20960.535 81715.152 8464.340 16268.382 6966.016 23394.783 9096.774 18260.017 7007.120 17197.944 10433.360 8133.860 26192.320 13474.484 6134.174 11123.648 10993.934 27694.529 11654.250 20848.362 14143.527 18307.213 4541.620 6665.519 1639.641 12288.136 13230.673 21984.859 3806.623 15118.938 7013.374 5196.280 3866.787 3799.413 3881.359 4583.530 8329.266 23066.074 53694.044 18539.010 13505.051 20072.141 5238.403 69682.304 1853.875 8982.802 9186.711 12664.860 14595.977 20859.440 21016.430 1588.190 40847.000 16788.852 6029.675 2048.391 40516.624
6739.426 27550.146 7720.664 1530.947 14253.626 4152.682 4111.406 4164.223 7250.079 4091.500 0.000 3125.293 16337.218 7620.148 4069.879 25294.315 14027.890 13568.203 18689.350 14872.977 10306.248 5429.303 9441.348 10318.509 16103.991 48274.096 6041.799 22291.287 71954.717 16264.731 66299.078 26560.067 3445.808 7690.722 9585.142 25505.148 64552.329 2512.265 15849.544 9239.546 9778.716 9070.347 26299.372 8193.612 18399.011 10002.967 8126.662 4318.715 2774.604 27772.302 9960.973 2334.287 4026.209 10240.939 7391.022 4109.182 10427.149 11986.300 28728.314 6559.990 70025.112 5070.638 1781.157 5385.862 10191.251 2626.963 32604.947 17823.485 80667.731 8108.471 13959.540 3667.369 27285.047 5906.362 15337.319 3708.473 15277.230 7439.169 8955.556 23883.479 10284.072 2835.527 7986.599 10545.913 29615.450 8517.201 19484.941 14965.223 20009.413 3095.174 6380.042 4057.516 8989.489 10055.673 18990.667 7875.899 15940.634 7835.070 3970.099 7920.596 6338.291 6536.044 5549.578 7883.991 20757.232 51385.203 15401.961 12600.474 19500.491 8593.276 68634.883 3411.309 5792.389 6192.520 10371.155 15417.673 19812.019 18707.589 5675.255 38538.159 13490.204 2892.626 3706.746 37379.575
10924.073 29010.503 10656.870 5613.438 17449.665 7575.876 6710.009 3598.951 10186.284 5103.763 4745.925 0.000 20521.864 7348.154 944.586 26534.213 18212.537 16504.408 22497.244 17809.182 9349.579 6441.567 9522.633 10528.172 16664.843 50996.156 3679.064 24884.638 76139.363 17504.629 70483.725 29991.720 4895.356 7418.728 10543.175 28421.041 68736.975 5772.904 20034.191 12175.751 8791.263 12006.552 30023.262 9151.645 22583.658 12709.635 9084.695 5330.979 6197.798 30968.341 9273.289 5152.597 6762.317 13532.617 10570.525 3384.355 13363.355 12201.801 31002.061 6775.491 74209.759 7657.872 4895.419 6162.945 12961.409 5887.601 30242.213 20328.157 84852.378 5886.228 18144.187 4941.316 25724.218 5981.904 19521.965 5589.199 19461.876 11424.947 11891.761 28068.125 10493.735 5109.273 10726.685 8415.822 32531.343 11257.288 23669.587 17901.428 17773.923 6518.367 10296.640 3981.272 10416.741 10038.303 22798.561 7603.905 18876.839 10771.275 7864.633 8136.097 4777.462 8837.036 8464.556 5751.155 24941.879 55569.849 18598.000 16785.121 23685.138 7032.448 72819.529 4535.294 6127.556 10263.895 14555.801 18353.878 23996.666 22892.235 6115.164 42722.805 13953.629 6599.920 6125.100 40143.732
10517.868 32278.858 14462.739 15729.426 10466.545 15500.609 16064.620 19780.841 13722.878 18712.044 16706.195 18281.322 0.000 21641.351 19225.908 32616.131 2942.633 15524.913 5180.334 12819.969 24613.040 19252.598 22044.180 21281.411 25901.647 46213.611 21460.374 21474.364 59605.090 25088.793 53949.452 11473.532 18888.089 21711.925 21719.312 23444.662 52202.702 16824.970 4007.178 12645.560 24929.162 13379.755 11212.837 20324.973 3884.568 14983.137 20356.947 18601.028 16185.647 18928.921 23592.171 16747.601 16286.836 9780.007 12705.392 19725.800 13887.557 25323.605 28532.102 20081.773 57675.486 14922.630 16375.575 19492.472 17106.376 16939.668 48251.166 12644.216 68318.105 23258.916 2795.514 17247.967 41368.972 19660.729 2935.861 16698.320 2569.356 10353.858 13455.079 7878.656 21430.274 16613.254 14583.737 25696.359 27554.964 14156.773 6484.980 14290.232 35782.876 15480.871 13195.468 19674.134 19982.415 22546.085 5680.231 21897.102 13419.742 13701.055 14329.243 21671.858 22163.015 18788.957 15739.140 23034.436 4633.886 35515.413 10053.545 8559.001 8757.151 23612.216 56285.256 18549.842 19546.757 11324.913 6273.809 14860.931 9068.679 2584.243 19781.864 22668.369 22456.273 14787.541 16868.144 31819.700
11419.451 23305.448 7790.342 7552.671 20890.151 7323.438 6118.489 4259.629 8363.919 3579.997 7108.290 7017.591 21246.310 0.000 7962.178 32029.524 18936.983 13400.220 24556.644 15290.608 15624.261 3054.660 15797.315 16778.150 10240.945 46285.404 7504.519 20173.886 75412.854 22999.940 69757.216 31743.947 4605.023 250.042 5172.330 23710.289 68010.466 7060.793 19791.230 9905.624 13112.869 9619.413 31483.252 3665.844 23684.736 9241.492 3559.971 3433.853 7215.381 34408.827 15547.972 9069.496 6112.000 16877.464 14027.547 4262.708 10361.958 5670.591 35463.523 1590.980 73483.250 11707.163 6973.930 2816.334 8366.972 7175.490 29552.733 24460.010 84125.869 9391.732 18868.633 10402.577 20339.274 12256.586 20897.650 10443.681 19798.195 13689.641 9146.998 28792.571 16743.713 9570.736 14623.124 11268.320 27820.591 15153.726 23259.078 15259.800 15959.527 7748.257 9396.821 4742.131 15724.697 16312.985 25052.325 255.751 16358.266 8711.992 8402.918 1639.609 3578.071 4075.801 6191.846 9576.609 25666.325 56294.295 22038.485 15793.655 21311.468 3544.603 72093.020 5433.872 12252.030 12766.708 15265.111 14986.526 22282.633 23616.681 3072.105 43447.251 20203.607 9529.151 5255.029 44016.100
10674.638 28761.068 10407.434 5364.003 17151.683 7326.441 6460.574 3349.515 9936.849 4854.328 4496.490 1870.226 20272.429 7098.719 0.000 25625.807 17963.102 16254.973 22227.191 17559.747 8626.267 6192.131 8799.321 9804.860 16415.408 50746.721 2734.478 24635.203 75889.928 16596.223 70234.290 29721.667 4645.921 7169.293 10293.740 28171.606 68487.540 5523.468 19784.756 11926.316 8067.951 11757.117 29753.209 8902.210 22334.223 12460.200 8835.259 5081.543 5948.363 30698.288 8549.977 4882.543 6512.882 13262.564 10300.472 3134.920 13113.919 11952.366 30219.294 6526.056 73960.324 7387.819 4645.984 5913.509 12711.974 5638.166 29297.627 19984.104 84602.943 4941.642 17894.752 4351.036 24837.616 5258.592 19272.530 4998.919 19212.441 11154.894 11642.326 27818.690 9770.423 4839.220 10391.707 7471.236 32281.908 10922.309 23420.152 17651.993 16829.337 6268.932 10047.204 3731.837 9693.429 9314.991 22528.508 7354.470 18627.404 10521.840 7615.198 7886.662 4528.027 8587.601 8215.120 4806.568 24692.444 55320.414 18327.946 16535.686 23435.703 6705.323 72570.094 4285.858 5404.244 10014.460 14306.366 18104.443 23747.231 22642.800 5865.729 42473.370 13230.317 6350.484 5875.664 39553.414
27739.084 52010.869 31995.513 25978.575 24616.868 28427.531 28560.542 27647.001 31524.927 28178.610 25395.413 24760.456 34079.467 31219.370 25347.744 0.000 31638.369 37843.052 31016.785 38603.203 19606.274 29516.413 17028.967 16297.306 40048.564 72548.945 25318.459 46645.793 92615.481 10769.574 86959.843 33700.540 27539.071 31289.944 33672.253 49779.996 85213.093 26787.114 35330.816 33025.116 22214.929 33345.196 33732.082 32280.723 32772.802 34277.815 32213.772 28405.825 27049.453 26793.909 18098.016 22426.246 28301.058 24892.627 22660.525 27432.406 34701.998 35585.522 21581.675 30159.212 90685.876 21730.390 26128.254 29441.556 34466.100 26901.811 45011.659 22603.641 101328.496 23972.844 31560.858 21904.857 47660.204 20733.760 31671.004 21233.776 33953.148 25631.600 33230.404 40767.078 16148.443 22047.369 20733.809 25381.936 53890.299 20469.227 38966.213 39240.072 36397.865 27370.022 29536.839 27498.233 16220.547 16768.789 31269.988 31475.121 39670.861 32109.919 28322.972 31519.818 29192.529 31070.353 29824.427 24130.306 38438.989 59721.310 25615.359 33351.776 40087.804 31135.658 89295.647 27502.666 21373.119 25117.582 29519.373 39692.522 40399.332 36482.696 29498.885 46755.452 12980.746 23279.389 28241.055 31126.583
7575.234 31865.385 12381.571 12786.793 9133.812 12590.088 13154.099 16838.207 11510.634 15801.524 13763.562 15338.689 2953.194 18829.351 16283.275 30274.738 0.000 15433.183 6049.966 13984.167 21793.576 16342.077 19291.209 18528.439 24190.318 47895.738 18517.740 23088.236 62167.392 22747.400 56511.753 13105.867 15945.456 18899.926 19290.763 25126.790 54765.004 13882.337 5524.477 10934.232 21986.528 11668.427 12845.172 17896.424 5046.656 13271.809 17928.398 15690.508 13243.013 19636.820 20772.707 13804.968 13376.315 7438.614 10046.776 16783.166 12176.229 22787.554 28338.440 17269.773 60237.787 11979.996 13432.942 16581.951 15395.048 13997.034 45308.533 12337.587 70880.406 20316.283 230.553 14305.334 38790.547 16718.096 3243.822 13755.686 2983.901 7411.224 11743.751 10209.819 18677.302 13670.621 12242.344 22753.725 29237.092 11815.380 8518.123 15454.430 32840.243 12538.238 10284.948 16731.501 17229.443 19793.114 6549.862 19085.102 15033.614 11832.433 11386.609 18859.858 19220.382 16153.140 12828.620 20091.803 7373.209 37711.543 9746.916 8985.401 10439.279 20701.695 58847.558 15607.209 16604.123 8382.280 3331.176 16025.129 10750.807 5323.565 16871.344 24864.499 20114.880 11844.907 13957.624 32527.599
10511.959 17836.253 6919.650 12304.724 21542.921 9678.469 10242.480 14155.174 6691.294 12889.904 13423.640 15163.698 16240.523 13238.248 16108.284 38199.440 15398.184 0.000 20365.446 3321.482 23020.691 12004.753 22425.708 23302.869 11866.810 35051.703 17884.917 9783.298 65899.127 29249.090 60243.489 26300.454 13135.168 13488.290 10728.249 12282.755 58496.739 12041.952 13059.278 5162.627 22462.375 5042.216 26039.759 10173.034 18711.490 4668.355 10205.009 12778.888 11095.101 33753.419 22944.401 15318.647 10464.696 16781.108 16656.263 14403.755 3658.501 14267.405 40443.660 12077.077 63969.522 16142.234 12383.584 12275.773 5169.655 12156.650 42456.460 25076.104 74612.142 20092.081 15329.834 16651.728 30672.894 18890.721 17360.421 16692.832 14345.355 12993.075 5018.717 20830.191 23268.431 15819.886 18711.948 22621.675 16393.057 19135.938 13794.480 2440.470 27942.196 10832.492 9206.765 14319.822 21973.848 23040.033 20780.735 13493.998 3569.326 6157.966 10146.724 11713.202 15807.120 9410.353 9131.810 19957.008 18442.793 50412.453 22534.950 9595.055 10182.613 16660.243 62579.293 12749.238 18776.749 13466.047 12077.372 2520.914 11153.778 17393.184 12565.165 37565.410 26474.564 14804.506 11046.004 45935.987
13306.978 36992.935 18113.315 18353.121 8686.819 18120.882 18885.843 22158.778 17242.378 21391.880 19175.299 20750.426 5242.971 24561.095 21695.012 30940.381 5731.744 20238.990 0.000 17534.046 24861.387 22013.215 21684.065 20921.295 29922.062 50927.688 23436.457 26188.441 63079.646 24476.648 57424.008 9257.333 21266.027 24631.669 25022.507 28158.740 55677.258 19448.665 8721.255 16665.975 25854.061 17400.170 8996.638 23628.167 1756.017 19003.552 23660.142 21280.864 18607.989 14312.855 23483.664 17968.351 18966.671 9748.260 12516.324 22103.737 17907.972 28519.298 24832.191 23001.517 61150.042 15456.884 18999.269 22253.089 21126.792 19563.362 50147.989 9260.621 71792.661 24735.631 5654.232 18468.716 44448.431 20499.584 3513.620 17919.069 6913.055 12196.506 17475.495 9750.293 21070.158 17834.003 14040.595 27159.436 32269.042 13613.631 10356.192 19004.310 37812.035 17903.214 16016.691 22052.072 20098.269 22185.970 552.994 24816.846 18133.820 17564.177 16751.585 24591.601 24540.953 21884.883 18560.363 24511.151 7997.319 34234.380 7087.070 13312.264 13318.010 26292.051 59759.812 21012.707 20556.406 13202.876 9062.920 19575.009 13005.861 5984.765 22542.481 21387.336 21844.128 16367.296 19547.980 27203.634
11604.269 19832.121 8121.155 13506.229 22152.873 10879.973 11443.985 15356.679 7892.798 14091.409 14625.145 16365.203 12919.041 15516.388 17309.789 39387.769 13828.655 3321.482 17043.964 0.000 24222.196 13768.491 23627.213 24504.373 14785.851 34758.976 19086.422 9693.762 62584.397 30450.595 56928.759 22978.972 14336.673 15586.962 13760.266 11990.028 55182.009 13243.457 9737.796 6364.132 23663.880 6243.721 22718.277 13081.925 15390.008 6476.236 13113.899 13980.393 12296.606 31123.947 24145.906 16520.152 11666.201 17817.525 17692.680 15605.260 5461.636 17186.446 40747.155 13956.810 60654.792 17343.739 13585.089 14008.365 8268.131 13358.155 44614.871 24859.269 71297.412 21293.586 13760.305 17853.233 33704.911 20092.226 15150.914 17894.337 11500.158 14029.491 6319.046 17515.461 24469.936 17021.391 19748.364 23823.180 16100.330 20172.354 10479.750 1703.412 30974.213 12033.997 10408.270 15521.327 23175.353 24241.538 17459.253 15772.139 1546.853 7359.471 11348.229 14622.093 17686.853 11823.803 10435.564 21158.512 15121.312 47090.972 22268.599 7448.651 6867.883 18539.976 59264.563 13950.743 19978.254 14502.463 13113.789 2274.111 7839.048 14071.702 14297.758 34243.928 27676.068 16006.011 12247.509 44014.725
15287.869 35314.269 16191.677 10130.701 15489.527 12752.436 12244.817 10678.507 15721.091 11353.299 9253.790 7713.063 23323.555 14210.348 7736.924 19411.671 20882.457 22039.216 23117.583 23343.989 0.000 12691.102 2485.545 3663.121 23223.253 56536.215 7394.301 30424.697 80503.159 9457.133 74847.521 28701.585 10770.229 14280.922 16846.941 33961.100 73100.771 11105.906 23788.916 17710.559 3185.632 17541.360 28733.128 15455.411 24343.681 18249.694 15388.461 11580.514 11374.359 29171.891 1048.342 8062.759 12466.152 14256.107 11118.625 10463.912 18898.162 18760.210 28284.827 13333.901 78573.554 9465.423 10228.421 12616.245 18501.468 11220.603 28366.709 17981.815 89216.174 6022.108 20804.946 6842.594 29589.846 4427.711 21281.989 7490.476 22411.248 13953.521 17426.568 30468.015 3628.683 7913.979 10639.395 6352.639 38071.402 11049.369 27424.313 23436.236 17714.732 11694.928 14964.246 10665.267 4578.027 2591.593 23370.785 14466.098 24411.647 16306.083 12554.303 14694.507 11277.787 14663.727 13999.363 6179.571 27683.076 55502.874 16886.506 21148.917 28048.933 13220.916 77183.325 10677.354 4841.667 13031.239 17977.473 23888.686 28360.462 25726.784 12673.574 42644.079 6660.816 10265.849 11834.429 37520.715
9468.453 22893.999 6118.771 5028.655 18693.242 4766.053 3587.288 3083.814 6692.349 1681.940 5072.347 5556.107 19295.312 3112.383 6500.693 29993.581 16985.985 11932.653 22366.210 13619.038 13978.193 0.000 13917.749 14794.910 10945.520 45074.352 7799.905 18962.835 73651.391 20963.996 67995.752 29792.949 2417.537 3182.958 4426.671 22499.237 66249.002 4536.777 17983.375 8234.054 13419.878 7947.842 29532.254 3035.141 21733.738 7602.016 2968.191 1533.997 4691.365 32211.919 13901.904 7033.553 3580.799 14680.555 11830.639 3332.395 8722.482 7107.847 33427.579 1669.972 71721.786 9510.255 4696.500 898.363 7155.920 4651.474 31923.379 22263.102 82364.405 10007.069 16917.635 8366.634 23110.840 10382.763 18909.270 8407.738 17847.197 11304.843 7475.428 26841.573 14760.473 7534.792 12426.215 12536.663 26609.539 12956.817 21497.614 13620.323 18330.173 5217.056 7314.772 3273.142 13688.754 14532.074 22667.527 3368.134 14686.695 7040.422 5871.717 3180.150 4728.427 2796.369 4263.542 9871.996 23715.327 54343.297 19841.577 14122.085 19639.898 5848.484 70331.556 3156.442 10268.790 10489.278 13314.113 13775.475 20611.062 21665.683 1187.755 41496.253 18189.469 7332.242 2723.828 41819.191
14418.325 36137.193 16574.871 10385.154 13003.982 13006.889 12787.139 11644.614 16104.286 12176.223 9529.897 8730.218 21544.695 15216.983 8754.079 17293.852 19103.597 22422.410 20808.657 23727.184 3177.322 13514.026 0.000 1177.575 24046.177 57078.537 8411.455 30967.020 79294.722 8151.973 73639.083 26216.040 11536.684 15287.557 17669.866 34359.355 71892.333 11366.472 22010.056 18093.753 5555.028 17924.554 26247.582 16278.336 22559.355 18792.016 16211.385 12403.438 11628.811 26686.346 1799.599 7510.446 12880.416 12477.247 9339.765 11430.018 19281.356 19583.134 25799.281 14156.825 77365.117 8308.441 10512.193 13439.169 19043.790 11481.170 30736.104 15496.270 88007.736 7053.782 19026.086 6290.281 30783.710 4063.912 19503.129 6528.235 20632.389 12310.840 17809.762 28689.155 1143.138 7341.828 8828.406 8722.034 38469.657 8563.824 25645.453 23819.430 20084.127 11949.381 15218.699 11495.846 2092.482 810.516 21061.860 15472.733 24794.841 16689.277 12808.756 15517.431 12294.942 15211.777 14403.785 7211.244 25904.216 53017.329 14400.961 20031.016 26767.044 14238.071 75974.887 11500.278 4764.529 11796.823 16198.614 24271.880 27078.572 23947.924 13496.498 40158.534 4542.996 9537.212 12382.479 35035.170
13873.787 36986.148 17423.826 11234.109 12276.972 13855.844 13636.094 12493.569 16953.241 13025.178 10378.852 9607.024 21000.158 16065.938 9657.403 16526.614 18559.059 23271.365 20081.648 24576.139 4129.986 14362.981 1073.264 0.000 24895.132 57927.492 9314.779 31815.975 78750.184 7384.735 73094.545 25489.031 12385.639 16136.512 18518.821 35208.310 71347.796 12215.427 21465.519 18942.708 6594.041 18773.509 25520.573 17127.291 21832.346 19640.971 17060.340 13252.393 12477.766 25959.336 2610.881 8359.401 13729.371 11932.709 8795.228 12278.974 20130.311 20432.090 25072.272 15005.780 76820.579 7865.092 11361.148 14288.124 19892.745 12330.125 31775.117 14769.260 87463.198 7957.106 18481.548 7139.236 31687.034 4967.237 18958.591 7223.017 20087.851 11766.303 18658.718 28144.618 148.863 8036.610 8101.396 9761.047 39318.612 7836.814 25100.915 24668.385 21123.140 12798.336 15671.542 12344.801 1788.151 1264.675 20334.851 16321.689 25643.796 17538.232 13657.711 16366.386 13198.266 16060.732 15252.740 8114.568 25359.679 52290.319 13673.951 19486.479 26222.507 15141.395 75430.350 12349.234 5667.853 11252.285 15654.076 25120.835 26534.035 23403.386 14345.453 39431.524 3775.758 9414.092 13231.434 34308.160
18117.096 14235.523 13306.634 15477.414 29048.899 14452.984 13524.870 12959.313 14050.884 12254.134 15782.427 15743.684 26513.733 9954.453 16688.270 40703.661 24989.197 12320.210 30171.948 15061.562 24340.746 11270.434 24513.800 25482.997 0.000 39752.531 16979.572 13906.442 76845.769 31674.077 71190.130 37006.693 13279.160 10204.495 7074.234 17520.322 69443.380 14985.536 23766.378 14353.908 22959.399 14067.697 36745.998 8956.375 29168.638 12400.731 8988.349 12107.990 14766.014 41851.615 24264.456 17743.633 13519.194 24287.086 22574.643 13207.894 12912.039 6594.871 44137.660 9987.625 74916.164 20254.258 15440.504 11230.555 9552.237 15100.233 38792.830 32635.985 85558.783 19186.736 24920.847 19076.714 22530.251 20973.071 26951.434 19117.818 24069.572 20499.053 13595.282 31776.832 25448.559 18244.873 23170.219 21149.838 21597.816 23700.821 24741.121 13387.111 23652.777 15155.451 16133.529 13421.529 24398.834 25029.470 30671.844 10210.204 14515.967 14132.771 15637.826 8850.368 13053.125 10168.989 13312.495 19051.662 29175.351 61136.673 30156.118 19263.287 21129.255 13260.318 73525.934 13900.446 20956.877 20742.161 21668.385 12922.820 22100.419 28117.404 11486.326 48289.629 28899.550 18076.246 13097.685 52563.195
45230.383 35278.678 41349.433 46795.936 55585.593 44396.893 44694.670 47325.837 41409.718 45923.963 47712.641 49452.699 45823.035 46037.785 50397.285 72633.875 47639.115 35226.834 49947.958 35014.512 57309.692 44869.366 56780.908 57658.069 40273.174 0.000 51925.364 26251.168 86809.074 63604.290 83377.774 55882.966 46659.560 46287.827 42925.275 23347.818 79260.520 46507.727 42641.790 39881.051 56751.376 39760.640 55622.271 42790.601 48294.002 39328.469 42998.693 45776.020 45586.313 64027.940 57233.402 49673.847 44916.886 51580.665 51455.820 47574.418 38318.615 45607.843 73651.149 44941.691 86270.093 50860.659 46874.796 45140.386 38561.001 46622.425 75085.909 57763.263 98292.546 54132.528 47570.765 51006.928 62449.402 53245.921 48054.908 51048.032 44728.708 47792.632 39678.831 49842.619 57623.631 50175.086 53511.504 56662.122 21799.380 53935.495 42806.908 33430.132 60139.223 45550.916 43925.189 47515.165 56329.048 57395.233 50363.247 46293.536 33621.610 40876.390 44865.148 44506.887 48671.733 42274.966 43037.652 53997.454 47477.079 77101.331 55172.593 41259.111 39195.042 49511.451 83343.074 46645.425 53131.949 48265.603 46876.929 33915.486 40166.207 46975.696 45429.779 64666.738 60829.764 49522.930 45002.819 76918.719
12532.486 29807.159 12138.315 7295.768 18462.557 9258.206 8191.455 4623.317 11667.729 6128.130 6354.338 4061.777 22130.277 7081.118 3112.593 25911.026 19820.950 17985.854 24103.049 19290.627 8556.121 7274.280 8729.175 9734.714 17094.210 52005.530 0.000 25894.012 77747.776 16769.147 72092.138 31525.287 6376.802 7151.693 11339.831 29430.415 70345.388 7455.233 21642.603 13657.197 6415.282 13487.998 31556.829 9948.301 24192.071 14141.913 9881.350 6355.345 7782.984 32220.699 8479.831 6855.466 8194.595 15066.184 12104.092 4408.722 14844.800 12523.856 31530.632 7308.030 75818.171 9191.439 6577.749 7031.344 14087.098 7569.931 26998.604 21294.978 86460.791 2642.619 19752.600 6122.669 22637.326 5188.446 21130.378 6770.552 21070.289 13127.816 13373.206 29676.538 9700.277 6812.142 11702.580 5172.213 33540.717 12233.182 25278.000 19382.874 14671.721 8200.697 11904.866 5105.820 9623.283 9244.845 24356.252 7336.869 20358.285 12252.721 9546.963 8477.804 4148.558 9727.547 9921.895 2507.546 26550.292 57178.262 19859.536 18393.534 25293.551 6091.687 74427.942 5967.572 5334.098 11985.579 16164.214 19835.324 25605.079 24500.648 6781.260 44331.218 13160.171 8436.924 7557.378 40864.753
19046.795 16014.399 15165.845 20612.348 30356.922 18213.305 18511.082 21142.249 15226.130 19740.375 21529.053 23269.111 21133.034 19854.197 24213.697 46450.287 22851.276 9275.439 25257.957 9949.720 31126.104 18685.778 30597.320 31474.481 14089.586 26179.098 25741.776 0.000 69591.687 37420.702 63936.048 31192.964 20475.972 20104.239 16741.687 3789.224 62189.298 20324.139 17951.788 13697.463 30567.788 13577.052 30932.269 16607.013 23604.000 13144.881 16815.105 19592.432 19402.725 39337.939 31049.814 23490.259 18733.298 25595.109 25470.264 21390.830 12135.027 19424.255 48961.147 18758.103 67662.082 24677.070 20691.208 18956.798 12377.413 20438.837 48902.321 33073.261 78304.701 27948.940 22782.926 24823.340 36265.814 27062.333 23364.907 24864.444 20038.706 21807.075 13495.243 25152.617 31440.043 23991.498 27365.662 30478.534 7758.955 27869.174 18116.907 8337.285 33955.635 19367.328 17741.601 21331.577 30145.460 31211.645 25673.245 20109.948 8695.052 14692.802 18681.560 18323.298 22488.145 16091.378 16854.064 27813.866 22787.077 55304.964 30482.591 16471.272 14505.040 23327.863 66271.852 20461.837 26948.361 22169.584 20891.372 8822.639 15476.205 22285.695 19246.191 42457.920 34646.176 23339.342 18819.231 52228.717
66036.266 81855.266 68755.785 71561.309 69622.092 69729.499 70293.511 74206.205 67951.769 72940.935 72826.395 74401.522 59328.058 75870.242 75346.109 91716.422 62031.031 66793.634 62276.375 63656.736 81576.894 73481.489 79693.003 78930.233 77738.418 66102.912 77580.574 69902.294 0.000 83942.108 6674.831 60689.388 73186.199 75940.816 75948.203 71842.197 8147.950 72092.983 57332.930 66938.606 81049.362 67672.801 60428.693 74553.864 60622.419 68678.204 74585.838 72829.919 71146.132 71697.133 80850.247 73223.562 70515.727 68749.471 70448.569 74454.786 67663.603 79552.496 85610.341 74310.664 2511.502 72099.959 72207.458 73721.363 70835.365 72207.681 104371.367 71198.806 51463.426 79379.117 61883.911 74384.377 95597.863 76795.636 62091.408 73834.729 58881.350 67531.187 67748.126 55098.672 79079.096 73724.801 72896.521 81816.559 72635.904 73007.582 54280.272 64645.256 90909.917 70576.582 67424.359 74370.853 77631.237 80194.908 62691.664 76125.993 63727.032 67994.101 69520.363 75900.748 76545.526 73017.848 69968.031 79154.637 56745.812 57685.083 69025.254 62121.786 56561.642 77841.107 15454.493 72800.269 76681.663 68502.243 63236.803 65215.956 55981.623 58640.840 74010.755 51642.337 81167.581 71378.986 71097.035 78739.608
18691.495 42963.280 22947.924 16930.985 15802.954 19379.942 19512.953 18585.628 22477.338 19117.237 16334.040 15699.082 24968.224 22157.997 16252.467 10845.925 22527.125 28795.462 23607.630 29555.614 9193.318 20455.040 7608.292 6876.631 30987.191 63501.355 15909.843 37598.203 83567.892 0.000 77912.253 29015.012 18477.698 22228.571 24610.880 40732.407 76165.503 17739.525 26283.226 23977.526 11849.359 24297.606 29046.554 23219.350 25358.327 25230.226 23152.399 19344.452 18001.864 25266.457 8677.341 13364.873 19253.468 15597.766 13398.202 18371.032 25654.409 26524.148 20054.224 21097.839 81638.287 12682.800 17080.664 20380.183 25418.510 17854.222 34598.703 16992.096 92280.906 14552.170 22449.614 12843.483 38282.097 11562.300 22564.573 12172.403 24905.559 16584.010 24182.815 32112.684 6727.768 12985.996 11438.948 15158.009 44842.709 11174.366 29918.623 30192.482 25984.910 18322.433 20489.250 18436.860 7159.136 7348.115 23860.832 22413.747 30623.271 23062.329 19275.382 22458.445 19793.330 22008.980 20776.837 14709.632 29327.745 55816.301 17199.933 24304.186 31040.214 21736.459 80248.057 18441.292 12262.917 16069.993 20471.784 30644.932 31351.742 27371.452 20437.512 42957.506 3560.072 14231.799 19179.682 29599.131
59787.088 75606.087 62506.606 65312.131 63372.914 63480.321 64044.333 67957.027 61702.591 66691.757 66577.217 68152.344 53078.880 69621.063 69096.930 85467.244 55781.852 60544.456 56027.197 57407.557 75327.716 67232.311 73443.824 72681.055 71489.240 62239.255 71331.396 63653.115 6294.636 77692.930 0.000 54440.209 66937.020 69691.638 69699.025 65593.018 8192.745 65843.805 51083.752 60689.428 74800.184 61423.623 54179.515 68304.685 54373.241 62429.025 68336.660 66580.741 64896.953 65447.955 74601.068 66974.383 64266.549 62500.292 64199.391 68205.607 61414.425 73303.317 79361.162 68061.485 4307.396 65850.781 65958.280 67472.185 64586.187 65958.502 98122.188 64949.627 45214.248 73129.938 55634.733 68135.199 89348.685 70546.458 55842.229 67585.551 52632.171 61282.009 61498.947 48849.493 72829.918 67475.623 66647.343 75567.381 68772.247 66758.404 48031.094 58396.078 84660.738 64327.403 61175.181 68121.674 71382.058 73945.729 56442.486 69876.814 57477.853 61744.923 63271.185 69651.570 70296.348 66768.670 63718.853 72905.458 50496.633 51435.904 62776.076 55872.608 50312.464 71591.929 15298.762 66551.090 70432.485 62253.064 56987.625 58966.777 49732.444 52391.661 67761.577 45393.159 74918.403 65129.808 64847.857 72490.430
21460.929 42971.291 26033.715 26313.166 13495.762 26307.168 27039.794 29912.572 25293.854 29578.166 26929.093 28504.220 11719.937 32715.046 29424.887 33572.131 13885.695 26217.346 8663.232 23512.402 29670.330 30199.501 26493.008 25730.238 37092.011 56906.044 30923.171 32166.797 59850.758 29285.592 54195.119 0.000 29019.820 32785.621 33176.458 34137.095 54028.557 27408.710 14723.065 24216.536 32048.036 24950.731 735.720 31782.119 9005.076 26554.113 31814.093 29467.150 26794.275 13785.458 28292.607 25659.834 27152.957 17077.162 19501.693 29857.531 25458.533 36673.249 25592.059 31155.468 57921.153 22442.253 26805.336 30439.375 28677.352 27523.407 57153.401 13443.228 68563.772 31883.000 13808.184 26056.280 52634.717 27426.012 11667.571 25160.753 13852.040 20130.378 25026.055 10779.027 25879.101 25421.567 20210.296 34077.066 38247.397 19680.610 15207.127 24982.665 45298.749 26089.500 24170.643 29805.865 24907.212 26994.913 8602.341 32970.797 24112.175 25272.031 24937.871 32745.553 32294.747 30038.835 26714.315 31658.520 10541.655 26928.274 11700.485 19562.140 18007.114 34478.337 59372.061 28766.500 27482.833 21405.704 17216.871 25553.364 17694.965 11355.133 30728.767 13962.416 26653.072 24115.318 27734.265 22772.454
9076.348 25179.607 7311.168 3365.173 16590.548 4529.000 3324.051 1291.360 6840.583 1218.637 2808.687 3138.570 18674.139 4747.285 4083.156 27729.921 16364.812 13158.707 21026.272 14463.481 11735.632 2556.440 11870.226 12747.387 13231.128 47005.147 5529.510 20893.630 73414.338 18700.337 67758.699 28896.989 0.000 4817.860 6712.280 24430.032 66011.949 3285.788 17746.322 8830.050 11177.317 8660.851 28636.294 5320.750 20735.933 9167.292 5253.799 1445.852 3494.128 30109.224 11659.343 4769.893 3317.563 12577.861 9727.944 1539.670 10017.653 9113.437 31163.920 3687.127 71484.733 7407.560 2772.242 2513.000 9086.715 3400.485 31837.495 20160.407 82127.352 7736.674 16296.462 6102.974 24591.195 8335.240 17674.240 6144.078 17610.144 9776.090 8546.060 26220.401 12712.950 5271.133 10323.521 10266.268 28540.334 10854.123 21260.561 14555.727 18452.868 4194.800 7077.719 1184.654 11425.094 12424.356 21327.589 5003.036 15531.138 7425.574 5454.189 5047.733 3673.535 4727.164 5044.862 7601.601 23094.154 53722.125 17738.882 13917.251 20484.341 5874.151 70094.503 1232.184 8221.267 8529.441 12708.076 15008.177 21271.640 21044.510 2802.392 40875.081 15925.810 5229.548 2583.346 39716.497
11669.493 23555.490 8040.384 7712.071 21049.552 7482.839 6277.889 4444.577 8613.962 3739.398 7267.691 7228.947 21496.352 250.042 8132.486 32188.925 19187.025 13650.262 24806.687 15540.651 15620.029 3304.703 15793.083 16798.622 10490.987 46535.446 7478.809 20423.929 75662.897 23159.340 70007.258 31993.989 4764.424 0.000 5422.372 23960.331 68260.509 7220.193 20041.272 10155.667 12900.129 9869.455 31733.294 3915.887 23934.779 9491.535 3810.013 3593.254 7374.782 34568.228 15543.739 9228.897 6271.401 17036.865 14186.948 4512.751 10612.001 5920.633 35622.924 1841.022 73733.292 11866.564 7133.331 3066.377 8617.014 7334.891 29552.785 24619.411 84375.911 9178.992 19118.675 10561.978 20349.233 12292.087 21147.692 10603.082 20048.237 13939.683 9397.040 29042.614 16764.185 9730.137 14782.524 11055.580 28070.633 15313.127 23509.121 15509.842 15959.579 7907.658 9646.864 4906.792 15884.098 16308.753 25302.368 255.803 16608.308 8962.035 8562.319 1889.652 3601.949 4325.844 6441.889 9550.899 25916.367 56544.337 22197.886 16043.697 21561.511 3478.606 72343.063 5593.273 12437.739 12926.109 15515.153 15236.569 22532.675 23866.723 3322.147 43697.294 20224.079 9688.552 5414.430 44175.501
11588.446 19148.425 7190.646 8525.760 22363.012 7501.330 6573.216 6589.530 7934.896 5257.459 8742.117 9202.346 21415.305 4953.207 10146.933 33663.350 19105.977 10161.669 24725.639 12813.790 17647.963 4196.200 17587.519 18464.680 7555.226 42471.428 11118.651 16449.147 74551.164 24633.766 68895.525 31912.942 6301.443 5203.249 0.000 20028.538 67148.776 8033.882 19011.772 9204.884 17089.647 8918.672 31652.247 1882.140 23853.731 7462.350 1914.115 5104.500 7814.360 35211.198 17571.673 10703.322 6567.540 17646.669 15500.408 6838.111 8303.034 5787.246 37097.349 3918.770 72621.559 13180.024 8366.270 4363.611 5309.703 8148.579 34165.566 25932.871 83264.178 13325.815 19037.627 12036.404 22205.601 14052.532 21066.645 12077.508 19314.966 13858.636 8446.257 28657.211 18430.242 11204.562 16095.985 15752.970 24138.841 16626.587 22446.516 12202.298 19474.903 8203.797 9565.816 6897.100 17358.524 18201.844 25221.320 5208.957 13331.154 8209.617 8686.172 3422.308 7648.813 3114.821 6360.841 13190.741 25220.258 56382.067 23511.347 14508.681 18834.650 8426.873 71231.330 6826.212 13938.560 14101.743 15434.106 11763.527 19805.815 23362.798 4653.004 43535.023 21859.239 11002.012 6146.031 45488.961
22131.228 19368.527 18519.973 23923.993 32405.305 21297.737 21861.749 24496.377 18310.562 23094.503 24883.181 26623.239 22642.747 23208.325 27567.825 49804.414 24458.828 12046.546 26767.670 11834.224 34480.231 22039.906 33951.448 34828.608 17443.713 23616.522 29095.904 3421.708 71101.400 40774.830 65445.762 32702.678 23830.100 23458.367 20095.815 0.000 63699.012 23661.221 19461.502 16781.896 33921.916 16661.485 32441.983 19961.141 25113.714 16420.350 20169.233 22946.560 22714.369 40847.653 34403.942 26844.387 22083.965 28400.377 28275.532 24744.958 15410.496 22778.383 50470.861 22112.230 69171.796 27761.503 24002.853 22310.926 15731.541 23775.918 52256.449 34582.975 79814.415 31303.068 24390.478 28177.468 39619.942 30416.461 24874.621 28218.572 21548.420 24612.344 16736.810 26662.331 34794.171 27345.626 30331.216 33832.662 4826.480 30755.207 19626.620 10249.844 37309.762 22451.761 20826.034 24685.704 33499.588 34565.773 27182.959 23464.075 10441.322 17777.235 21765.993 21677.426 25842.273 19445.506 20208.191 31167.994 24296.791 56814.678 31992.305 18078.823 16014.754 26681.991 67781.566 23815.965 30302.488 25085.315 23696.641 10735.199 16985.919 23795.409 22600.318 43967.634 38000.303 26423.775 22173.359 53738.431
58129.011 73948.011 60848.530 63654.054 61714.837 61822.244 62386.256 66298.950 60044.514 65033.680 64919.140 66494.267 51420.803 67962.987 67438.854 83809.167 54123.775 58886.379 54369.120 55749.481 73669.639 65574.234 71785.748 71022.978 69831.163 58139.767 69673.319 61995.039 8166.121 76034.853 8421.679 54900.179 65278.944 68033.561 68040.948 63934.942 0.000 64185.728 49425.675 59031.351 73142.107 59765.546 54639.484 66646.608 52715.164 60770.949 66678.583 64922.664 63238.877 65907.925 72942.992 65316.306 62608.472 60842.215 62541.314 66547.531 59756.348 71645.241 78863.120 66403.409 7627.140 64192.704 64300.203 65814.108 62928.110 64300.426 96464.112 63291.551 45674.218 71471.862 53976.656 66477.122 87690.608 68888.381 54184.152 65927.474 50974.095 59623.932 59840.871 47191.417 71171.841 65817.546 64989.266 73909.304 64672.759 65100.327 46373.017 56738.001 83002.662 62669.327 59517.104 66463.597 69723.982 72287.653 54784.409 68218.738 55819.777 60086.846 61613.108 67993.493 68638.271 65110.593 62060.776 71247.382 48838.556 51895.874 61117.999 54214.531 48654.387 69933.852 7466.721 64893.014 68774.408 60594.988 55329.548 57308.701 48074.368 50733.585 66103.500 45853.129 73260.326 63471.731 63189.780 72950.400
7146.924 26267.537 6696.883 1231.356 15310.067 3128.901 2781.537 3706.462 6226.297 3633.738 1528.207 3675.978 16845.443 7023.658 4620.564 26449.440 14536.116 12544.421 19201.089 13849.195 11461.373 4516.172 10596.473 11473.634 14973.356 47072.935 6910.544 20961.417 72080.835 17419.856 66425.197 27068.293 2704.872 7094.233 8466.247 24481.366 64678.447 0.000 16200.994 8215.764 10933.841 8046.565 26807.598 7071.908 18907.237 8786.414 7102.435 3700.001 1750.823 28828.743 11116.098 3489.412 2870.079 11297.380 8447.463 3651.420 9403.368 11405.277 29883.439 5978.967 70151.231 6127.079 501.496 4753.787 9038.188 114.697 33473.693 18879.927 80793.850 8895.594 14467.766 4822.494 26867.569 7061.487 15845.544 4863.598 15785.455 8091.551 7931.774 24391.704 11439.197 3990.652 9043.040 11601.766 28591.668 9573.642 19836.391 13941.441 20349.916 2071.392 5849.664 3599.755 10144.614 11210.798 19502.406 7279.409 14916.852 6811.288 3417.658 7339.573 6088.636 5253.435 4525.796 8671.114 21265.458 51893.428 16458.402 12606.382 19447.336 8289.253 68761.001 2318.942 6947.514 7022.054 10879.380 14393.891 19938.138 19215.814 5043.180 39046.384 14645.329 3949.067 2424.137 38436.016
9302.354 29029.254 12014.309 14827.397 13749.418 12995.587 13559.599 17472.293 11217.857 16207.023 16092.483 17667.610 4013.040 19136.330 18612.197 34955.902 5667.786 12229.704 8137.963 9570.365 24580.609 16747.577 22360.073 21597.303 23104.369 42964.007 20846.662 18224.760 57284.665 26609.178 51629.027 14072.970 16452.287 19206.904 19214.291 20195.058 49882.277 15359.071 0.000 10197.130 24315.450 10931.325 13812.276 17819.952 6484.007 12534.707 17851.926 16096.007 14412.220 22217.945 23559.740 16380.488 13781.815 11416.540 13115.639 17720.874 11439.127 22818.584 31841.154 17576.752 55355.060 14767.029 15473.546 16987.451 14657.947 15473.769 47637.455 15953.268 65997.680 22645.205 5537.823 17092.367 38863.951 19505.129 6244.913 16542.719 2462.218 10198.257 11006.650 9728.591 21746.166 16457.654 15563.591 25082.647 24305.361 15674.652 3635.397 11040.628 34176.005 13842.670 10690.447 17636.941 20298.307 22861.978 8553.252 19392.081 10170.138 11252.625 12786.451 19166.836 19811.614 16283.936 13234.119 22420.725 6208.486 38184.970 13362.597 5169.172 5507.547 21107.195 53964.831 16066.357 19391.156 11169.313 5903.873 11611.328 5819.075 5165.701 17276.843 25337.926 23834.651 14535.912 14363.123 35108.724
5448.508 21774.324 2341.684 7726.759 16956.787 5100.503 5664.515 9577.209 2113.328 8311.939 8845.675 10585.733 13450.515 10006.862 11530.319 33217.030 11652.818 5302.389 17108.729 6607.163 18442.725 8258.965 17847.742 18724.903 13382.442 40008.282 13306.952 14207.156 66144.130 24358.022 60488.492 23943.475 8557.202 10077.436 9695.997 17239.334 58741.742 7463.987 10522.506 0.000 17884.410 734.195 23682.780 8301.657 16105.420 2394.183 8333.632 8200.923 6517.135 29759.503 18366.436 10740.681 5886.731 12194.974 12070.129 9825.789 2161.336 13300.289 35795.969 8447.284 64214.526 11159.824 7805.618 8498.839 4587.172 7578.684 39105.344 20543.873 74857.145 15514.116 11584.468 12073.763 29345.657 14312.756 13613.485 12114.867 11006.354 8406.941 809.520 20251.096 18690.466 11241.921 13848.416 18043.710 21349.636 14351.928 13990.354 6699.409 25512.139 6254.526 4224.355 9741.856 17395.883 18462.067 17608.626 10262.612 7674.820 1580.001 5568.759 9841.825 11916.530 6765.642 4656.093 15379.042 16730.991 48073.455 18064.006 6185.033 11913.044 13030.449 62824.296 8171.272 14198.783 8652.338 7980.946 7151.859 12800.139 15054.186 8788.232 35226.411 21583.495 9822.096 6468.039 41755.374
15369.452 35264.375 16141.783 10212.284 18767.663 12834.019 12194.923 10418.743 15671.197 11303.405 9335.372 7663.169 24892.175 12876.544 7687.030 22362.113 22582.847 21989.322 25603.509 23294.095 4370.748 12641.208 5763.682 6941.257 22889.635 56486.321 6458.260 30374.803 80584.742 12090.560 74929.104 31979.722 10720.335 12843.361 16797.047 33911.206 73182.354 11187.489 24479.569 17660.665 0.000 17491.466 32011.264 15405.517 26707.931 18199.800 15338.567 11530.620 11455.941 32450.027 4326.478 9187.968 12416.258 16742.033 13604.551 10204.147 18848.268 18319.281 31562.963 13103.455 78655.137 11036.573 10310.004 12566.351 18451.574 11302.186 25597.103 21259.951 89297.757 4255.527 22514.497 7967.803 27267.103 5525.196 23646.238 8615.686 23892.055 15078.730 17376.674 32438.436 6906.820 9039.189 13125.321 3724.676 38021.508 13655.924 28114.966 23386.342 15001.009 11776.511 15045.829 10615.373 7787.913 5869.730 25856.712 12913.614 24361.753 16256.189 12635.886 14273.230 9943.983 14613.833 13949.469 4854.661 29312.189 58781.011 20164.643 21230.500 28130.516 11585.877 77264.908 10627.460 5670.849 14156.448 19001.180 23838.792 28442.044 27262.546 12576.686 45922.216 9938.952 10932.727 11784.535 40798.852
5768.662 21805.726 1945.739 7330.813 16965.286 4704.557 5268.569 9181.263 1717.382 7915.993 8449.729 10189.787 13871.475 9750.832 11134.373 33225.529 11972.972 5333.792 17529.690 6638.565 18046.780 8002.936 17451.797 18328.957 13295.570 40039.685 12911.006 14238.558 66893.516 24275.179 61237.878 24364.436 8161.257 9821.407 9439.968 17270.736 59491.128 7068.041 11271.892 788.920 17488.464 0.000 24103.741 8045.628 16526.381 2425.586 8077.603 7804.977 6121.190 29768.002 17970.490 10344.736 5490.785 12203.473 12078.628 9429.844 2192.738 13044.260 35804.468 8191.254 64963.912 11168.323 7409.673 8242.810 4500.300 7182.739 38849.315 20552.372 75606.531 15118.170 11904.622 11677.817 29089.628 13916.810 13933.639 11718.921 11427.314 8415.440 840.922 20769.560 18294.520 10845.975 13856.915 17647.764 21381.039 14360.427 14739.740 6730.812 25256.109 5858.581 4232.854 9345.911 16999.937 18066.122 18029.586 10006.583 7706.223 1184.055 5172.813 9585.796 11520.584 6509.613 4260.148 14983.097 17332.771 48494.415 18072.505 6934.419 12659.425 12774.420 63573.682 7775.327 13802.838 8660.837 8301.100 7183.262 13549.525 15475.146 8532.202 35647.372 21500.652 9830.595 6072.093 41763.873
20854.418 42364.779 25427.203 25956.832 13584.914 25700.656 26433.283 29941.585 24687.342 28971.654 26933.600 28508.727 11113.426 32108.535 29453.313 33661.283 13279.183 25610.834 8056.720 22905.890 29759.482 29592.989 26582.160 25819.390 36485.499 56299.532 31012.323 31560.285 59674.104 29374.743 54018.465 414.248 29048.834 32179.109 32569.947 33530.584 53851.903 27028.751 14116.553 23610.024 32137.188 24344.219 0.000 31175.607 8398.564 25947.601 31207.581 28860.638 26187.763 13874.610 28381.759 25748.986 26546.446 17166.314 19590.845 29886.544 24852.021 36066.738 25681.211 30548.957 57744.499 22531.405 26602.980 29832.863 28070.841 27143.449 57242.553 13532.380 68387.118 31972.152 13201.672 26145.432 52028.205 27515.164 11061.059 25249.905 13245.528 19979.313 24419.544 10337.331 25968.253 25510.719 20299.448 34166.217 37640.886 19769.762 14600.615 24376.153 45387.901 25482.988 23564.131 29834.879 24996.364 27084.065 7995.830 32364.286 23505.663 24665.520 24331.359 32139.041 32323.760 29432.323 26107.803 31747.672 9935.144 27030.363 11789.637 18955.629 17400.602 33871.826 59195.407 28777.247 27571.985 20985.683 16610.359 24946.853 17088.453 10748.621 30122.256 14064.505 26742.224 24150.103 27127.754 22972.568
10613.781 20028.150 6322.554 7551.096 21237.493 6526.666 5598.552 5543.134 7066.804 4211.063 7616.597 8155.950 20440.641 3827.687 9100.536 32537.831 18131.313 10331.973 23750.975 12783.941 16522.444 3149.803 16462.000 17339.160 8079.672 42816.277 10072.254 16793.997 74251.865 23508.247 68596.227 30938.278 5255.046 4077.730 1560.823 20373.388 66849.477 7059.218 18630.240 8336.792 15964.128 8050.581 30677.583 0.000 22879.067 7112.911 788.595 4058.104 6839.696 34236.533 16446.154 9577.803 5592.876 16672.005 14374.889 5791.714 8233.377 5237.621 35971.830 2872.373 72322.260 12054.505 7240.751 3317.215 5279.853 7173.915 33040.047 24807.352 82964.880 12279.418 18062.963 10910.884 21403.781 12927.013 20091.980 10951.988 18760.425 12883.971 7578.166 27986.902 17304.723 10079.043 14970.466 14706.573 24483.690 15501.068 22098.089 12372.602 18673.083 7229.133 8591.152 5850.704 16233.004 17076.325 24246.656 4083.438 13501.458 7341.526 7711.508 2296.789 6602.416 2243.727 5386.177 12144.344 24665.881 55488.626 22385.827 14292.768 18804.800 7301.353 70932.031 5700.693 12813.040 13033.529 14459.442 11918.279 19775.965 22808.257 3606.607 42641.582 20733.720 9876.493 5171.367 44363.442
13002.044 35236.918 17808.381 18104.458 10150.504 17848.283 18580.909 22155.872 16937.444 21119.280 19081.226 20656.353 3611.245 24256.161 21600.939 32456.632 5426.810 18482.973 1923.972 15778.030 25712.864 21740.616 22689.903 21927.133 29281.872 49171.671 23810.675 24432.424 61323.629 25482.486 55667.991 8561.579 21263.120 24326.735 24717.573 26402.723 53921.241 19176.378 6965.238 16025.785 26618.683 16759.980 8300.884 23323.233 0.000 18363.362 23355.208 21008.264 18335.389 15829.107 24489.502 18342.568 18694.072 10685.095 13453.159 22100.831 17267.782 28214.364 26348.442 22696.583 59394.025 16132.131 18750.607 21980.490 20486.602 19291.075 50522.206 10776.873 70036.644 25109.849 5349.299 18842.934 44175.831 21255.696 3356.260 18293.286 5743.347 12152.905 16835.305 8497.832 22075.996 18208.221 14977.431 27533.653 30513.025 14550.467 8600.175 17248.293 38157.907 17630.614 15711.757 22049.165 21082.239 23191.808 2069.245 24511.912 16377.803 17081.281 16478.986 24286.667 24538.047 21579.949 18255.429 24885.369 6278.392 33464.368 8603.321 11654.252 11561.993 26019.452 58003.795 20924.873 21141.724 13135.980 8757.986 17818.992 11249.845 4228.749 22269.882 20617.324 22849.966 16598.608 19275.380 28719.885
7126.562 20952.256 2772.689 8516.249 18259.135 5912.270 6414.983 9887.825 2925.095 8561.328 9432.954 11173.012 15121.615 9429.110 12117.599 34354.188 13330.871 4629.193 18779.829 6396.433 19030.005 7681.214 18501.221 19378.382 11586.248 39423.102 13813.067 13385.088 67815.231 25324.604 62159.592 25614.575 8879.390 9499.684 7917.846 16654.153 60412.843 8228.041 12193.606 2279.965 18471.689 1993.754 25353.880 7173.088 17776.520 0.000 7205.063 8427.619 7306.626 31061.851 18953.715 11394.160 6637.199 13497.322 13372.477 10136.406 1632.205 11594.644 37098.317 7869.532 65885.626 12462.172 8595.109 7921.088 2790.978 8342.738 38527.593 21846.221 76528.245 16020.231 13262.521 12727.241 27862.491 14966.234 15291.539 12768.345 12677.454 9709.289 1521.339 21922.197 19343.944 11895.400 15150.764 18549.825 20764.455 15654.276 15661.455 6316.863 24934.387 7066.294 5526.703 10064.044 18049.361 19115.546 19279.726 9684.861 7418.266 2391.768 6380.526 8713.256 11599.575 5637.073 4748.215 15885.158 18402.091 49744.555 19366.354 7856.134 12417.292 12452.698 64495.397 8611.904 14852.262 9954.686 9659.000 6769.313 13388.457 16725.286 8210.480 36897.511 22550.077 11124.444 6723.132 43057.722
10823.640 20238.009 6532.413 7760.954 21447.352 6736.525 5808.411 5752.992 7276.663 4420.922 7826.456 8365.809 20650.499 4037.546 9310.395 32747.690 18341.172 10541.832 23960.834 12993.799 16732.302 3359.662 16671.858 17549.019 8289.530 43026.136 10282.113 17003.856 74461.724 23718.105 68806.086 31148.136 5464.905 4287.588 1770.682 20583.247 67059.336 7269.076 18840.099 8546.651 16173.987 8260.440 30887.441 254.627 23088.926 7322.770 0.000 4267.963 7049.555 34446.392 16656.013 9787.662 5802.735 16881.864 14584.748 6001.573 8443.236 5447.479 36181.689 3082.232 72532.119 12264.364 7450.609 3527.074 5489.712 7383.774 33249.906 25017.211 83174.738 12489.277 18272.822 11120.743 21658.408 13136.872 20301.839 11161.847 18970.284 13093.830 7788.025 28196.761 17514.582 10288.901 15180.324 14916.432 24693.549 15710.927 22307.948 12582.461 18927.710 7438.991 8801.011 6060.563 16442.863 17286.183 24456.515 4293.297 13711.317 7551.385 7921.367 2506.648 6812.275 2453.586 5596.036 12354.203 24875.740 55698.485 22595.686 14502.627 19014.659 7511.212 71141.890 5910.552 13022.899 13243.388 14669.300 12128.138 19985.824 23018.116 3816.466 42851.441 20943.579 10086.351 5381.226 44573.301
8591.985 24004.587 6661.186 4118.818 17783.405 3889.585 2684.636 2169.722 6201.168 767.848 4162.510 4642.015 18418.844 3980.489 5586.601 29083.743 16109.516 12519.292 21489.742 13824.066 13068.356 1110.588 13007.912 13885.073 12056.108 46178.148 6973.265 20066.630 72774.922 20054.159 67119.284 28916.481 1503.445 4051.063 5537.259 23603.033 65372.534 3626.939 17106.906 8190.635 12510.040 8021.436 28655.786 4145.729 20857.270 8405.122 4078.779 0.000 3781.528 31302.081 12992.066 6123.715 2678.147 13770.718 10920.801 2418.303 9378.238 8218.435 32517.742 2780.560 70845.318 8600.417 3786.663 1348.204 8259.716 3741.637 32330.035 21353.264 81487.937 9180.429 16041.166 7456.797 23824.399 9472.925 18032.802 7497.901 16970.729 10428.375 7906.644 25965.105 13850.635 6624.955 11516.378 11710.023 27713.335 12046.980 20621.146 13916.312 18736.829 4314.404 6438.304 2359.049 12778.917 13622.237 21791.059 4236.240 14891.723 6786.159 4969.065 4290.738 4372.439 3900.165 4356.315 9045.355 22838.859 53466.829 18931.740 13277.836 19844.925 5668.020 69455.088 2246.605 9358.953 9579.441 12437.645 14368.762 20632.225 20789.215 1637.596 40619.785 17279.632 6422.405 1821.176 40909.354
6222.894 24961.416 4946.060 1260.953 15579.331 1793.860 1511.089 4850.270 4475.474 3676.813 2442.247 4670.782 16300.838 6889.454 5615.368 27234.904 13991.511 10793.599 19028.810 12098.372 12331.181 4298.148 11381.937 12259.098 14501.919 45499.492 7921.778 19596.339 71018.485 18205.320 65362.846 26794.618 3848.680 6960.028 8101.450 22730.543 63616.097 1259.189 15181.881 6464.942 11803.648 6295.743 26533.923 6707.111 18633.562 7228.362 6737.638 3565.797 0.000 29098.008 11901.561 4274.876 1251.605 11459.148 8716.727 4795.229 7652.545 11271.072 30583.625 5844.762 69088.880 6396.343 1288.483 4538.022 7416.647 1373.887 34484.926 19149.191 79731.499 9890.398 13923.161 5607.957 26733.364 7846.950 15571.870 5649.061 15045.703 7967.442 6180.951 23847.100 12224.660 4776.116 9312.304 12570.846 26840.845 9842.906 18817.277 12190.619 21493.724 1083.776 4681.866 4743.563 10930.077 11996.262 19330.127 7145.205 13166.030 5060.466 2273.150 7205.368 7232.444 4781.998 2774.973 9665.918 20720.853 51348.824 16727.666 11521.399 18119.232 8576.985 67698.651 3462.750 7732.978 7041.528 10319.640 12643.069 18875.787 18671.209 4827.415 38501.780 15430.793 4218.331 1832.913 38705.280
23572.236 50208.423 28604.039 26976.568 13618.533 27229.488 28334.762 30406.262 28118.575 30333.538 27422.783 28997.910 18898.856 33713.126 29725.191 26599.199 18444.174 33519.356 13969.364 30836.477 29793.101 31121.821 26615.779 25853.009 40829.755 64230.118 31209.779 39490.871 70845.539 26558.773 65189.900 14027.904 29513.510 33783.701 34925.123 41461.170 65023.338 27957.886 22023.685 29172.911 32170.807 29550.781 14059.446 33530.783 15725.381 30871.463 33561.310 30389.469 27716.595 0.000 28415.378 25960.138 28075.277 17618.739 19788.301 30351.221 30519.267 38094.745 15117.652 32668.435 68915.934 22728.861 27299.026 31361.695 32286.637 28072.584 57276.171 12542.404 79558.553 32005.771 18366.663 26342.888 53550.962 27548.782 16477.372 25447.361 20035.119 21016.947 29660.913 22198.968 26001.872 25708.175 20333.067 34199.836 45571.472 19803.381 24299.502 32306.740 45585.357 27011.819 25772.605 30299.555 25029.982 27117.684 14014.812 33968.877 31436.250 28703.566 25860.191 34029.041 32788.437 31605.670 28139.891 31781.291 20930.408 34211.446 11823.256 26458.824 26773.659 34989.053 70366.842 29260.190 27605.604 22311.482 21530.602 32877.439 26949.172 19928.076 31651.087 22926.381 25084.388 24609.008 28656.585 13071.265
15706.146 36193.628 17071.036 10884.991 14796.928 13506.726 13124.176 11557.867 16600.451 12232.658 10029.734 8592.422 23227.738 15089.707 8616.283 18363.329 20786.640 22918.575 22601.603 24223.349 1538.229 13570.461 1821.791 2621.260 24102.612 57415.574 8273.660 31304.057 80702.231 8829.009 75046.593 28008.986 11649.588 15160.281 17726.301 34840.459 73299.843 11866.309 23693.099 18589.918 4116.914 18420.719 28040.528 16334.771 24247.865 19129.053 16267.820 12459.873 12128.648 28479.292 0.000 8010.283 13345.511 14160.290 11022.808 11343.271 19777.521 19639.569 27592.227 14213.260 78772.627 9369.606 11012.029 13495.604 19380.827 11981.006 29297.991 17289.216 89415.246 6901.468 20709.129 6790.118 30521.128 4504.872 21186.172 7438.000 22315.432 13901.045 18305.927 30372.198 2586.823 7861.504 10543.578 7283.921 38950.761 10356.770 27328.496 24315.595 18646.014 12449.217 15718.536 11544.626 3914.272 1543.252 22854.806 15345.458 25291.006 17185.442 13308.593 15573.866 12157.146 15543.086 14878.722 7058.930 27587.259 54810.275 16193.907 21347.989 28248.006 14100.276 77382.397 11556.713 5135.809 12978.763 17881.657 24768.045 28559.534 25630.967 13552.933 41951.480 5612.474 10213.373 12713.788 36828.116
8139.207 29658.208 10016.167 3826.450 12841.631 6448.185 6219.469 5461.819 9545.581 5982.132 2969.167 3133.868 16527.549 9022.892 3765.053 22960.028 14218.222 15863.706 17786.402 17168.479 8836.498 7319.936 7296.004 8173.165 17852.087 50510.867 5540.140 24399.349 73243.612 13930.444 67587.973 25383.686 5342.593 9093.467 11475.775 27800.650 65841.223 4807.768 16541.864 11535.049 8940.675 11365.850 25415.228 10084.245 18418.107 12224.346 10017.295 6209.348 5070.107 26360.308 7815.629 0.000 6321.712 8911.837 5962.491 5247.224 12722.652 13389.044 26394.027 7962.734 71314.007 3049.838 3944.522 7245.079 12476.120 4922.465 32523.373 15720.124 81956.626 7284.068 14149.872 1448.326 27881.323 3761.018 15356.415 1374.185 15527.430 6714.105 11251.058 24073.811 8138.728 501.240 6118.652 9707.872 31910.953 6649.254 20177.261 17260.726 19915.718 5390.676 8200.119 5313.051 6655.201 7910.329 18087.719 9278.643 18236.137 10130.573 6250.052 9323.340 7378.370 8644.106 7845.081 7059.588 20947.564 51481.952 13989.966 13889.369 20789.386 9633.356 69923.777 5306.188 3647.045 5791.823 10760.566 17713.176 21100.914 18897.920 7302.408 38634.908 11155.917 2898.276 5814.809 35535.698
6524.552 24457.282 4604.320 2543.078 16751.760 1822.152 617.203 3690.478 4133.735 2425.208 3299.355 5056.758 16351.411 5637.849 6001.344 28220.588 14042.084 10451.859 19422.309 11756.633 12913.751 3046.544 12367.621 13244.782 13250.315 44899.068 7420.221 18787.550 70707.490 19191.004 65051.851 26849.048 2670.472 5708.424 6849.845 22323.953 63305.101 2056.731 15039.474 6123.202 12355.435 5954.003 26588.353 5455.506 18789.837 6612.547 5486.033 2314.192 1665.229 29713.504 12837.461 5260.560 0.000 12148.975 9889.156 3939.059 7310.805 10019.467 31654.587 4593.158 68777.885 7568.772 2558.227 3286.418 6864.321 2171.428 33983.370 20321.620 79420.504 9627.385 13973.734 6593.642 25481.759 8832.635 15965.369 6634.746 14903.296 8360.942 5839.212 23897.672 13210.345 5761.800 10484.733 12156.979 26434.255 11015.335 18553.713 11848.879 20394.190 2246.971 4370.871 3855.126 11915.762 12981.946 19723.626 5893.600 12824.290 4718.726 2901.632 5953.764 6029.799 3530.393 2338.014 9492.311 20771.426 51399.396 17900.095 11210.403 17777.493 7325.380 67387.655 2284.542 8718.662 8196.199 10370.212 12301.329 18564.792 18721.782 3575.810 38552.352 16416.477 5390.760 581.308 39877.709
6682.745 33480.055 11714.548 10309.082 4892.895 10339.997 11445.271 13778.981 11229.084 13610.995 10795.501 12370.628 9462.645 16823.636 13291.296 24306.220 7021.547 17105.139 9259.636 17623.272 16124.160 14232.330 13555.301 12792.531 23940.264 51811.032 14994.349 25970.173 68859.220 16672.578 63203.582 16681.873 12886.229 16894.210 18035.632 29042.084 61456.832 11330.605 11590.560 12289.794 17029.980 12667.664 16713.415 16641.292 10305.030 13981.972 16671.819 13499.978 10827.104 17779.470 15103.291 9526.243 11185.786 0.000 3692.243 13723.940 13848.184 21205.254 24091.901 15778.944 66929.615 6632.803 10671.745 14472.204 15397.146 11445.302 41544.850 8479.981 77572.235 16132.492 6944.035 10026.609 36667.546 11675.503 7421.078 9351.303 9716.534 4127.456 12771.422 16607.105 12941.394 9391.895 5602.298 18556.076 33152.386 5431.527 15225.956 18406.975 29369.928 10122.329 8883.114 13672.274 11493.535 14057.206 9512.838 17079.386 18690.930 11814.075 8970.700 17139.550 16161.155 14716.180 11250.400 15908.012 13822.166 43127.295 6041.230 12295.436 16347.548 18361.772 65539.386 12632.909 11732.324 5421.991 6404.802 18954.609 16659.076 11865.873 14761.596 30280.252 14040.058 7981.727 11767.094 29775.341
6758.288 33152.984 11387.477 7188.267 6932.288 9612.716 9943.014 10617.961 10902.013 10545.237 7634.482 9209.609 12561.088 14073.886 9936.890 22580.334 10119.990 17041.981 12052.106 17622.407 12513.211 11883.041 9944.352 9181.582 22516.750 51747.874 11421.478 25946.748 70938.685 14193.457 65283.046 19474.344 9725.209 14144.460 15997.902 28978.926 63536.297 8169.585 13654.020 12044.320 13419.030 12422.189 19505.886 14603.562 13350.902 13654.901 14580.400 10772.453 8431.924 20450.965 11492.342 6171.837 9683.529 3190.630 0.000 10562.920 13900.928 18440.038 24550.114 13013.728 69009.080 2940.560 7510.725 11839.600 15070.075 8284.283 37933.900 10519.375 79651.699 12521.543 10042.478 6554.587 33762.661 8064.554 10519.521 5659.061 12276.352 4167.746 12444.351 19705.548 9330.445 5919.874 2680.125 14945.126 33089.228 3091.159 17289.416 18406.109 25797.056 8675.739 8556.043 10511.254 7882.586 10446.257 12305.309 14329.637 18690.064 11487.004 8459.357 14374.334 13000.136 12804.426 10923.329 12297.063 16920.609 45919.766 8080.623 12370.980 18411.008 15200.752 67618.851 9471.889 8121.375 4873.029 7842.577 18891.451 18722.536 14964.316 12128.993 33072.722 11418.930 4820.707 9975.129 31817.936
10745.031 26417.901 9399.562 5177.826 18259.231 6627.961 5423.012 1017.277 8939.544 2511.161 4477.370 3286.834 20342.822 4029.701 4231.420 28950.895 18033.495 15257.668 22694.955 16562.442 11893.504 3848.965 12066.558 13047.393 14042.793 48616.272 4621.086 22504.754 75513.299 19921.311 69857.660 30565.672 2911.176 4100.276 7950.573 26041.157 68110.911 5098.441 19845.283 10929.011 10600.913 10759.812 30304.977 6559.043 22404.616 11143.499 6492.092 2738.377 5552.753 31777.907 11817.214 6371.972 5416.524 14246.544 11396.627 0.000 12116.615 9472.439 32588.645 4182.889 73583.694 9076.243 4554.913 3570.342 10697.840 5213.139 30560.138 21829.090 84226.313 6828.250 17965.145 7014.329 23959.309 8525.829 19342.924 7486.010 19282.834 11444.773 10645.021 27889.084 13012.955 6695.858 11992.204 9357.844 30151.459 12522.806 23359.523 16654.688 17290.742 6177.861 9176.680 1499.779 12675.516 12582.228 22996.272 4285.452 17630.099 9524.536 7512.814 5426.387 2600.390 6338.289 7094.691 6693.176 24762.837 55390.808 19407.565 16016.212 22583.302 4801.007 72193.465 3290.810 8521.273 10198.124 14376.759 17107.138 23370.601 22713.193 3522.562 42543.764 16472.849 6898.231 4559.552 41385.180
6911.769 20260.504 3319.459 8704.534 18339.007 6078.278 6642.290 10554.984 3091.103 9289.714 9823.450 11563.508 13999.159 10170.485 12508.094 34599.249 12474.623 3937.441 17657.374 5507.324 19420.500 8422.588 18825.517 19702.678 12619.359 38731.350 14284.727 12693.336 66692.775 25648.900 61037.136 24492.119 9534.977 10241.059 8950.957 15962.402 59290.387 8441.762 11071.150 1562.437 18862.185 1442.026 24231.424 8090.916 16654.064 1663.514 8122.891 9168.994 7494.910 30829.859 19344.211 11718.456 6864.506 13577.194 13452.349 10803.564 0.000 12627.754 37178.188 8610.907 64763.170 12542.044 8783.393 8662.462 3824.089 8556.459 39268.968 21926.093 75405.789 16491.891 12406.273 13051.538 28895.602 15290.531 14436.861 13092.642 11554.998 9789.160 1360.216 20799.741 19668.241 12219.696 15230.635 19021.485 20072.704 15734.148 14538.999 5599.571 25675.762 7232.301 5606.575 10719.631 18373.658 19439.842 18157.270 10426.236 6574.982 2557.776 6546.533 9631.084 12340.950 6554.901 5489.589 16356.817 17279.636 48622.099 19446.226 6733.678 11528.184 13194.073 63372.941 9149.047 15176.558 10034.557 9153.811 6052.021 12499.349 15602.830 8951.855 35775.055 22874.373 11204.316 7445.814 43012.426
15388.166 19586.988 11201.635 11831.320 25168.800 11301.051 10327.046 8563.826 11945.885 7858.646 11386.940 11348.196 25215.025 5558.965 12292.782 36308.174 22905.698 13743.814 28525.360 16665.455 19945.258 7073.394 20118.313 21087.509 6327.204 45138.714 12584.084 19292.625 78562.153 27278.589 72906.514 35712.662 8883.673 5809.008 4010.989 22906.505 71159.765 11339.442 23022.762 13215.873 18563.911 12929.662 35451.967 5500.838 27653.452 11473.339 5394.964 7712.503 11494.031 38687.477 19868.969 13348.146 10321.370 21156.113 18306.197 8812.406 12314.023 0.000 39742.173 5592.138 76632.548 15985.813 11252.579 6835.068 9320.692 11454.139 33834.073 28738.660 87275.167 14791.248 22837.348 14681.227 18063.120 16577.583 24866.365 14722.331 23325.955 17658.356 12457.247 32668.200 21053.072 13849.385 18901.773 16754.351 26984.000 19432.376 26457.506 15527.549 18887.387 11957.626 13365.537 9026.041 20003.347 20633.982 29021.041 5814.716 16656.405 12220.607 12485.893 4454.880 8657.637 7125.810 10160.562 14656.175 29231.247 60263.011 26317.135 18519.670 22845.639 8355.187 75242.319 9712.522 16561.389 17045.358 19233.826 15063.258 23816.804 27373.787 7090.839 47415.967 24504.062 13807.800 9533.679 48294.749
30355.993 55442.818 35025.811 29410.523 19731.950 31859.480 31992.491 32697.352 34540.347 32637.842 29324.843 30369.401 28750.120 36166.490 31000.586 21191.113 27301.451 40680.316 24559.419 40687.741 29314.347 33975.645 26137.025 25374.255 44573.825 74081.383 31441.449 49342.136 84847.979 21150.688 79192.341 25751.534 31817.814 36237.064 38066.716 51312.435 79025.778 30219.063 31874.950 35682.654 31692.052 36060.524 25783.077 36672.377 26315.435 37293.235 36673.004 32865.057 30481.402 15024.481 27825.651 27235.533 31733.006 24069.620 24727.520 32482.757 37521.432 40532.642 0.000 35106.332 82918.374 25162.338 29560.202 33932.204 37898.049 30333.760 55392.773 17103.387 93560.994 31931.917 27223.940 27591.656 53783.194 27721.091 26328.636 26696.130 29886.384 27800.704 36082.685 33666.077 25523.118 26956.943 22488.719 33947.143 55422.737 22046.236 34473.205 42044.444 45608.399 30801.971 32194.377 32548.585 24551.228 26496.425 24812.621 36422.241 41287.514 35125.339 31754.920 36466.938 34613.904 34853.904 33256.375 31953.599 32017.625 44728.799 19157.992 35968.684 36624.923 36868.890 83876.826 31564.494 27777.912 28733.254 29434.124 42529.786 36936.451 30101.779 34221.597 37269.929 23385.676 26711.337 32024.606 10794.645
10181.838 23010.021 6552.729 6239.183 19576.663 6009.950 4805.001 2971.688 7126.307 2266.509 5794.802 5756.059 20008.698 1821.474 6700.645 30716.036 17699.370 12366.611 23319.032 14052.996 14353.121 1481.256 14526.175 15495.372 10242.720 45256.276 7363.442 19144.758 74175.242 21686.452 68519.604 30506.335 3291.535 1892.049 4542.693 22681.161 66772.854 5747.305 18553.617 8668.012 13343.269 8381.801 30245.640 3151.163 22447.124 8035.975 3051.882 2120.365 5901.893 33095.339 14276.831 7756.008 4798.512 15563.976 12714.059 3220.269 9156.440 5779.677 34150.035 0.000 72245.637 10393.675 5660.442 1242.930 7337.844 5862.002 30816.439 23146.522 82888.256 9570.606 17631.020 9089.089 21782.670 10985.446 19660.037 9130.193 18560.582 12452.028 7909.386 27554.959 15460.934 8257.248 13309.636 11950.809 26791.463 13840.238 22021.466 14054.282 17223.233 6434.769 8159.209 3433.904 14411.209 15041.845 23814.713 2077.225 15120.653 7474.380 7089.430 1851.981 3846.652 2978.293 4954.234 9435.532 24428.712 55056.683 20724.997 14556.043 20073.856 4741.544 70855.408 4120.384 10969.252 11453.220 14027.499 13957.398 21045.020 22379.069 1498.701 42209.639 18911.925 8215.663 3941.541 42702.612
63605.169 79424.169 66324.688 69130.212 67190.995 67298.402 67862.414 71775.108 65520.672 70509.838 70395.298 71970.425 56896.961 73439.145 72915.011 89285.325 59599.933 64362.537 59845.278 61225.639 79145.797 71050.392 77261.906 76499.136 75307.321 65329.812 75149.477 67471.197 2814.079 81511.011 4243.734 58258.291 70755.102 73509.719 73517.106 69411.100 7374.850 69661.886 54901.833 64507.509 78618.265 65241.704 57997.596 72122.766 58191.322 66247.107 72154.741 70398.822 68715.034 69266.036 78419.150 70792.464 68084.630 66318.373 68017.472 72023.689 65232.506 77121.398 83179.244 71879.567 0.000 69668.862 69776.361 71290.266 68404.268 69776.583 101940.270 68767.709 49032.329 76948.020 59452.814 71953.280 93166.766 74364.539 59660.310 71403.632 56450.252 65100.090 65317.028 52667.575 76647.999 71293.704 70465.424 79385.462 71862.804 70576.485 51849.175 62214.159 88478.820 68145.485 64993.262 71939.755 75200.140 77763.811 60260.567 73694.895 61295.935 65563.004 67089.266 73469.651 74114.429 70586.751 67536.934 76723.540 54314.714 55253.986 66594.157 59690.689 54130.545 75410.010 14681.392 70369.171 74250.566 66071.145 60805.706 62784.859 53550.526 56209.743 71579.658 49211.240 78736.484 68947.889 68665.938 76308.511
6984.171 31519.862 11322.629 5401.235 9801.191 7936.524 8069.535 8787.609 10837.165 8714.886 5401.888 6846.182 14601.341 12243.534 7477.368 22473.865 12210.134 16977.133 14921.008 17557.559 11271.531 10052.689 8948.551 8602.982 20650.869 51683.026 9180.421 25881.900 71951.105 13614.857 66295.466 22343.246 7894.858 12314.109 14143.761 28914.078 64548.717 6296.107 14909.925 11979.472 12009.853 12357.341 22374.788 12749.421 15671.358 13590.053 12750.048 8942.101 6558.446 23319.867 10250.662 3712.315 7810.051 5874.745 2922.050 8732.568 13836.080 16609.686 25052.804 11183.376 70021.500 0.000 5637.246 10009.249 13975.093 6410.804 35891.953 13270.650 80664.119 10479.595 12132.623 4212.680 31521.605 6552.292 12609.666 3657.696 13601.221 4967.206 12379.503 21795.692 8751.845 3577.967 3294.014 12903.400 33024.380 3824.616 18545.321 18341.261 23555.999 6879.015 8491.195 8680.903 7303.986 9600.609 15174.211 12499.285 18625.216 11422.156 7272.565 12543.982 11037.677 10930.948 9333.419 10255.115 19010.753 48735.203 10949.525 12596.862 19496.879 13292.663 68631.271 7641.538 6438.319 4267.246 9114.569 18826.603 19808.407 16971.712 10298.641 35888.159 10840.330 2696.561 8101.650 33174.460
7254.381 26307.804 6768.664 1338.813 14949.546 3252.496 2821.803 3746.728 6298.078 3674.005 1167.686 3382.299 16952.900 7063.925 4326.885 26088.920 14643.573 12616.202 19308.546 13920.976 11100.852 4556.438 10235.953 11113.113 15013.623 47113.202 6647.217 21001.684 72204.430 17059.335 66548.792 27175.750 2745.139 7134.500 8506.514 24538.087 64802.042 1198.520 16324.589 8287.545 10573.320 8118.346 26915.055 7112.175 19014.694 8826.680 7142.702 3740.268 1874.418 28468.223 10755.577 3128.892 2910.346 10936.859 8086.943 3691.687 9475.149 11445.543 29522.919 6019.234 70274.826 5766.559 0.000 4794.054 9078.454 1313.218 33210.365 18519.406 80917.445 8601.915 14575.223 4461.973 26907.835 6700.966 15953.001 4503.077 15892.912 8135.089 8003.555 24499.161 11078.676 3630.131 8682.519 11308.087 28648.389 9213.122 19959.986 14013.222 20390.183 2194.987 5973.259 3640.022 9784.093 10850.278 19609.863 7319.676 14988.634 6883.070 3541.253 7379.840 6128.903 5293.702 4576.350 8377.435 21372.915 52000.885 16097.881 12729.977 19570.930 8329.519 68884.596 2359.209 6586.994 6888.440 10986.837 14465.672 20061.733 19323.271 5083.446 39153.841 14284.808 3588.546 2464.404 38075.495
9702.184 23363.896 6780.514 5262.386 18667.542 4999.784 3821.018 2225.919 7282.583 1290.138 4885.682 4968.333 19529.043 2905.306 5912.919 29806.915 17219.715 12594.396 22599.941 14280.781 13565.395 831.018 13738.449 14707.646 11363.812 45562.267 6901.542 19450.749 73885.121 20777.331 68229.483 30026.680 2315.207 2975.880 4896.569 22987.152 66482.733 4770.508 18217.105 8895.797 12881.369 8609.586 29765.985 3505.039 21967.469 8263.760 3438.088 1143.994 4925.096 32186.218 13489.105 6846.887 3814.530 14654.855 11804.938 2474.499 9384.225 6900.769 33240.914 1462.894 71955.517 9484.554 4684.071 0.000 7643.835 4885.205 31716.302 22237.401 82598.136 9108.706 17151.365 8179.969 22903.762 10197.720 19143.001 8221.072 18080.928 11538.574 8137.171 27075.304 14673.208 7348.127 12400.515 11638.300 27097.454 12931.117 21731.345 14282.067 18123.096 5450.787 7548.503 2646.178 13502.088 14254.119 22901.258 3161.057 15348.438 7702.165 6105.447 2973.073 4300.716 3284.284 5094.559 8973.632 23949.058 54577.028 19815.876 14388.035 20301.641 5372.575 70565.287 3144.013 10181.526 10476.849 13547.844 14263.389 21272.805 21899.414 289.392 41729.984 18002.804 7306.542 2957.559 41793.491
8978.780 18490.641 3810.118 8824.782 20146.479 6566.625 6723.516 9719.691 4554.368 8317.817 9741.487 11481.545 17200.992 8472.721 12426.131 34662.721 15676.456 5388.746 20859.206 8255.655 19338.538 7263.219 18809.754 19686.914 8954.068 38553.299 14121.600 12441.782 69993.029 25633.136 64337.390 27693.952 9053.413 8722.764 6079.996 15978.184 62590.640 8536.573 14453.637 4857.392 18780.222 4571.181 27433.257 5401.655 19855.897 2904.215 5433.629 8169.873 7615.159 32949.194 19262.248 11702.693 6945.732 15384.666 15259.821 9968.271 3744.898 9756.793 38096.719 7335.544 68063.424 13960.172 8903.642 7534.240 0.000 8651.271 37685.081 23733.565 78706.043 16328.764 15608.106 13035.774 26024.641 15274.767 17638.693 13076.878 14756.831 11596.632 4098.766 24099.076 19652.477 12203.932 16798.669 18858.358 20088.487 17302.181 17888.381 7429.375 23293.943 7739.314 7070.058 9909.018 18357.894 19424.079 21359.103 8728.472 8558.231 4636.255 7384.589 6941.823 11065.587 4668.819 5023.652 16193.690 20662.123 51823.932 21253.698 9950.546 14276.515 11918.710 66673.195 8920.437 15160.794 11842.029 12236.426 7015.324 15247.680 18804.663 7823.632 38976.888 22858.609 11782.160 7031.665 44945.065
7032.226 26509.660 6582.185 1116.658 15322.423 3014.203 3023.660 3948.585 6111.600 3875.861 1540.562 3769.097 16730.746 7265.782 4713.683 26461.796 14421.418 12429.724 19086.392 13734.498 11473.728 4758.295 10608.829 11485.990 15215.480 47135.617 7020.093 21203.541 71966.138 17432.212 66310.500 26953.595 2946.995 7336.356 8708.371 24366.669 64563.750 1211.231 16086.297 8101.067 10946.196 7931.868 26692.900 7314.031 18792.540 8864.488 7344.558 3942.125 1636.125 28841.099 11128.453 3501.768 2887.730 11309.736 8459.819 3893.544 9288.670 11647.400 29895.795 6221.090 70036.533 6139.435 386.798 4995.910 9052.772 0.000 33583.242 18892.282 80679.153 8988.713 14353.068 4834.849 27109.692 7073.842 15730.847 4875.953 15670.758 7976.854 7817.077 24277.007 11451.552 4003.008 9055.395 11694.885 28476.971 9585.998 19721.694 13826.744 20592.039 1956.695 5734.967 3841.878 10156.969 11223.154 19387.709 7521.533 14802.155 6696.591 3302.961 7581.696 6330.760 5495.558 4411.099 8764.233 21150.761 51778.731 16470.757 12491.685 19332.638 8531.376 68646.304 2561.065 6959.870 6907.357 10764.683 14279.194 19823.441 19101.117 5285.303 38931.687 14657.685 3961.423 2666.260 38448.372
39018.402 51650.501 37470.912 33781.684 44495.525 35744.122 34661.951 31084.185 38044.490 32407.434 32840.254 30547.693 48616.193 29985.445 29598.509 45984.456 46306.866 43284.794 50110.255 44971.179 30088.365 32196.273 31583.742 32635.276 38542.941 76101.514 27148.751 50062.941 104233.693 35712.903 98578.054 57532.493 32862.718 29985.497 33716.590 53599.344 96831.304 33941.150 48128.520 39586.195 26236.086 39299.983 57564.035 33339.574 50677.987 38954.157 33233.700 32261.291 34268.901 58177.889 30146.538 33190.962 34655.463 41073.389 38111.297 30869.589 40074.623 33034.676 55192.755 31271.550 102304.088 35198.645 33063.665 31957.947 38256.026 34055.847 0.000 46987.813 112946.707 25584.127 46238.516 32129.875 28903.160 30533.975 47616.294 32777.758 47556.205 39240.802 38827.568 56162.454 32486.413 33147.638 37816.945 23163.901 57709.646 38347.548 51763.916 44972.464 15979.813 34686.613 38390.782 31566.687 33573.747 31564.681 50363.458 29729.694 46038.836 38392.563 36032.879 31520.013 28721.544 33896.476 35872.416 26836.227 53036.208 83664.178 45892.504 44879.450 50992.038 27564.768 100913.858 32428.439 30679.627 38318.520 42650.130 44875.581 51963.203 50986.564 32213.718 70817.134 35190.240 34772.420 34018.245 64737.662
14392.433 41032.705 19267.198 17111.824 3065.878 17892.647 18997.921 20541.518 18781.734 20468.795 17558.039 18571.886 13185.305 23997.443 19203.071 22323.250 11042.607 24814.827 9486.392 24701.386 18949.969 21784.980 15772.647 15009.877 31492.914 58516.568 20627.903 33679.860 72123.633 17697.889 66467.995 14324.411 19648.766 24068.017 25588.282 35747.619 64721.245 18093.142 16278.170 19924.041 21327.675 20301.910 14355.953 24193.942 11242.409 21534.622 24224.469 20696.010 18355.481 12541.357 17572.246 15438.018 18738.436 8186.531 9923.557 20486.477 21557.872 28363.595 16889.050 22937.285 70194.028 12864.117 17434.282 21763.157 22949.796 18207.840 46433.039 0.000 80836.647 21341.478 10965.096 15794.141 42965.772 16909.217 10510.240 14898.614 13737.594 11837.143 20324.072 19236.685 15158.740 15159.428 9693.501 23356.704 39857.922 9163.815 19138.952 26116.662 35000.167 17674.978 16435.764 20434.811 14186.850 16274.552 9739.594 24253.194 25722.699 19366.725 16523.350 24297.891 22816.388 22268.829 18803.050 21141.726 16944.598 41125.700 3446.691 19616.183 21060.108 25071.374 68803.799 19395.446 16966.038 12974.641 12706.171 26664.297 21371.636 15028.752 22052.550 28266.905 15065.369 14744.264 19319.744 22458.454
74869.702 90688.701 77589.220 80394.744 78455.527 78562.935 79126.946 83039.641 76785.204 81774.371 81659.831 83234.958 68161.494 84703.677 84179.544 100549.857 70864.466 75627.069 71109.811 72490.171 90410.329 82314.924 88526.438 87763.668 86571.854 81917.374 86414.009 78735.729 51840.553 92775.543 46184.914 69522.823 82019.634 84774.252 84781.638 80675.632 46018.352 80926.419 66166.365 75772.041 89882.797 76506.236 69262.128 83387.299 69455.854 77511.639 83419.273 81663.355 79979.567 80530.569 89683.682 82056.997 79349.162 77582.906 79282.005 83288.221 76497.038 88385.931 94443.776 83144.099 49910.948 80933.395 81040.893 82554.798 79668.800 81041.116 113204.802 80032.241 0.000 88212.552 70717.347 83217.812 104431.298 85629.071 70924.843 82668.165 67714.785 76364.623 76581.561 63932.107 87912.531 82558.237 81729.956 90649.994 84785.934 81841.018 63113.708 73478.692 99743.352 79410.017 76257.795 83204.288 86464.672 89028.343 71525.099 84959.428 72560.467 76827.537 78353.799 84734.184 85378.962 81851.284 78801.467 87988.072 65579.247 66518.518 77858.690 70955.221 65395.077 86674.542 51268.496 81633.704 85515.099 77335.678 72070.239 74049.391 64815.058 67474.275 82844.191 60475.773 90001.017 80212.421 79930.471 87573.044
13816.921 31744.529 14075.685 8659.753 19103.301 11195.576 10128.825 6560.687 13605.099 8065.500 7782.841 5785.515 23414.712 9018.488 5049.963 24582.908 21105.384 19923.224 24718.031 21227.997 6953.023 9211.650 7401.057 8406.596 19031.580 53942.900 2600.205 27831.382 79032.211 14977.011 73376.573 32140.268 8314.172 9089.063 13277.201 31367.785 71629.823 9392.603 22927.038 15594.567 4025.043 15425.368 32171.810 11885.671 25476.505 16079.283 11818.720 8292.715 9720.354 32785.665 6908.753 7798.737 10131.965 15681.165 12719.073 6346.092 16782.170 14461.226 31898.600 9245.400 77102.606 9806.420 8515.119 8968.714 16024.468 9507.301 25538.609 21595.589 87745.226 0.000 21037.034 6737.651 23978.577 5141.751 22414.813 7385.533 22354.724 13848.578 15310.576 30960.973 8372.158 7755.414 12424.721 3196.869 35478.087 12955.323 26562.435 21320.244 14123.530 10138.067 13493.298 7043.190 8456.257 7916.726 24971.233 9274.239 22295.655 14190.091 11083.355 10415.174 6085.928 11664.917 11859.265 1252.100 27834.726 58462.697 20500.280 19677.969 26577.985 7978.123 75712.377 7904.942 5287.403 12926.296 17448.649 21772.694 26889.513 25785.083 8718.630 45615.653 11832.052 9380.196 9494.748 41134.489
7793.056 32083.207 12599.393 13004.615 9351.634 12807.910 13371.921 17056.029 11728.456 16019.346 13981.384 15556.510 2834.806 19047.173 16501.097 30492.560 217.822 15651.005 5819.413 14201.989 22011.398 16559.899 19509.031 18746.261 24408.140 47824.647 18735.562 23085.400 62096.300 22965.222 56440.661 12875.314 16163.278 19117.748 19508.585 25055.698 54693.912 14100.159 5453.385 11152.054 22204.350 11886.249 12614.619 18114.246 4816.104 13489.631 18146.220 15908.330 13460.835 19406.268 20990.529 14022.790 13594.137 7656.436 10264.598 17000.988 12394.051 23005.376 28107.887 17487.595 60166.695 12197.818 13650.764 16799.773 15612.870 14214.856 45526.355 12142.274 70809.314 20534.105 0.000 14523.156 39008.369 16935.918 3013.270 13973.508 2912.809 7629.046 11961.573 9979.266 18895.124 13888.443 12460.166 22971.547 29166.000 12033.202 8447.031 15672.252 33058.065 12756.060 10502.770 16949.323 17447.265 20010.936 6319.310 19302.924 15030.778 12050.255 11604.431 19077.680 19438.204 16370.962 13046.442 20309.625 7194.328 37480.990 9551.603 9203.223 10368.187 20919.517 58776.466 15825.031 16821.945 8600.102 3548.998 16242.951 10679.715 5252.473 17089.166 24633.946 20332.702 12062.729 14175.446 32297.046
9166.265 30481.213 10918.891 4729.174 13385.882 7350.909 7131.159 5988.634 10448.306 6520.243 3873.917 3102.088 17174.608 9561.003 3733.274 22496.550 14865.281 16766.430 18433.461 18071.204 7488.242 7858.046 5947.749 6824.909 18390.197 51422.557 4967.741 25311.039 74162.350 13466.965 68506.712 25927.937 5880.704 9631.577 12013.886 28703.375 66759.962 5710.492 17202.980 12437.773 7870.323 12268.574 25959.479 10622.356 19065.166 13136.036 10555.405 6747.458 5972.831 26904.558 6467.373 1574.151 7224.436 9468.834 6506.742 5774.038 13625.376 13927.154 26938.278 8500.845 72232.746 3594.089 4856.213 7783.189 13387.810 5825.189 31679.272 16264.375 82875.365 6266.915 14796.931 0.000 27308.924 2412.762 16003.474 1211.314 16174.489 7361.164 12153.782 24720.870 6790.472 1321.623 6662.902 8690.719 32813.677 7193.505 20838.377 18163.450 19343.319 6293.400 9435.031 5839.866 6126.151 6562.074 18734.778 9816.753 19138.861 11033.297 7152.776 9861.451 7566.150 9555.797 8747.805 6042.435 21594.623 52129.011 14534.217 14808.108 21708.125 9821.135 70842.516 5844.298 2298.789 6438.882 11407.625 18615.900 22019.653 19544.979 7840.518 39281.967 10250.366 3673.493 6726.499 36079.949
32044.193 32709.814 28183.944 27693.478 40678.849 27957.078 26770.532 24224.017 28928.194 24232.040 26896.988 25281.740 41871.053 21061.070 24923.434 49207.004 39561.725 30952.713 45114.573 33604.834 31929.730 23720.197 32323.779 33329.318 22289.334 61952.076 24009.505 36105.987 95342.208 39938.681 89686.569 52368.690 25257.066 21220.584 20993.299 39719.867 87939.820 27614.093 39802.816 30198.182 28241.320 29911.971 52107.995 22285.042 44309.479 28253.394 22179.169 24085.896 27867.424 54197.525 31885.460 28574.744 26764.043 36666.162 33816.245 24227.096 29094.077 18299.831 53800.491 22238.941 93412.603 31304.806 26974.531 23481.871 26100.747 27728.791 30675.841 43565.301 104055.222 25123.963 39493.375 28236.036 0.000 28840.977 41522.392 28883.919 40106.010 33864.391 29439.556 49417.314 33294.881 28893.933 33972.904 24913.079 43797.362 34503.506 43237.560 32993.342 16909.506 28400.300 30021.564 24706.519 33275.814 32839.449 45415.890 20965.772 34122.198 29202.916 29054.961 21031.350 21673.420 24108.120 26816.589 26081.595 46011.302 76919.038 41827.183 35299.725 39625.694 19795.268 92022.374 25806.462 28986.630 32617.742 35889.854 32554.571 40596.859 44153.842 23737.642 64071.994 36754.774 29317.849 25907.072 63134.611
11455.129 32386.013 12823.691 6633.974 14735.369 9255.709 9035.958 7893.433 12353.105 8425.042 5778.717 5006.888 19463.472 11465.802 5259.849 21185.295 17154.145 18671.230 20445.556 19976.003 5412.838 9762.846 4095.799 5008.983 20294.997 53327.357 5230.564 27215.839 76451.214 12043.416 70795.576 27867.794 7785.503 11536.377 13918.685 30608.174 69048.826 7615.292 19491.844 14342.573 5712.128 14173.373 27899.336 12527.155 21279.228 15040.835 12460.205 8652.258 7877.631 28493.511 4516.768 3759.266 9129.235 11482.615 8446.599 7678.838 15530.176 15831.954 27739.486 10405.644 74521.609 5607.870 6761.012 9687.989 15292.609 7729.989 30407.574 17436.474 85164.229 5316.013 17085.795 2539.101 27572.309 0.000 18217.536 3186.983 18463.353 9650.028 14058.582 27009.733 4974.546 3610.486 7975.393 7331.239 34718.476 8505.995 23127.241 20068.250 18992.495 8198.200 11467.519 7744.666 4690.561 4611.468 20698.759 11721.553 21043.661 12938.097 9057.576 11766.250 9104.634 11460.596 10652.604 5207.390 23883.487 54313.216 16132.348 17096.972 23996.988 11047.763 73131.380 7749.098 1068.348 8727.746 13696.489 20520.699 24308.517 21833.843 9745.318 41466.172 8434.440 5962.356 8631.298 36975.374
9793.358 34083.509 14599.695 14895.772 8010.358 14639.597 15372.223 18947.186 13728.758 17910.595 15872.541 17447.668 2958.419 21047.475 18392.254 30074.636 2218.124 17578.920 3658.995 14896.040 22504.178 18531.930 19873.584 19110.814 26408.442 48289.682 20601.989 23550.435 62302.614 22666.168 56646.975 11623.271 18054.435 21118.050 21508.887 25520.734 54900.226 15967.692 6083.249 13152.356 23409.998 13886.551 11362.576 20114.548 3061.693 15489.933 20146.522 17799.578 15126.704 16822.482 21483.309 15133.883 15485.386 7671.146 10596.530 18892.145 14394.353 25005.678 26271.321 19487.897 60373.009 12923.445 15541.921 18771.804 17613.172 16082.389 47313.521 10374.030 71015.628 21901.163 2140.613 15634.249 40967.146 18047.011 0.000 15084.601 4094.683 8944.220 13961.875 9908.518 19259.678 14999.535 12161.112 24324.968 29631.036 11734.148 8912.067 16366.304 34949.222 14421.929 12503.072 18840.480 17873.553 20375.489 4158.891 21303.226 15495.813 14050.557 13270.300 21077.982 21329.361 18371.264 15046.744 21676.683 7123.579 36526.060 7783.359 10518.388 10833.222 22810.766 58982.780 17716.188 17933.038 9927.295 5549.300 16937.003 11144.751 5207.733 19061.196 23679.016 20033.648 13389.922 16066.694 29713.261
8530.763 30850.679 11208.637 5018.920 12254.977 7640.655 7411.939 6654.289 10738.052 7174.603 4161.637 4326.338 16539.106 10215.363 4957.523 21707.714 14229.779 17056.176 17374.794 18360.950 8584.845 8512.406 6472.450 7141.137 19044.557 51703.337 6376.191 25591.820 73526.848 12678.129 67871.209 24797.032 6535.064 10285.937 12668.246 28993.121 66124.460 6000.238 16567.478 12727.519 8966.926 12558.320 24828.574 11276.716 18134.542 13416.816 11209.765 7401.818 6262.577 25773.653 7563.976 1192.470 7514.182 8337.929 5375.837 6439.694 13915.122 14581.514 25807.372 9155.205 71597.243 2463.184 5136.993 8437.549 13668.590 6114.936 33087.722 15133.469 82239.862 7675.365 14161.429 1548.593 28717.374 3509.365 15072.849 0.000 15538.987 6725.661 12443.529 24085.367 7273.651 913.880 5531.997 10099.169 33103.423 6062.599 20202.874 18453.196 20751.769 6583.147 9341.419 6505.522 5402.887 7124.507 17627.997 10471.113 19428.607 11323.043 7442.522 10515.811 8570.841 9836.577 9037.551 7450.885 20959.121 51198.387 13403.311 14172.605 21072.622 10825.826 70207.014 6498.658 3395.393 5803.380 10772.122 18905.646 21384.150 18909.477 8494.878 38351.343 9903.603 3037.990 7007.279 34949.043
9016.901 30977.085 12268.737 14424.813 11469.867 13306.607 13870.618 17783.313 11528.876 16518.043 15401.581 16976.708 2819.944 19447.349 17921.295 33211.905 3405.392 13484.237 6792.667 11422.471 23431.596 17058.596 20929.229 20166.459 23707.645 44911.838 20155.760 20172.591 59183.491 25178.334 53527.852 13119.789 16763.306 19517.924 19525.311 22142.889 51781.103 15277.707 2540.576 10451.558 23624.548 11185.753 12859.094 18130.971 5530.826 12789.135 18162.945 16407.027 14436.719 20541.254 22410.727 15442.988 14092.835 9985.697 11684.796 18031.893 11693.555 23129.603 30092.461 17887.771 57253.886 13618.016 15070.962 17298.470 14912.375 15392.405 46946.553 14126.847 67896.505 21954.303 3258.273 15943.354 39174.971 18356.116 4548.193 15393.706 0.000 9049.244 11261.078 9524.913 20315.322 15308.640 14132.747 24391.745 26253.191 14243.809 5534.222 12892.734 34478.263 13731.944 11001.467 17947.960 18867.463 21431.134 7292.563 19703.100 12117.969 11507.054 12580.315 19477.856 20122.634 16594.956 13545.139 21729.823 6230.604 37249.769 11536.177 6423.705 7455.378 21418.215 55863.657 16377.376 18242.143 10020.300 4892.925 13463.433 7766.906 4230.500 17587.863 24402.725 22403.808 13482.927 14674.143 33432.032
3039.493 29807.745 8042.237 6899.925 8672.853 6667.686 7772.960 10909.171 7556.773 9938.684 7807.192 9382.319 10006.514 13151.325 10326.906 26027.336 7697.187 13461.887 11507.681 13980.021 14963.625 10560.019 12909.738 12146.968 20267.954 48167.780 12443.124 22326.921 67668.728 17158.843 62013.089 19578.253 10016.419 13221.900 14363.321 25398.832 60266.339 7995.469 10384.063 8646.543 15345.706 9024.412 19609.795 12968.982 11848.599 10309.661 12999.509 9827.668 7154.793 21475.569 13942.756 6975.017 7513.476 3911.040 4190.164 10854.130 10204.933 17532.943 27573.591 12106.634 65739.123 5150.045 7546.074 10799.893 11724.835 8110.166 39154.655 12259.939 76381.742 13742.298 7628.837 7475.383 32995.235 9888.145 8786.907 6925.735 9006.395 0.000 9099.111 17552.775 12295.831 6840.670 6387.931 16166.102 29509.134 6811.922 14019.459 14763.723 26818.702 6450.018 5210.804 10802.464 10847.972 13411.643 11808.997 13407.076 15047.678 8141.765 5298.389 13467.239 13291.346 11043.869 7578.090 13517.818 14426.529 44912.444 9780.072 8652.185 15141.050 14838.856 64348.893 9720.341 9774.172 1749.680 4572.620 15311.357 15452.578 12376.885 11089.286 32065.400 14384.317 5212.308 8094.784 33471.440
6024.692 21333.157 2150.779 7586.843 17221.316 4960.587 5524.599 9437.293 1973.412 8172.023 8705.759 10445.817 14127.505 9197.342 11390.403 33481.558 12229.002 4957.838 17785.719 6262.611 18302.809 7449.446 17707.826 18584.987 12654.788 39663.731 13167.036 13765.989 66868.626 24531.209 61212.987 24620.465 8417.286 9267.916 8886.477 16894.782 59466.237 7324.071 11247.001 1044.950 17744.494 758.738 24359.770 7492.138 16782.410 1702.694 7524.112 8061.007 6377.219 30024.031 18226.520 10600.765 5746.815 12459.503 12334.658 9685.873 1799.923 12490.770 36060.497 7637.764 64939.021 11424.353 7665.702 7689.320 3859.518 7438.768 38295.825 20808.402 75581.640 15374.200 12160.652 11933.847 28536.137 14172.840 14189.669 11974.951 11683.344 8671.469 0.000 20975.592 18550.550 11102.005 14112.944 17903.794 21005.084 14616.457 14714.849 6354.858 24702.619 6114.610 4488.884 9601.940 17255.967 18322.151 18285.616 9453.093 7330.269 1440.085 5428.842 9032.306 11367.807 5956.123 4332.884 15239.126 17455.486 48750.445 18328.535 6909.529 12283.471 12220.930 63548.791 8031.356 14058.867 8916.866 8557.130 6807.308 13254.636 15731.176 7978.712 35903.401 21756.682 10086.625 6328.123 42019.902
17847.688 36938.046 21835.385 23059.247 17803.165 22847.997 23412.009 27110.661 21070.267 26059.433 24036.015 25611.142 7569.482 28988.740 26555.728 39897.496 10272.454 21145.532 9591.867 18008.634 31894.404 26599.987 29325.545 28562.775 32090.317 50066.148 28790.194 25357.296 56175.458 32370.157 50519.820 10504.988 26217.909 29059.314 29066.701 27297.200 48987.330 24154.791 9852.410 20018.206 32258.982 20752.401 10244.294 27672.362 8466.343 22355.783 27704.336 25948.417 23515.467 21682.450 30873.535 24077.422 23634.225 17061.372 19986.756 27055.620 21260.203 32670.994 33328.718 27429.162 54245.853 22252.450 23705.395 26839.861 24479.023 24269.488 55580.986 18296.495 64888.472 30588.737 10125.334 24577.787 48716.361 26990.549 10272.481 24028.140 9653.710 17683.678 20827.726 0.000 28711.638 23943.074 21865.102 33026.179 31407.502 21438.137 8195.507 18997.155 43112.696 22810.691 20542.857 27003.954 27263.779 29827.450 9604.815 29244.491 18078.930 21073.702 21659.063 29019.246 29492.836 26136.346 23086.529 30364.257 3776.174 32619.597 16271.216 15021.582 10913.540 30959.605 53069.884 25879.662 26876.577 18654.733 13603.630 19567.854 10601.392 7119.655 27129.253 19772.553 29737.637 22117.361 24215.533 32850.840
14015.120 37054.124 17491.802 11302.085 12418.305 13923.820 13704.070 12561.545 17021.217 13093.154 10446.828 9675.000 21141.490 16133.914 9725.379 16377.751 18700.392 23339.341 20222.981 24644.115 4095.548 14430.957 1141.239 148.863 24963.108 57995.468 9382.755 31883.951 78891.516 7235.871 73235.878 25630.363 12453.615 16204.488 18586.797 35276.286 71489.128 12283.403 21606.851 19010.684 6559.603 18841.485 25661.905 17195.267 21973.678 19708.947 17128.316 13320.369 12545.742 26100.669 2576.444 8427.377 13797.347 12074.042 8936.560 12346.950 20198.287 20500.066 25213.605 15073.756 76961.912 8006.425 11429.124 14356.100 19960.721 12398.101 31740.680 14910.593 87604.531 8025.082 18622.881 7207.212 31755.010 5035.212 19099.924 7339.040 20229.183 11907.635 18726.694 28285.950 0.000 8152.633 8242.729 9726.610 39386.588 7978.147 25242.248 24736.361 21088.703 12866.312 15812.874 12412.777 1904.173 1230.238 20476.183 16389.665 25711.772 17606.208 13725.687 16434.362 13266.242 16128.708 15320.716 8182.544 25501.011 52431.652 13815.284 19627.811 26363.839 15209.371 75571.682 12417.210 5735.829 11393.617 15795.408 25188.811 26675.367 23544.719 14413.429 39572.857 3626.895 9555.424 13299.410 34449.493
8569.780 30166.708 10524.666 4334.949 12789.396 6956.684 6727.968 5970.318 10054.080 6490.632 3477.666 3557.657 16578.123 9531.391 4188.842 22907.793 14268.795 16372.205 17836.976 17676.978 8784.986 7828.435 7244.493 8121.653 18360.586 51019.366 5963.929 24907.848 73565.865 13878.209 67910.226 25331.451 5851.093 9601.966 11984.274 28309.149 66163.477 5316.267 16606.495 12043.548 8961.485 11874.349 25362.994 10592.744 18468.681 12732.845 10525.794 6717.847 5578.606 26308.073 7764.117 508.499 6830.211 8872.348 5910.256 5755.723 13231.151 13897.543 26341.792 8471.233 71636.260 2997.603 4453.022 7753.578 12984.619 5430.964 32717.236 15667.889 82278.879 7304.878 14200.445 1311.317 28305.112 3709.506 15406.988 1321.950 15578.003 6764.678 11759.557 24124.384 8087.216 0.000 6066.417 9728.683 32419.452 6597.019 20241.891 17769.225 20339.507 5899.175 8708.618 5821.550 6602.966 7858.818 18138.293 9787.142 18744.636 10639.072 6758.551 9831.839 7886.870 9152.606 8353.580 7080.398 20998.138 51532.526 13937.731 14211.622 21111.639 10141.855 70246.031 5814.687 3595.533 5842.397 10811.139 18221.675 21423.167 18948.494 7810.907 38685.482 11103.682 3077.007 6323.308 35483.463
9059.669 34413.303 13688.857 8381.009 7094.219 10829.965 10962.976 11681.050 13203.393 11608.327 8295.328 9618.452 14514.150 15136.975 10249.637 20001.504 12073.052 19343.362 13691.516 19923.788 12380.151 12946.130 9202.828 8440.059 23544.310 54049.255 11674.469 28248.128 73358.684 12057.041 67703.046 20306.278 10788.299 15207.549 17037.201 31280.307 65956.296 9189.548 16074.019 14345.700 13310.260 14723.570 20337.820 15642.862 14990.312 15956.281 15643.489 11835.542 9451.887 20852.361 11002.427 6484.584 10703.491 5143.692 2456.365 11626.009 16202.308 19503.127 22224.642 14076.817 71429.080 3826.971 8530.687 12902.689 16868.534 9304.245 37825.130 9976.636 82071.699 12412.772 11995.541 6840.707 34012.339 7955.783 12196.558 5945.181 14696.351 6587.745 14745.731 21658.610 8588.922 6205.994 0.000 14836.356 35390.609 530.602 19709.416 20707.490 26046.734 9772.456 10857.424 11574.343 7617.032 9704.733 13944.719 15392.726 20991.445 13788.385 10376.231 15437.423 13862.955 13824.389 12226.860 12188.292 18873.671 47107.566 8491.198 14672.360 20831.007 16117.940 70038.850 10534.979 8012.605 6789.904 10262.576 21192.832 21142.535 16917.379 13192.082 34248.771 9365.702 5649.824 10995.091 30206.082
16360.038 34185.104 16682.838 11202.871 21512.300 13802.728 12735.978 9167.840 16212.252 10672.653 10325.959 8606.300 25957.829 10897.418 7657.116 25482.164 23648.502 22530.377 27206.834 23835.150 7490.799 11818.803 8883.733 10061.308 21120.601 56550.052 5207.358 30438.535 81575.329 15210.610 75919.690 34629.072 10921.325 10717.497 15884.354 33974.938 74172.940 11999.756 25470.156 18201.720 3536.077 18032.521 34660.614 14492.824 27966.582 18686.436 14425.873 10899.868 12327.507 35194.664 7446.529 10333.216 12739.118 18169.969 15207.877 8953.245 19389.323 16411.417 34307.600 11815.725 79645.724 12295.224 11122.272 11575.867 18631.620 12114.453 23109.577 24004.588 90288.343 3195.116 23580.152 9226.454 24627.807 7584.728 24904.889 9874.337 24897.841 16337.381 17917.729 33504.090 10026.871 10289.893 14913.525 0.000 38085.240 15444.127 29105.552 23927.397 11710.726 12745.220 16036.416 9650.342 10457.174 8989.781 27460.037 10787.751 24902.808 16797.244 13626.473 12537.027 8378.113 14272.070 14466.418 4447.216 30377.844 61005.814 22909.279 22221.086 29121.103 9292.492 78255.494 10512.095 7730.380 15415.100 19991.766 24379.847 29432.631 28328.200 11325.783 48158.770 13059.003 11923.313 12101.901 43543.488
26542.532 23548.963 22700.409 28146.912 36816.609 25709.041 26045.645 28676.813 22721.866 27274.939 29063.617 30803.675 27054.051 27388.760 31748.261 53984.850 28870.131 16457.850 31178.974 16245.528 38660.667 26220.342 38131.884 39009.044 21624.149 21792.897 33276.340 7602.144 75512.704 44955.266 69857.066 37113.982 28010.536 27638.803 24276.251 4538.500 68110.316 27858.703 23872.806 21193.200 38102.352 21072.789 36853.287 24141.577 29525.018 20679.444 24349.669 27126.996 26937.289 45258.957 38584.378 31024.822 26267.862 32811.681 32686.836 28925.394 19669.590 26958.819 54882.165 26292.666 73583.099 32172.807 28225.772 26491.362 19911.977 27973.400 56436.885 38994.279 84225.719 35483.504 28801.781 32357.904 43800.378 34596.897 29285.924 32399.008 25959.724 29023.648 21029.806 31073.635 38974.607 31526.062 34742.520 38013.098 0.000 35166.511 24037.924 14661.148 41490.198 26863.064 25237.338 28866.140 37680.024 38746.209 31594.263 27644.511 14852.626 22188.539 26177.296 25857.862 30022.709 23625.942 24388.627 35348.430 28708.095 61225.982 36403.609 22490.127 20426.058 30862.427 72192.870 27996.400 34482.924 29496.619 28107.945 15146.503 21397.223 28206.712 26780.754 48378.938 42180.739 30835.079 26353.795 58149.735
9266.900 34726.357 13896.088 8694.063 6609.524 11143.019 11276.031 11994.105 13410.624 11921.381 8608.383 9809.220 14112.887 15450.029 10440.405 19585.787 11671.789 19550.593 13264.394 20131.018 11964.433 13259.185 8787.111 8024.341 23857.365 54256.486 11865.237 28455.359 73262.073 11641.324 67606.435 19821.582 11101.353 15520.604 17350.256 31487.537 65859.685 9502.602 15977.408 14552.931 13501.028 14930.801 19853.124 15955.916 14563.190 16163.512 15956.543 12148.597 9764.941 20367.666 10586.710 6675.352 11016.546 4742.429 2766.914 11922.576 16409.539 19816.181 21739.946 14389.872 71332.468 4140.026 8843.742 13215.744 17181.588 9617.300 38015.898 9491.941 81975.088 12603.540 11594.278 7031.475 34203.107 8146.552 11769.435 6135.949 14366.776 6676.357 14952.962 21257.347 8173.204 6396.762 646.651 15027.124 35597.839 0.000 19612.805 20914.721 26237.502 10085.511 11064.654 11887.398 7201.315 9289.016 13517.596 15705.780 21198.676 13995.615 10686.780 15750.478 14053.723 14137.443 12539.915 12379.060 18472.408 46622.871 8006.503 14879.591 20734.396 16308.708 69942.239 10848.033 8203.373 7100.452 10351.188 21400.063 21045.924 16516.116 13505.136 33764.076 8949.985 5962.878 11308.146 29721.386
12427.500 29710.501 15144.508 17952.543 15759.106 16120.733 16684.744 20597.439 14343.002 19332.169 19217.629 20792.756 5873.565 22261.475 21737.342 37908.692 8203.638 13917.988 9345.790 10781.090 27839.776 19872.723 25619.240 24856.470 24862.772 42838.603 23971.807 18129.752 54634.461 29868.345 48978.822 14352.788 19577.432 22332.050 22339.437 20069.655 47232.073 18484.217 3259.167 13327.329 27440.596 14061.524 14092.093 20945.097 7691.833 15643.415 20977.071 19221.153 17537.365 23425.772 26818.907 19614.795 16906.961 14675.708 16374.806 20846.019 14569.326 25943.729 33824.662 20701.897 52704.856 18026.197 18598.691 20112.597 17788.146 18598.914 50762.600 17936.776 63347.475 25770.350 8056.519 20351.534 41989.097 22764.296 8228.422 19801.886 4980.914 13457.424 14136.849 8164.528 25005.333 19716.821 18822.758 28207.793 24179.957 18933.820 0.000 11769.610 37301.150 16967.815 13815.593 20762.086 23557.474 26121.145 9761.078 22517.226 10851.385 14382.825 15911.597 22291.982 22936.760 19409.082 16359.265 25545.870 4791.967 38266.790 15346.106 8428.339 3685.996 24232.341 51314.627 19191.502 22650.323 14428.480 9163.041 12340.310 3373.847 5982.547 20401.989 25419.746 27093.818 17770.220 17488.269 36316.550
11893.739 18223.438 8301.429 13686.504 22924.701 11060.248 11624.259 15536.954 8073.073 14271.684 14805.420 16545.478 14187.406 15554.232 17490.064 39581.219 15691.003 2551.544 18312.329 2081.441 24402.470 13859.999 23807.487 24684.648 13335.706 33491.498 19266.697 8426.283 63672.874 30630.870 58017.235 24247.337 14516.947 15678.470 13034.512 10722.549 56270.486 13423.732 11006.161 6544.407 23844.155 6423.996 23986.642 12489.019 16658.373 6468.292 12520.993 14160.668 12476.880 32392.312 24326.181 16700.426 11846.476 18162.888 18038.043 15785.534 5453.691 15736.301 41825.439 14048.317 61743.269 17524.014 13765.363 14099.873 7498.193 13538.429 44706.378 26127.634 72385.888 21473.861 15622.653 18033.508 32979.157 20272.501 16419.279 18074.612 13093.079 14374.854 6499.320 18603.937 24650.211 17201.666 20093.727 24003.455 14832.851 20517.718 11568.227 0.000 30248.459 12214.271 10588.545 15701.601 23355.628 24421.812 18727.618 15809.983 1343.073 7539.746 11528.503 14029.187 17778.360 11726.337 10615.838 21338.787 16238.397 48359.337 23536.964 9310.999 7956.360 18631.483 60353.040 14131.017 20158.528 14847.826 13459.152 682.418 8927.525 15340.067 14389.265 35512.293 27856.343 16186.286 12427.784 45283.090
26351.599 36783.283 23547.766 20880.428 32942.137 22227.730 21022.780 17649.157 24121.344 18484.288 20083.938 18006.608 35949.390 16062.299 17080.665 36731.098 33640.063 28921.950 38301.522 31048.033 18811.684 18273.127 20204.618 21382.194 23675.723 61320.800 14942.910 35298.519 91113.067 26459.544 85457.429 45858.273 19449.530 16062.351 18849.372 38877.910 83710.679 20801.043 35445.051 25663.049 14856.962 25376.837 45889.815 18939.406 38011.184 25031.011 18833.532 18338.145 21240.648 46624.501 18767.415 21188.452 21016.292 29399.170 26437.078 17434.562 26151.477 18167.458 45737.437 17348.404 89183.462 23524.425 20161.481 18034.801 23869.831 20915.740 16276.393 35434.425 99826.082 14030.739 33571.713 20455.656 17186.241 18980.587 34949.491 21103.538 34889.402 27051.341 24904.423 43495.651 21347.756 21145.129 26195.795 11610.513 42988.212 26726.397 38959.291 30962.579 0.000 21784.429 24776.449 18131.659 22020.359 20310.666 38602.839 15806.549 32091.435 24469.417 23130.695 17119.845 15268.386 19973.330 21949.271 15282.839 40369.405 70997.375 34339.116 31551.080 37068.893 13641.623 87793.233 18993.412 19126.239 25804.692 29983.327 30508.257 38040.057 38319.761 18290.572 58150.331 24379.888 22485.312 20159.321 54973.325
5319.300 25185.739 4912.796 1573.547 15327.023 1127.760 1920.939 5351.932 4442.211 4086.662 2822.541 5404.981 15397.244 7299.303 6349.567 27547.498 13087.917 10760.335 18125.216 12065.109 12643.774 4707.997 11694.531 12571.692 14911.769 45466.228 8302.071 19665.101 70114.891 18517.913 64459.252 25891.024 4331.926 7369.878 8511.299 22697.280 62712.503 2058.722 14278.287 6431.678 12116.242 6262.479 25630.329 7116.960 17729.968 7195.099 7147.487 3975.646 962.242 28416.410 12214.155 4587.470 1661.454 10703.925 8641.472 5581.949 7619.281 11680.921 30896.219 6254.612 68185.286 6708.937 2075.204 4947.871 7640.970 2173.419 34865.220 18914.109 78827.905 10445.997 13019.567 5920.551 27143.213 8159.544 14668.276 5961.655 14142.109 7063.848 6147.687 22943.506 12537.254 5088.709 9624.898 12883.439 26807.582 10155.500 17913.683 12157.355 22055.644 0.000 3778.272 5516.579 11242.671 12308.856 18426.533 7555.054 13132.766 5027.202 1369.556 7615.218 7691.253 5191.847 2927.477 10221.517 19817.259 50445.230 16475.358 10617.804 17375.944 8986.834 66795.057 3945.995 8045.572 6286.304 9416.045 12609.805 17972.193 17767.615 5237.264 37598.186 15743.387 4530.925 2242.762 39017.874
2744.387 24962.419 3248.343 5179.292 13857.629 2932.349 3496.361 7409.055 2762.879 6143.785 6428.285 8417.579 12571.246 9171.613 9362.165 30024.438 10261.919 9003.754 15881.580 9584.180 15811.217 6684.339 14861.974 15739.134 15422.628 43709.647 11138.798 17908.520 66927.324 21165.429 61271.686 23068.883 6389.049 9242.187 9814.853 20940.699 59524.936 5295.833 11259.309 4006.092 15283.685 4383.962 22808.188 8420.514 15009.672 5515.767 8451.041 6032.769 4348.982 26660.345 15381.598 7754.912 3718.577 9095.816 8970.971 7657.636 5862.700 13129.816 32603.377 7612.035 64997.720 7967.232 5637.465 6924.213 6879.509 5410.531 37701.947 17444.715 75640.339 13345.962 10193.569 9087.994 29132.808 11326.987 12222.586 9085.247 11123.131 5307.783 4406.123 20117.507 15704.697 8256.152 10655.823 15875.556 25051.001 11159.336 14773.548 10367.882 24112.767 3779.432 0.000 7573.703 14366.263 15476.298 16381.477 9427.364 10651.837 3347.871 2943.672 9202.119 9748.376 6495.401 3170.881 13210.888 16991.261 47619.231 14964.848 7430.238 14188.377 11043.957 63607.490 6003.119 11213.014 5553.180 6590.047 10853.224 14784.627 14941.617 7213.605 34772.187 18390.903 6629.504 4299.885 38656.216
9422.144 25922.622 8167.051 3833.438 16936.343 5384.882 4179.933 811.316 7696.465 2015.882 3154.483 2582.129 19019.935 4626.422 3526.715 28075.716 16710.607 14014.589 21372.067 15319.363 11188.799 3353.685 11361.853 12342.688 13682.071 48120.993 4903.991 22009.475 74270.220 19046.132 68614.581 29242.784 2402.540 4696.997 7455.294 25545.878 66867.832 3754.053 18532.261 9685.932 10630.483 9516.733 28982.089 6063.764 21081.728 10120.762 5996.813 2243.098 4208.364 30455.019 11112.509 5115.688 4173.445 12923.656 10073.739 596.721 10873.536 9219.029 31509.715 3792.719 72340.615 7753.355 3232.025 3075.063 10202.561 3868.750 31154.461 20506.202 82983.234 7111.155 16642.257 6309.624 24556.030 7821.124 18020.036 6489.874 17959.947 10121.886 9401.942 26566.196 12308.250 5616.928 10669.316 9640.749 29656.180 11199.918 22116.444 15411.609 17885.064 4854.974 7933.601 0.000 11770.890 11877.523 21673.384 4882.173 16387.020 8281.456 6168.426 5153.325 3197.111 5843.010 5900.744 6976.081 23439.949 54067.920 18084.678 14773.133 21340.223 5397.728 70950.386 1946.421 7816.568 8875.237 13053.872 15864.059 22127.522 21390.306 3132.392 41220.876 15768.144 5575.343 3536.227 40062.292
12325.843 36285.545 16582.272 10453.787 11472.274 13014.290 12846.805 11848.091 16111.686 12379.700 9596.504 8961.546 19452.214 15420.460 9402.370 17845.853 17011.115 22429.811 19246.241 23189.962 5375.543 13717.504 2198.221 1856.316 24249.655 57135.704 9117.191 31026.686 77202.240 8703.974 71546.601 24684.332 11740.161 15491.035 17873.343 34366.755 69799.852 11373.873 19917.575 17611.874 7619.196 17931.954 24715.875 16481.813 20472.340 18851.683 16414.862 12606.916 11636.212 25154.638 3997.820 6627.337 12887.817 10384.765 7247.284 11633.496 19288.757 19786.612 24267.574 14360.302 75272.635 6317.148 10571.859 13642.647 19052.859 11488.570 32851.079 13964.562 85915.254 7759.518 16933.604 6105.947 31489.446 4513.213 17410.647 5434.866 18539.907 10218.359 17817.163 26596.674 2005.179 6248.459 6768.054 9774.744 38477.057 7032.116 23552.971 23826.831 21436.000 11956.781 14123.598 11699.323 0.000 2890.526 19499.444 15676.211 24257.619 16696.678 12877.389 15720.908 13000.678 15271.443 14411.185 7916.980 23811.735 51485.621 12869.253 17938.535 24674.563 14943.807 73882.406 11703.756 5210.870 9704.341 14106.132 24279.280 24986.091 21855.442 13699.976 38626.826 5094.998 7866.148 12442.145 33503.462
15096.905 36623.367 17061.045 10871.328 13541.647 13493.063 13273.312 12130.787 16590.459 12662.396 10016.071 9216.391 22223.275 15703.156 9240.252 17033.675 19782.177 22908.583 21346.323 24213.357 3080.875 14000.200 810.516 1264.675 24532.351 57564.710 8897.629 31453.193 79973.302 7891.796 74317.663 26753.706 12022.857 15773.731 18156.039 34845.528 72570.913 11852.646 22688.636 18579.926 5547.541 18410.727 26785.248 16764.509 23097.021 19278.189 16697.558 12889.612 12114.985 27224.011 1542.823 7996.620 13366.589 13155.827 10018.345 11916.192 19767.530 20069.308 26336.947 14642.998 78043.697 8960.499 10998.366 13925.343 19529.963 11967.343 30728.618 16033.935 88686.316 7539.955 19704.666 6776.454 31269.883 4550.086 20181.709 7180.293 21310.968 12989.420 18295.936 29367.735 1230.238 7847.840 9366.071 8714.548 38955.830 9101.489 26324.033 24305.603 20076.641 12435.554 15704.872 11982.019 2771.062 0.000 21599.526 15958.907 25281.014 17175.451 13294.930 16003.604 12781.115 15697.950 14889.958 7697.417 26582.796 53554.994 14938.626 20709.596 27445.624 14724.244 76653.467 11986.452 5250.702 12475.403 16877.194 24758.053 27757.152 24626.504 13982.671 40696.199 4282.819 10189.270 12868.652 35572.835
13458.586 37183.728 18264.923 18353.577 8553.467 18121.338 19037.451 22159.234 17393.986 21392.336 19175.755 20750.882 5394.580 24604.977 21695.468 30807.029 5883.352 20429.783 274.369 17724.839 24728.035 22013.671 21550.713 20787.943 30073.670 51118.481 23436.913 26379.234 63327.962 24343.296 57672.323 9170.678 21266.483 24675.551 25174.115 28349.533 55925.574 19449.120 8912.048 16817.584 25842.693 17551.778 8921.993 23779.776 2030.386 19155.161 23811.750 21281.319 18608.445 14179.503 23350.312 17968.806 18967.127 9748.716 12504.956 22104.193 18059.581 28670.906 24698.838 23153.125 61398.357 15445.516 18999.725 22253.545 21278.400 19563.818 50148.445 9127.269 72040.976 24736.087 5805.841 18469.172 44448.887 20488.216 3665.228 17919.524 7064.664 12196.961 17627.103 10024.661 20936.806 17834.459 14029.227 27159.891 32459.835 13602.263 10604.507 19195.103 37812.491 17903.670 16168.300 22052.527 19964.917 22052.618 0.000 24860.728 18324.612 17715.785 16752.041 24743.210 24541.409 22036.492 18711.972 24511.607 8148.927 34159.735 6953.718 13463.872 13566.326 26292.507 60008.128 21013.163 20545.038 13203.332 9214.528 19765.802 13254.177 6233.081 22542.937 21312.691 21710.776 16367.752 19548.435 27070.282
11675.202 23561.199 8046.092 7808.421 21145.902 7579.189 6374.240 4515.379 8619.670 3835.748 7364.041 7273.342 21502.061 255.751 8181.101 32285.275 19192.733 13655.971 24812.395 15546.359 15668.644 3310.411 15841.698 16847.237 10496.696 46541.154 7527.424 20429.637 75668.605 23255.690 70012.967 31999.698 4860.774 255.803 5428.081 23966.040 68266.217 7316.543 20046.980 10161.375 12948.744 9875.164 31739.003 3921.595 23940.487 9497.243 3815.721 3689.604 7471.132 34664.578 15592.354 9325.247 6367.751 17133.215 14283.298 4518.459 10617.709 5926.341 35719.274 1846.731 73739.000 11962.914 7229.681 3072.085 8622.722 7431.241 29296.982 24715.761 84381.620 9227.607 19124.383 10658.328 20153.325 12340.702 21153.401 10699.432 20053.946 13945.391 9402.749 29048.322 16812.800 9826.487 14878.874 11104.195 28076.342 15409.477 23514.829 15515.550 15703.777 8004.008 9652.572 4997.882 15980.448 16357.368 25308.076 0.000 16614.017 8967.743 8658.669 1895.360 3650.564 4331.552 6447.597 9599.514 25922.076 56550.046 22294.236 16049.406 21567.219 3288.852 72348.771 5689.623 12486.354 13022.459 15520.862 15242.277 22538.384 23872.432 3327.856 43703.002 20272.694 9784.902 5510.780 44271.851
12690.844 19286.687 9207.729 14592.804 22839.302 11966.548 12530.559 16443.254 8979.373 15177.984 15711.720 17451.778 13076.745 16545.248 18396.364 40474.344 14580.342 3543.234 17201.668 1392.903 25308.770 14797.352 24713.787 25590.948 14488.019 33634.063 20172.997 8568.848 62562.213 31537.170 56906.574 23136.675 15423.247 16615.823 14048.478 10865.114 55159.824 14330.032 9895.500 7450.707 24750.455 7330.296 22875.980 13493.263 15547.712 7405.645 13525.237 15066.968 13383.180 31281.650 25232.481 17606.726 12752.776 18904.099 18779.254 16691.834 6391.044 16888.614 40904.859 14985.670 60632.608 18430.314 14671.663 15037.226 8489.883 14444.729 45643.731 25016.973 71275.227 22380.161 14511.992 18939.808 33993.123 21178.801 15308.618 18980.912 11982.418 15116.066 7405.620 17493.276 25556.511 18107.966 20834.938 24909.755 14975.417 21258.929 10457.565 1394.857 31262.425 13120.571 11494.845 16607.901 24261.928 25328.112 17616.957 16800.999 0.000 8446.046 12434.803 15033.431 18715.713 12730.581 11522.138 22245.087 15127.736 47248.675 22426.302 8200.337 6845.699 19568.836 59242.378 15037.317 21064.828 15589.038 13934.116 1965.556 7816.864 14229.406 15326.618 34401.631 28762.643 17092.586 13334.084 44172.429
5379.915 22205.067 1092.856 6477.931 16493.157 3851.675 4415.687 8328.381 864.500 7063.111 7596.847 9336.905 13882.572 9082.392 10281.491 32451.881 11631.883 5733.133 17251.545 7037.907 17193.898 7334.496 16598.915 17476.075 13090.442 40439.026 12058.124 14637.899 67051.788 23422.297 61396.150 24375.533 7308.375 9152.967 8793.427 17670.078 59649.400 6215.159 11430.163 1404.476 16635.582 1235.277 24114.838 7399.087 16379.637 2264.854 7431.062 6952.095 5268.308 29295.873 17117.608 9491.854 4637.903 11731.344 11606.499 8576.962 2592.079 12397.719 35332.339 7522.814 65122.184 10696.195 6556.791 7574.370 4295.172 6329.856 38180.875 20080.243 75764.803 14265.288 11563.533 10824.935 28443.087 13063.928 13592.550 10866.039 11438.411 7943.311 1120.485 20780.657 17441.638 9993.093 13384.786 16794.882 21780.380 13888.298 14898.012 7130.153 24587.670 5005.699 3726.295 8493.028 16147.055 17213.240 17751.441 9338.143 8105.564 0.000 4319.931 8939.255 10667.702 5863.072 3407.266 14130.214 17343.868 48505.513 17600.376 7134.525 13058.766 11963.283 63731.954 6922.444 12949.955 8188.708 7960.011 7582.603 13984.702 15486.243 7863.762 35658.469 20647.770 9315.625 5219.211 41291.744
3949.744 24785.009 4169.562 2942.947 14244.139 1625.386 2852.227 6521.188 3698.976 5255.918 4191.941 6403.121 14027.689 8468.560 7347.707 28478.595 11718.362 10017.101 16755.660 11321.874 13574.872 5877.254 12625.629 13502.789 15245.218 44722.993 9578.552 18921.867 68753.191 19449.011 63097.553 24521.468 5501.182 8539.134 9538.733 21954.045 61350.803 3428.122 12908.731 5688.444 13047.340 5519.244 24260.774 8144.394 16360.413 6451.864 8174.921 5144.902 2472.028 27046.855 13145.253 5518.568 2830.710 9482.326 8406.959 6769.769 6876.047 12850.178 31687.958 7335.915 66823.586 7177.743 3444.603 6117.128 7240.240 3542.819 36234.620 17831.225 77466.206 11377.095 11650.012 6851.649 28312.470 9090.642 13298.720 6892.753 12772.553 5694.293 5404.453 21573.950 13468.352 6019.807 9866.334 13814.537 26064.347 10369.846 16544.128 11414.121 23224.900 1783.921 2458.518 6685.836 12173.769 13239.954 17056.977 8724.310 12389.532 4283.968 0.000 8784.474 8860.509 6219.281 2526.747 11152.615 18447.704 49075.674 15351.358 9278.738 16245.604 10156.090 65433.357 5115.252 8976.669 5481.036 8046.490 11866.570 16610.493 16398.060 6406.520 36228.630 16674.484 5322.665 3412.018 39042.726
11712.927 22504.318 8083.818 8075.290 21412.770 7625.812 6641.108 4807.795 8657.396 4102.616 7630.910 7592.166 21539.786 1632.614 8536.752 32552.143 19230.459 12688.467 24850.121 15140.435 16189.228 3388.931 16362.282 17331.479 9439.814 45467.862 8548.610 19445.582 75706.331 23522.559 70050.692 32037.423 5127.643 1882.656 4212.408 22998.536 68303.943 7583.412 20084.706 10199.101 14528.437 9912.889 31776.728 2705.922 23978.213 9082.711 2600.049 3956.472 7738.000 34931.446 16112.938 9592.115 6634.620 17400.083 14550.166 5056.376 10203.176 4939.268 35986.142 1907.674 73776.726 12229.782 7496.549 3150.605 7636.347 7698.109 30932.969 24982.629 84419.345 10755.774 19162.109 10925.197 19930.689 12821.553 21191.126 10966.301 20091.671 13983.117 9440.475 29086.048 17297.041 10093.355 15145.743 12726.320 27108.838 15676.345 23552.555 14729.096 16622.947 8270.876 9690.298 5270.011 16247.317 16877.952 25345.802 1888.364 15857.952 9005.469 8810.654 0.000 4622.163 4098.902 6485.323 10620.700 25959.801 56587.772 22561.105 16087.132 21161.294 5122.781 72386.497 5956.491 12805.359 13289.327 15558.587 14274.773 22132.459 23910.157 3406.375 43740.728 20748.032 10051.770 5777.648 44538.719
12423.055 26901.996 10596.967 6951.884 19937.254 8048.278 6843.329 3083.080 10343.104 4304.837 6155.394 4540.146 22020.846 3737.925 5326.469 29853.285 19711.519 16410.849 24372.978 17966.002 12814.012 4942.154 12987.066 13992.606 13837.493 49300.514 4672.792 23188.997 76933.615 20823.701 71277.977 32243.696 4763.243 3558.004 8586.931 26725.399 69531.227 6872.499 21265.600 12332.571 10094.113 12163.372 31983.001 7195.401 24082.640 12080.213 7096.120 4158.693 7312.104 33455.931 12737.723 7833.150 6836.840 15924.567 13074.651 3086.160 13200.678 9253.637 34045.126 4397.606 75004.011 10700.938 6232.937 4703.828 11382.082 6987.196 28163.959 23371.223 85646.630 6372.975 19643.169 8470.810 21829.807 9486.070 21020.947 8942.491 20960.858 13122.797 11953.624 29567.107 13958.168 8152.339 13670.227 8249.564 30835.701 14200.830 24779.839 18058.248 14779.333 7855.885 10596.997 3565.582 13920.907 13502.736 24674.295 3628.257 19033.659 10928.096 9127.758 5221.087 0.000 7022.531 8307.941 6744.883 26440.861 57068.831 21085.589 17436.529 23986.862 2712.064 73613.781 5064.868 9631.722 11876.148 16054.783 18001.637 24790.918 24391.217 4515.186 44221.787 17418.062 8576.254 5979.869 43063.203
9191.387 21207.431 4817.124 6128.701 20011.423 5104.271 4176.158 5591.725 5561.375 4259.655 6459.842 8060.787 19018.246 4278.490 9005.373 31381.076 16708.919 9705.789 22328.580 11749.513 15917.779 3198.395 15528.109 16405.269 9882.728 42590.973 10267.349 16479.456 72790.591 22351.491 67134.952 29515.883 5110.164 4528.532 3363.879 20015.858 65388.203 5636.823 17168.966 6875.518 15359.464 6589.306 29255.188 1969.540 21456.672 5651.637 2001.514 4106.696 5417.302 32814.139 15841.490 8421.048 4170.481 15249.610 13379.099 5840.306 6772.102 6968.172 34815.075 3117.319 70860.986 11058.715 6138.318 3365.807 4672.541 5751.520 33775.380 23598.509 81503.605 12474.513 16640.569 9754.129 23013.539 11993.122 18669.586 9795.233 17254.995 11461.577 6116.892 26564.507 16370.832 8922.287 13974.675 14951.519 24126.160 14505.278 20636.815 11669.944 19942.943 5806.738 7168.758 5899.296 15076.249 16142.434 22824.261 4534.240 12771.346 5836.096 6289.114 3509.708 6847.362 0.000 3963.782 12339.439 23160.452 54066.231 21118.642 12831.494 17770.373 7700.485 69470.757 5096.028 11879.150 11704.685 13037.047 11292.096 18741.537 21302.827 3655.199 41219.187 19576.964 8880.702 3748.972 43367.651
5627.532 22280.308 2610.246 4219.498 16092.100 1624.753 2157.254 5856.608 2684.233 4530.111 5338.414 7078.472 15454.391 6402.281 8023.058 30193.448 13145.064 8840.627 18603.621 10145.400 14935.464 3986.854 14340.482 15217.642 12740.517 43166.452 9781.850 17054.935 69630.555 21163.864 63974.917 25952.028 4848.173 6472.855 7045.521 20591.337 62228.167 3956.726 14008.930 4511.970 14377.149 4342.770 25691.333 5651.182 17892.817 4879.931 5681.709 4396.402 3009.874 28894.815 14859.175 7233.420 2379.470 11330.287 11016.581 6105.189 5699.573 10360.483 33542.170 4842.703 67700.950 9354.888 4298.357 4226.728 4735.539 4071.423 35312.388 19679.186 78343.570 11989.014 13076.714 8566.502 26363.476 10805.495 15105.731 8607.606 14006.276 7542.253 4227.979 23000.652 15183.205 7734.660 12270.849 14518.608 24701.639 12801.451 17476.779 10237.647 21719.183 2797.442 3552.182 6032.827 13888.622 14954.807 18904.938 6658.031 11213.058 3107.494 2609.622 6432.787 8117.436 3726.069 0.000 11853.941 19874.406 50502.376 17199.319 10072.894 16166.260 9237.493 66310.721 4580.687 10691.522 7785.361 9473.192 10690.096 17092.196 17824.762 4516.121 37655.332 18389.337 7176.876 2691.915 40890.686
12658.048 31803.370 13105.257 7500.881 17944.428 10122.616 9158.396 6619.529 12634.671 8124.342 6623.969 4626.643 22255.839 9077.330 4650.504 23424.035 19946.512 18952.796 23559.158 20257.569 6069.129 9270.492 6242.184 7247.723 19090.422 53449.795 2659.047 27338.277 77873.338 14282.156 72217.700 30981.396 7683.809 9147.905 13336.043 30874.680 70470.950 8473.190 21768.166 14624.139 4444.415 14454.939 31012.938 11944.513 24317.633 15163.274 11877.562 8351.557 8744.538 31626.792 5992.840 6639.865 9379.732 14522.292 11560.200 6404.934 15811.742 14520.068 30739.728 9304.242 75943.734 8647.548 7595.705 9027.556 15415.047 8587.887 26777.714 20436.716 86586.353 1239.106 19878.162 5578.778 24749.846 3982.878 21255.940 6226.661 21195.851 12689.705 14340.148 29802.100 7213.286 6596.541 11265.848 4435.974 34984.982 11796.451 25403.562 20349.815 15362.635 9065.107 12334.425 7102.031 7297.384 6757.854 23812.361 9333.081 21325.227 13219.663 9924.483 10474.016 6144.770 11577.306 10912.943 0.000 26675.854 57303.824 19341.407 18519.096 25419.113 8087.899 74553.504 7590.934 4128.530 11767.423 16289.776 20802.265 25730.641 24626.210 8777.472 44456.780 10673.180 8221.323 8748.008 39975.616
14855.029 34361.516 18211.325 20066.587 14870.856 19192.604 19756.615 23669.310 17414.873 22404.040 21043.356 22618.483 4576.822 25333.346 23563.069 36965.186 7279.794 17691.297 7525.139 14986.353 28962.095 22944.594 26393.235 25630.465 28565.962 47489.618 25797.535 22780.767 56833.947 29437.848 51178.309 9972.758 22649.303 25403.921 25411.308 24720.670 49431.559 21162.131 6197.017 16394.146 29266.323 17128.341 9712.063 24016.968 5871.183 18731.723 24048.943 22293.024 20522.808 20459.214 27941.225 21084.762 19978.832 14129.062 17054.446 23917.890 17636.144 29015.600 32019.139 23773.768 54904.343 19259.791 20712.736 23184.468 20854.963 21276.829 52588.327 16447.570 65546.962 27596.077 7132.675 21585.128 45060.968 23997.890 7340.171 21035.481 6292.161 14691.019 17203.666 3804.194 25779.329 20950.415 18932.792 30033.520 28830.972 18505.828 5537.024 16420.625 40120.037 19818.032 16887.464 23833.957 24331.469 26895.140 7940.428 25589.097 15502.400 17449.642 18666.404 25363.853 26008.631 22480.953 19431.136 27371.597 0.000 33886.759 14274.018 11366.188 8337.011 27304.212 53514.113 22263.373 23883.918 15662.074 10610.970 16991.324 8024.862 4126.996 23473.860 21039.715 26805.328 19124.702 20560.140 32483.304
45411.581 66476.459 49576.032 50614.482 40219.016 50358.306 50990.446 54665.896 48836.171 53629.304 51591.250 53166.377 35310.128 56665.698 54110.963 59631.606 37836.347 49722.514 33337.528 47017.570 56393.584 54178.424 53216.262 52453.492 60597.180 70570.316 56320.699 55671.965 57185.124 56008.845 51529.486 26857.937 53773.144 56736.272 56832.605 57642.264 51362.923 51686.402 38228.234 47758.853 58771.290 48493.048 26891.524 55438.266 32958.243 50096.430 55470.240 53518.288 50845.413 34240.064 55015.861 50852.592 51204.096 42811.875 45458.412 54610.855 49000.850 60436.898 44412.745 55106.120 55255.519 48398.972 51260.630 54418.298 52219.669 51801.099 83032.230 40166.481 65898.138 57619.873 37758.835 51352.958 76482.265 53441.673 36222.700 50803.310 37394.357 44662.929 48568.372 32138.525 52602.355 50718.245 46933.550 60043.677 61752.566 46403.864 38712.296 48487.834 70667.931 50140.638 48121.294 54559.189 51630.465 53718.167 33276.637 56921.449 47617.344 48814.348 48989.010 56696.204 57048.071 53902.250 50664.966 57395.393 33899.527 0.000 38423.739 43067.309 41512.282 58529.476 56706.427 53434.897 53498.494 45646.004 41167.523 49058.533 41200.133 34860.302 54707.690 14306.158 53376.325 49108.632 51785.404 34568.568
12575.436 39345.717 17580.209 15424.836 2066.800 16205.658 17310.932 18854.529 17094.745 18781.806 15871.050 17446.177 10570.375 22310.454 18173.458 24298.429 8848.149 22997.830 6636.533 22507.996 18241.368 20097.991 15064.046 14301.276 29805.925 55901.638 19658.046 31162.391 69273.774 17856.630 63618.136 11815.079 17961.778 22381.029 23901.293 33132.690 61871.386 16406.154 13695.205 18182.485 20619.074 18560.355 11846.621 22506.953 8392.550 19847.633 22537.480 19009.021 16668.493 12370.342 16863.645 14408.405 17051.447 6499.542 8236.568 18799.488 19740.875 26676.606 19034.330 21250.296 67344.170 11177.128 15747.293 20076.169 21262.807 16520.851 45724.439 3361.438 77986.789 20454.038 8770.637 14791.156 41999.230 15997.050 8103.159 13895.629 11543.136 10020.146 18637.083 16386.826 14450.139 14156.442 8781.334 22648.103 37242.992 8251.648 16524.023 23978.260 34033.625 15987.990 14748.775 18747.823 13478.250 15565.951 6889.736 22566.205 23107.769 17679.736 14836.361 22610.902 21236.704 20581.841 17116.061 20229.558 14094.739 38616.368 0.000 17799.186 18445.178 23437.320 65953.940 17708.458 16053.871 11287.652 10889.174 24548.959 18756.707 12178.894 20365.561 25757.573 15224.110 13057.275 17632.755 24143.913
6765.598 26604.966 8105.275 11710.384 16584.691 9597.580 10161.592 14074.286 7689.178 12809.016 12959.377 14837.179 8413.358 15738.323 15781.765 34388.125 8260.473 9018.654 12541.974 7460.012 22012.550 13349.570 20931.520 20507.757 18980.690 41438.884 17804.029 16564.082 60422.106 25519.632 54766.468 18681.057 13054.280 15808.897 15312.288 18669.935 53019.718 11961.064 4800.481 5785.815 21485.018 6520.010 18420.362 14087.473 11092.094 8062.180 14119.447 12698.000 11014.213 26290.561 21582.931 13956.246 10383.808 12817.881 12693.036 14322.867 6966.601 18989.086 35777.805 14178.745 58492.501 13189.348 12212.040 13589.444 10185.420 12075.762 44367.178 19788.465 69135.121 19814.773 8192.123 15130.589 35131.472 17528.320 10297.501 14580.941 5931.975 9029.847 6595.335 14529.072 20656.620 14457.485 14748.720 22252.215 22780.238 15172.710 8268.330 8930.276 30777.998 10444.663 7292.440 14238.934 19208.761 21583.578 13041.871 15994.074 8509.460 7343.591 9498.167 15627.641 16413.607 12551.458 9836.112 19590.293 11008.967 42793.057 17197.794 0.000 7348.278 17709.188 57102.272 12668.350 17414.347 9502.819 7445.550 9500.975 8182.165 9773.788 13878.836 29946.013 22745.105 12125.198 10965.116 39181.340
13723.253 26024.505 13022.099 18274.993 18253.264 15780.918 16344.929 20257.623 12793.743 18992.353 19523.987 21266.147 8490.707 20687.276 22210.733 39961.032 10619.104 10231.992 12615.630 7095.094 28906.918 18939.380 27365.203 26602.433 21176.776 39152.607 23987.366 14443.756 55850.217 31614.308 50194.578 17976.561 19237.617 20757.850 19400.591 16383.659 48447.828 18144.401 5309.461 10680.414 28379.386 11414.609 17715.866 18722.250 10961.673 12116.562 18754.225 18881.337 17197.550 26695.612 28477.299 20850.614 16567.145 16421.670 18120.769 20506.204 11101.961 23077.388 36318.820 19127.698 53920.612 19760.521 18486.033 19179.254 14273.723 18259.099 49785.759 20430.934 64563.231 26194.530 10471.985 22085.859 39345.236 24422.688 10722.580 21536.211 7396.380 15191.749 11489.934 10781.280 26751.296 21351.853 20568.721 28724.124 20493.961 20679.782 3745.569 8083.614 36192.553 16897.202 13834.388 20422.271 25303.437 27867.108 13030.918 20943.027 7165.390 12260.415 16062.776 20262.418 22596.944 17446.057 15336.508 26059.457 8415.740 41890.562 17840.264 7275.504 0.000 23710.864 52530.382 18851.687 24308.716 16162.804 10909.003 8654.314 1104.867 9606.320 19468.646 29043.518 28839.781 19082.853 17148.453 39586.391
13732.629 26074.137 10688.719 9118.654 22213.877 9030.229 7825.280 4958.105 11262.297 5286.788 8432.017 6816.768 23559.488 3292.862 6823.597 31350.413 21250.161 16502.601 26630.387 18188.986 14311.140 5075.627 14484.194 15489.733 12966.577 49392.265 6169.920 23280.748 77915.567 22320.829 72259.929 34057.126 6311.815 3211.383 8140.226 26817.151 70513.179 8767.584 22247.551 12804.002 10867.345 12517.790 33796.431 6832.355 25997.915 12171.964 6726.481 5140.645 8922.173 35732.553 14234.850 10109.772 7818.792 18201.190 15351.273 4961.185 13292.430 7458.312 35943.900 4489.357 75985.962 12977.560 8509.559 4837.301 11473.833 8882.281 26745.563 25647.845 86628.582 7633.016 21181.811 10198.587 19840.955 10983.198 23173.447 10846.470 22111.373 15399.420 12045.375 31105.750 15455.296 10428.961 15946.850 8931.079 30927.453 16477.452 25761.791 18190.271 13152.357 9455.049 11578.949 5440.607 15418.035 14999.864 26931.704 3037.111 19256.643 11610.369 10109.709 4932.472 2769.155 7114.283 9090.223 8242.010 27979.503 58607.474 23362.212 18418.481 24209.845 0.000 74595.733 7140.664 11128.850 14152.770 17578.289 18093.388 25181.010 25929.859 5093.072 45760.430 18915.190 10852.877 6961.820 45278.020
62506.558 78325.558 65226.077 68031.601 66092.384 66199.791 66763.803 70676.497 64422.061 69411.227 69296.687 70871.814 55798.350 72340.534 71816.401 88186.714 58501.323 63263.926 58746.667 60127.028 78047.186 69951.781 76163.295 75400.525 74208.710 62517.314 74050.866 66372.586 14314.111 80412.400 14926.043 59710.238 69656.491 72411.108 72418.495 68312.489 6981.452 68563.275 53803.222 63408.898 77519.654 64143.093 59449.543 71024.156 57092.711 65148.496 71056.130 69300.211 67616.424 70717.983 77320.539 69693.854 66986.019 65219.763 66918.861 70925.078 64133.895 76022.788 83240.667 70780.956 13775.130 68570.251 68677.750 70191.655 67305.657 68677.973 100841.659 67669.098 50481.011 75849.409 58354.203 70854.669 92068.155 73265.928 58561.700 70305.021 55351.642 64001.479 64218.418 51568.964 75549.388 70195.093 69366.813 78286.851 69050.306 69477.874 50750.565 61115.548 87380.209 67046.874 63894.651 70841.145 74101.529 76665.200 59161.956 72596.285 60197.324 64464.393 65990.655 72371.040 73015.818 69488.140 66438.323 75624.929 53216.104 56705.933 65495.546 58592.078 53031.934 74311.399 0.000 69270.561 73151.955 64972.535 59707.095 61686.248 52451.915 55111.132 70481.047 50663.187 77637.873 67849.278 67567.327 77760.458
8140.861 25465.888 6220.629 2552.576 15956.388 3438.461 2233.512 2544.623 5750.044 2424.077 2335.493 3606.755 17897.122 5960.354 4551.341 27256.726 15587.795 12068.168 20249.254 13372.942 11751.414 3541.837 11403.759 12280.920 14010.762 46460.862 5860.799 20349.345 72323.799 18227.142 66668.160 28119.971 1268.621 6030.929 7491.913 23885.748 64921.411 2379.701 16655.783 7739.511 11193.099 7570.312 27859.277 6097.574 19958.916 8174.341 6128.101 2651.292 2534.290 29475.064 11675.125 4296.698 2227.024 11943.701 9093.784 2489.582 8927.115 10326.506 30690.725 4900.197 70394.194 6773.400 1959.646 3719.203 8426.115 2494.398 32423.948 19526.247 81036.813 8067.963 15519.445 5629.780 25804.264 7868.773 16897.223 5670.883 16519.605 8999.073 7455.521 25443.383 12246.482 4797.938 9689.361 10597.557 27996.050 10219.963 20170.023 13465.188 19257.530 3234.962 5987.180 2437.916 10951.899 12018.084 20550.571 6216.105 14440.599 6335.035 4448.038 6260.802 4926.798 4451.786 3954.323 7932.890 22317.137 52945.107 17104.722 12826.712 19393.802 7127.414 69003.965 0.000 7754.800 7752.424 11931.059 13917.638 20181.101 20267.493 4008.596 40098.063 15452.615 4595.388 1589.806 39082.337
11234.327 31817.680 12602.889 6413.172 14571.702 9034.907 8748.228 7181.919 12132.304 7856.710 5557.915 4216.474 19242.671 10897.470 4240.335 21953.181 16933.343 18450.428 20281.889 19755.202 5664.853 9194.513 4771.330 5776.869 19726.664 53039.626 4211.051 26928.109 76230.413 12811.302 70574.774 27704.126 7273.640 10968.044 13350.353 30387.373 68828.025 7394.490 19271.043 14121.771 5744.169 13952.572 27735.669 11958.823 21058.427 14753.105 11891.872 8083.925 7656.830 28329.844 5154.185 3538.464 8908.434 11261.813 8282.931 6967.323 15309.375 15263.622 27639.777 9837.312 74300.808 5387.069 6540.211 9119.656 15004.879 7509.188 30360.039 17404.123 84943.427 4947.681 16864.993 2318.299 26552.796 839.249 17996.734 2966.182 18242.551 9429.226 13837.781 26788.932 5742.432 3389.685 7811.725 7363.279 34497.675 8342.327 22906.439 19847.448 18587.191 7977.399 11246.717 7168.678 5529.810 5287.000 20535.091 11153.221 20822.859 12717.295 8836.774 11197.918 8085.121 11167.138 10431.803 4723.201 23662.686 54122.272 15968.681 16876.170 23776.187 10028.250 72910.579 7180.766 0.000 8506.944 13475.687 20299.898 24087.715 21613.042 9176.985 41275.228 9202.326 5741.555 8337.840 36973.898
3194.276 29312.729 7547.222 5438.662 9954.990 6172.671 7277.945 9396.082 7061.758 9323.359 6294.104 7869.231 11219.606 12656.309 8813.817 25618.513 8910.279 13201.726 13178.161 13782.152 13873.813 10065.004 12186.501 11738.145 19772.938 47907.619 11048.282 22106.493 68190.362 16750.020 62534.723 21387.084 8503.331 12726.884 13868.305 25138.671 60787.974 6534.206 11240.374 8204.065 14255.894 8581.934 21181.761 12473.966 13281.400 9814.646 12504.493 9332.652 6659.777 22992.241 12852.944 5885.205 7018.460 5212.771 4077.615 9341.041 10060.673 17037.927 27915.968 11611.618 66260.757 4307.292 6084.811 10304.878 11229.820 6648.903 37839.075 13542.076 76903.376 12652.485 8841.929 6385.571 32500.219 8798.333 10219.707 5835.923 10219.487 1808.832 8604.096 18765.868 11887.008 5750.857 5979.107 15076.290 29248.973 6403.098 14875.770 14565.854 25370.785 5955.002 4715.788 9289.375 10439.148 12838.559 13479.478 12912.060 14849.809 7646.749 4803.374 12972.224 11778.257 10548.853 7083.074 12428.005 15639.621 46267.591 11103.324 8836.119 15736.136 13978.873 64870.528 8250.011 8684.360 0.000 5452.623 15051.196 16047.664 13589.977 10594.270 33420.548 13975.493 3699.219 7599.768 34988.112
4690.664 29555.050 9497.001 10107.995 9661.676 9705.518 10269.530 14159.409 8626.064 12916.954 11084.764 12659.891 6033.868 15944.781 13604.477 29709.853 3724.541 13122.849 9344.203 12767.207 19373.403 13457.508 17114.023 16351.253 21542.256 46746.078 15838.942 21871.276 63418.944 21363.129 57763.305 16531.505 13162.217 16015.356 16406.193 23977.130 56016.555 11203.539 6134.279 8519.539 19307.730 8897.408 16270.810 15011.854 8472.295 10716.668 15043.828 12805.938 10564.215 22001.512 18352.534 11355.367 10491.746 6170.491 7869.590 14104.368 9865.894 19902.984 29031.895 14385.203 61489.339 9559.824 10754.144 13697.382 12746.986 11318.236 42629.735 13137.500 72131.958 17637.485 3656.191 11885.161 35905.977 14297.923 5685.208 11335.514 4958.744 4991.052 9132.420 13580.129 16500.117 11250.448 10317.542 20074.927 28087.432 10428.603 9769.675 14237.470 30161.445 9859.440 7400.378 14052.703 15052.257 17615.928 9844.099 16200.532 13816.654 8947.863 8707.811 15975.288 16521.545 13268.570 9944.050 17413.005 10453.883 41081.853 10596.346 7734.677 10891.266 17817.126 60099.109 12776.287 14183.951 5962.107 0.000 14808.169 11202.794 8404.239 13986.774 28234.809 18588.602 9424.735 11073.054 33997.383
11619.167 18096.681 8026.857 13411.931 22650.129 10785.676 11349.687 15262.382 7798.501 13997.112 14530.848 16270.905 14437.481 15279.660 17215.492 39306.647 15941.077 2276.972 18562.404 2152.791 24127.898 13585.427 23532.915 24410.076 13061.134 33942.846 18992.125 8877.632 63922.948 30356.298 58267.310 24497.411 14242.375 15403.898 12759.940 11173.898 56520.560 13149.160 11256.235 6269.835 23569.583 6149.424 24236.716 12214.447 16908.447 6193.720 12246.421 13886.096 12202.308 32642.386 24051.609 16425.854 11571.904 17888.316 17763.471 15510.962 5179.119 15461.729 41550.867 13773.745 61993.344 17249.442 13490.791 13825.301 7223.621 13263.857 44431.806 26183.311 72635.963 21199.289 15872.727 17758.936 32704.585 19997.929 16669.354 17800.040 13343.154 14100.282 6224.748 18854.012 24375.639 16927.094 19819.155 23728.883 15284.200 20243.146 11818.301 464.291 29973.887 11939.699 10313.973 15427.029 23081.055 24147.240 18977.692 15535.411 1593.147 7265.174 11253.931 13754.615 17503.788 11451.765 10341.266 21064.215 16488.472 48609.411 23642.157 9561.073 8206.435 18356.911 60603.114 13856.445 19883.956 14573.254 13184.580 0.000 9177.599 15590.142 14114.693 35762.367 27581.771 15911.714 12153.212 45533.165
14021.106 27524.113 14521.706 19546.149 18399.808 17280.525 17844.537 21757.231 14293.350 20491.961 20811.235 22386.362 8514.266 22186.884 23330.949 40271.625 10844.340 11731.600 11986.491 8594.701 29561.734 20438.987 27675.795 26913.026 22676.384 40652.215 25486.974 15943.364 54996.903 31924.901 49341.264 16871.693 20737.225 22257.458 20900.199 17883.267 47594.515 19644.009 5620.054 12180.022 29034.202 12914.217 16610.998 20221.858 10332.535 13616.169 20253.832 20380.945 18697.158 26066.474 28835.087 21208.402 18066.753 16732.263 18431.362 22005.812 12601.569 24576.996 36465.364 20627.306 53067.298 20071.114 19985.641 20678.861 15773.331 19758.706 51285.367 20577.478 63709.917 27363.957 10697.220 22369.217 40844.844 24780.476 10869.123 21819.569 7621.615 15502.342 12989.542 9676.413 27061.889 21709.641 20879.314 29801.399 21993.569 20990.375 2640.702 9583.222 37692.161 18343.424 15191.201 21921.878 25614.029 28177.700 12401.780 22442.635 8664.997 13760.023 17396.928 21762.026 24096.552 18945.664 16836.116 27139.477 7310.873 40785.695 17986.808 8216.611 1499.608 25210.472 51677.069 20351.295 24666.503 16473.397 11219.596 10153.921 0.000 8501.453 20968.254 27938.651 29150.374 19363.826 18648.061 38957.252
13289.857 33989.522 17254.762 18501.416 13305.684 18292.632 18856.643 22552.830 16514.901 21504.068 19478.184 21053.311 3011.651 24433.374 21997.898 35400.014 5714.623 17235.577 5959.968 14530.633 27396.923 22044.621 24828.064 24065.294 28110.242 47924.275 24232.363 23185.028 58424.873 27872.676 52769.234 9106.825 21660.078 24503.949 24511.336 25155.326 51022.484 19596.960 5741.296 15437.583 27701.151 16171.778 8846.130 23116.996 4306.011 17775.160 23148.970 21393.052 18957.636 19593.281 26376.054 19519.591 19078.860 12563.890 15489.275 22497.789 16679.580 28115.628 30453.967 22873.796 56495.268 17694.619 19147.565 22284.495 19898.400 19711.657 51023.156 14882.398 67137.887 26030.906 5567.503 20019.957 44160.996 22432.719 5775.000 19470.309 5073.087 13125.847 16247.103 5295.970 24214.157 19385.243 17367.620 28468.348 29265.628 16940.656 6225.358 16000.896 38554.865 18252.861 15987.492 22446.123 22766.298 25329.969 6375.256 24689.125 15130.406 16493.079 17101.232 24463.881 24935.005 21580.981 18531.164 25806.426 2051.201 33020.826 12708.846 10580.372 9025.345 26404.240 55105.038 21321.831 22318.746 14096.902 9045.799 16571.595 8713.196 0.000 22573.888 20173.782 25240.156 17559.530 19660.168 31617.371
10088.633 23158.161 6574.779 5648.835 19054.498 5386.233 4207.467 2612.875 7148.357 1677.094 5272.638 5355.289 19915.492 2699.570 6299.875 30193.871 17606.165 12388.661 22986.390 14075.046 13952.351 625.283 14125.406 15094.602 11158.077 45356.532 7288.499 19245.014 74197.292 21164.287 68541.653 30413.129 2702.163 2770.145 4690.833 22781.417 66794.904 5156.957 18575.667 8690.062 13268.326 8403.850 30152.434 3299.303 22353.918 8058.024 3232.352 1530.951 5311.545 32573.175 13876.062 7233.844 4200.979 15041.811 12191.895 2861.456 9178.490 6695.034 33627.870 1257.159 72267.687 9871.510 5071.027 386.956 7438.100 5271.654 31510.566 22624.358 82910.306 9495.663 17537.815 8566.925 22698.027 10584.676 19529.450 8608.029 18467.377 11925.023 7931.436 27461.753 15060.165 7735.083 12787.471 12025.257 26891.719 13318.073 22043.516 14076.331 17917.361 5837.236 7934.952 3033.134 13889.045 14641.075 23287.707 2955.321 15142.703 7496.430 6491.897 2767.338 4315.614 3078.549 4888.824 9360.589 24335.507 54963.477 20202.833 14578.093 20095.906 5435.671 70877.458 3530.970 10568.482 10863.806 13934.293 14057.654 21067.070 22285.863 0.000 42116.433 18389.760 7693.498 3344.008 42180.447
32463.427 53528.306 36627.878 37666.328 27270.862 37410.153 38042.292 41717.742 35888.017 40681.150 38643.096 40218.223 22361.974 43717.544 41162.810 46683.452 24888.193 36774.361 20389.374 34069.417 43445.430 41230.270 40268.108 39505.338 47649.026 64730.845 43372.545 42723.812 51345.652 43060.692 45690.014 13909.783 40824.991 43788.119 43884.451 44694.110 45523.451 38738.248 25280.080 34810.699 45823.136 35544.894 13943.370 42490.112 20010.089 37148.276 42522.086 40570.134 37897.260 22892.097 42067.707 37904.439 38255.942 29863.721 32510.259 41662.701 36052.696 47488.744 37057.072 42157.966 49416.047 35450.818 38312.477 41470.144 39271.516 38852.945 70084.077 27218.328 60058.667 44671.719 24810.682 38404.804 63534.112 40493.519 23274.547 37855.157 24446.203 31714.775 35620.219 19190.371 39654.201 37770.091 33985.396 47095.524 48804.412 33455.710 25764.142 35539.680 57719.778 37192.484 35173.141 41611.035 38682.312 40770.013 20328.484 43973.295 34669.190 35866.195 36040.856 43748.051 44099.917 40954.097 37716.813 44447.239 20951.373 14408.009 25475.585 30119.155 28564.129 45581.322 50866.955 40486.744 40550.340 32697.850 28219.369 36110.379 28251.980 21912.148 41759.537 0.000 40428.172 36160.478 38837.250 29992.394
15818.253 40090.038 20074.681 14057.743 12974.732 16506.699 16639.711 15712.386 19604.096 16243.995 13460.798 12825.840 22144.814 19284.755 13413.128 13314.591 19703.716 25922.220 20779.407 26682.371 7688.820 17581.798 5081.720 4350.059 28113.949 60628.113 13383.271 34724.961 80694.649 4172.712 75039.011 26186.790 15604.456 19355.329 21737.638 37859.165 73292.261 14866.282 23409.984 21104.284 10267.682 21424.364 26218.332 20346.108 22530.105 22356.984 20279.157 16471.210 15128.622 25016.282 6150.769 10491.631 16380.226 12957.974 10739.693 15497.790 22781.167 23650.906 22780.047 18224.597 78765.045 9809.558 14207.422 17506.941 22545.268 14980.980 34887.973 14507.096 89407.664 12025.597 19626.205 9970.241 35725.589 8799.106 19736.350 9299.161 22032.316 13710.768 21309.573 29289.274 4201.196 10112.754 8799.156 13434.689 41969.467 8534.574 27045.381 27319.240 24796.782 15449.191 17616.007 15563.618 4285.893 4821.542 21032.610 19540.505 27750.029 20189.087 16402.140 19585.203 17257.914 19135.738 17903.595 12183.059 26504.335 52988.079 14371.711 21430.944 28166.972 19201.043 77374.815 15568.050 9438.503 13196.750 17598.541 27771.690 28478.500 24548.042 17564.270 40129.284 0.000 11358.557 16306.440 32324.955
6955.682 29550.339 9534.983 3518.045 11361.000 5967.001 6100.012 6818.086 9064.397 6745.363 3432.365 5011.112 14964.025 10274.011 5955.698 24091.319 12654.698 15382.522 16222.878 16606.791 11093.221 8083.166 9405.909 10073.048 18681.346 50088.415 8186.543 24185.263 71951.767 15084.923 66296.129 23903.055 5925.335 10344.586 12174.238 27319.466 64549.379 4326.584 14992.397 11028.704 11475.302 10884.666 23934.597 10779.898 16854.583 11817.285 10780.525 6972.578 4588.923 24879.676 10072.352 3104.613 5840.528 7348.313 4498.396 6763.045 12241.468 14640.163 26670.258 9213.853 70022.163 2178.012 3667.723 8039.726 12005.570 4441.281 34980.956 14948.086 80664.782 9871.893 12586.348 3604.979 30014.910 6017.741 13792.891 3055.331 13963.906 5150.581 10769.874 22510.287 10207.110 2970.265 5247.472 12295.698 31429.768 5778.074 18627.794 16779.542 22512.666 4909.492 7540.427 6711.380 8336.347 10057.967 16524.195 10529.762 17674.449 9649.389 5862.441 10574.459 9068.154 8961.425 7363.896 9647.413 19384.040 49918.428 12509.335 12597.525 19497.542 11323.140 68631.933 5672.015 5903.768 4228.299 9197.042 17231.992 19809.070 17334.396 8329.118 37071.384 12310.396 0.000 6132.127 34791.914
6770.809 24433.587 4843.179 2822.608 16977.763 2068.409 863.460 3434.617 4379.992 2108.120 3281.677 5100.110 16597.668 5320.761 6044.696 28202.911 14288.341 10698.116 19668.567 12002.890 13050.902 2813.274 12349.944 13227.105 13139.406 45099.362 7354.155 18987.844 70953.747 19173.327 65298.108 27095.305 2426.182 5391.335 6738.937 22524.247 63551.358 2330.730 15285.731 6369.459 12492.586 6200.260 26834.610 5344.598 19036.094 6812.841 5375.125 1997.104 2103.792 29959.761 12869.568 5242.883 856.972 12395.232 10115.160 3683.198 7557.062 9702.379 31636.910 4276.069 69024.142 7794.776 2832.226 3050.890 7064.615 2445.427 33670.307 20547.623 79666.761 9561.319 14219.991 6575.964 25164.671 8814.957 16211.626 6617.068 15149.553 8607.199 6085.469 24143.929 13192.667 5744.123 10710.736 12090.913 26634.549 11241.339 18799.971 12095.136 20077.101 2493.228 4617.128 3610.836 11898.084 12964.269 19969.883 5576.512 13070.547 4964.983 3147.889 5636.675 5712.711 3419.485 2538.308 9426.245 21017.683 51645.653 18126.098 11456.660 18023.750 7008.292 67633.912 2158.696 8700.985 8442.457 10616.469 12547.586 18811.049 18968.039 3340.282 38798.609 16398.800 5616.763 0.000 40103.713
36471.115 63107.302 41502.918 37962.145 25810.269 40128.367 40544.112 41248.974 41017.454 41189.463 37876.465 38921.022 31797.735 44718.111 39552.208 31289.126 31343.053 46418.236 26868.243 43735.356 38877.485 42527.266 35700.163 34937.393 53125.446 77128.997 40778.526 52389.750 77959.191 31248.701 72303.553 22731.880 40369.435 44788.686 46618.338 54360.049 72136.990 38770.684 34922.565 42071.790 41255.190 42449.660 22959.782 45223.998 28624.260 43770.342 45224.625 41416.678 39033.023 13078.075 37499.762 35787.155 40284.628 30517.618 31889.069 41034.378 43418.146 49084.263 10558.085 43657.953 76029.587 33713.959 38111.823 42483.826 45185.516 38885.381 65490.786 22771.472 86672.206 41268.994 31265.542 36143.278 63120.271 37058.168 29376.251 35247.751 32933.998 33915.826 42559.792 32786.178 35086.256 35508.564 30572.930 43284.220 58470.351 30043.244 37198.382 45205.619 54945.476 39353.592 38671.484 41100.206 34114.366 36202.068 26913.691 44973.862 44335.129 41602.445 38759.070 45018.559 43165.525 43405.525 41038.770 41290.677 32694.170 33934.154 24440.296 39357.704 39672.538 45420.511 77480.494 40116.115 37114.989 35210.361 34429.481 45776.318 39847.479 32826.955 42773.218 29616.806 33217.264 35262.959 40576.227 0.000
NODE_COORD_SECTION
1 -541.122733 9747.803579
2 -20049.113149 -2943.444128
3 -4814.836055 8730.421579
4 -3473.829482 13625.623071
5 8672.913327 12291.332436
6 -4052.649140 11535.940931
7 -4727.919253 12068.963694
8 -6367.383513 15108.394814
9 -4070.648265 8723.073217
10 -6461.315543 13940.899615
11 -3510.669427 14494.150292
12 -4255.069612 16506.813120
13 5918.314747 3821.904597
14 -9282.246228 13908.275794
15 -4694.962458 17341.896276
16 11891.119800 28494.567460
17 4963.718687 6379.326145
18 -6098.522417 3355.227005
19 9450.879612 5325.250984
20 -4168.768125 1473.787528
21 -724.653698 22397.600460
22 -7193.062042 12978.390181
23 1189.653704 21089.410538
24 2014.528967 20779.384939
25 -14988.009495 7681.531283
26 -11331.098646 -25084.523309
27 -5746.322491 18634.658166
28 -10512.667533 -3159.320242
29 28877.548208 -32689.294095
30 6581.173771 23902.841198
31 27022.378400 -27745.117763
32 15179.384542 2178.235534
33 -5678.361023 14407.412515
34 -9245.906810 14081.049274
35 -10310.800420 10679.719900
36 -9760.067781 -5991.269234
37 21632.548760 -31522.340764
38 -4169.033490 13658.511089
39 3024.222576 2483.764896
40 -3944.468699 6827.245291
41 -3113.720456 23053.003512
42 -4391.560042 7170.749665
43 14942.793643 2050.515883
44 -9301.069931 11126.088593
45 8448.074599 4185.521112
46 -5522.491171 6806.973857
47 -9158.489361 11274.509217
48 -6565.923067 13779.100082
49 -4328.892698 12756.890031
50 19808.458418 10578.658710
51 169.353233 22314.311271
52 -1853.629175 15678.343693
53 -4903.319208 12310.222987
54 4709.075404 11691.217074
55 2804.005661 13680.290481
56 -6286.160338 15326.001209
57 -4987.940381 6010.632814
58 -13471.310595 12093.967738
59 22060.862456 21838.597084
60 -8323.314576 13158.446308
61 27897.450046 -30917.608840
62 548.073810 14931.090022
63 -4028.651755 13914.630516
64 -7370.700246 13365.500512
65 -7565.905161 7161.084066
66 -4062.985385 13614.816309
67 -15101.498414 37741.928269
68 11036.757023 12538.669680
69 32325.582654 -34210.995020
70 -4943.733260 20294.706047
71 5013.538653 6177.185203
72 -1802.957751 16800.724952
73 -25832.667258 20862.047160
74 -1351.430575 18723.853185
75 6483.287477 5891.172530
76 -942.656184 16223.615282
77 4064.521426 3767.130596
78 1391.045055 10965.489549
79 -4640.548017 7128.265220
80 9385.368798 -2180.558005
81 2092.912236 20904.488599
82 -1536.261721 15952.800151
83 3293.556056 15375.638448
84 -5832.844294 22844.169263
85 -7600.366484 -7814.505600
86 3768.527632 15415.559914
87 3696.100641 -431.700051
88 -5600.914159 1442.893843
89 -14343.304232 25505.741948
90 -3620.452495 12365.099445
91 -2645.241501 9809.683204
92 -5803.516165 15078.616779
93 1875.999325 19573.263973
94 1366.452328 21668.286758
95 9591.379428 5426.409424
96 -9422.654617 14122.035907
97 -4843.030933 700.364068
98 -4316.000057 8025.771318
99 -3042.747115 11578.937256
100 -9668.509056 12795.833555
101 -7843.045053 16436.812397
102 -7793.123794 10957.977151
103 -5070.558579 10551.623064
104 -4176.544828 19847.071028
105 7552.898787 182.643787
106 30195.781969 -10371.730501
107 9832.921474 11289.785106
108 -65.300146 4551.099019
109 669.605739 -912.891874
110 -9868.908480 16823.420186
111 17592.353125 -35995.733753
112 -5094.105256 13976.218029
113 -1864.918930 18379.283983
114 421.227947 11667.219373
115 2373.882118 7607.528546
116 -5880.143619 1691.380911
117 1535.789929 -943.492343
118 7297.735281 2058.130284
119 -7514.154077 13371.175213
120 20420.798465 -7304.572053
121 4881.759060 21508.218827
122 -1211.135979 14423.431664
123 -5217.126579 12556.503589
124 28929.940111 15540.507321
DEMAND_SECTION
1 0
2 25
3 54
4 22
5 95
6 22
7 35
8 3
9 75
10 32
11 40
12 95
13 18
14 9
15 48
16 39
17 33
18 66
19 76
20 46
21 97
22 18
23 93
24 64
25 31
26 29
27 59
28 9
29 12
30 62
31 82
32 80
33 74
34 71
35 7
36 81
37 57
38 14
39 26
40 79
41 30
42 54
43 59
44 25
45 43
46 33
47 60
48 74
49 13
50 34
51 51
52 17
53 15
54 97
55 21
56 51
57 30
58 82
59 77
60 11
61 69
62 46
63 24
64 84
65 23
66 76
67 20
68 3
69 24
70 81
71 21
72 38
73 48
74 56
75 83
76 56
77 15
78 19
79 87
80 40
81 90
82 43
83 8
84 94
85 13
86 50
87 65
88 19
89 73
90 53
91 87
92 89
93 84
94 7
95 88
96 6
97 66
98 53
99 99
100 52
101 16
102 53
103 38
104 41
105 20
106 51
107 12
108 15
109 32
110 84
111 30
112 11
113 9
114 46
115 48
116 41
117 50
118 65
119 58
120 42
121 81
122 45
123 67
124 10
DEPOT_SECTION
1
-1
EOF
