NAME : mamut-toronto-n100-k8-par
COMMENT : Mamut2026 fastest metric; city toronto; No of trucks: 8 (lower bound, fleet not fixed); 3-decimal seconds/meters; ENU ref in mamut-toronto-n100-k8-par.vrp.json
TYPE : CVRP
DIMENSION : 101
EDGE_WEIGHT_TYPE : EXPLICIT
EDGE_WEIGHT_FORMAT : FULL_MATRIX
CAPACITY : 688
EDGE_WEIGHT_SECTION
0.000 1684.379 1917.652 1248.387 1713.652 504.150 1430.516 2363.452 917.735 2371.470 1508.606 1021.435 2051.924 474.465 1740.177 2122.273 1097.387 983.529 519.424 1589.336 2417.545 1437.855 2068.807 1203.378 2391.439 2188.745 1875.895 2060.003 2081.199 2058.316 1648.540 1983.243 1896.346 1230.118 1174.513 1269.449 424.155 1740.909 1366.949 1308.947 1835.958 1989.149 580.926 2050.329 2237.591 1308.613 1351.737 1998.266 2223.609 1689.207 2204.411 1452.473 1400.689 723.233 2377.271 1827.693 691.811 1810.723 2258.987 805.854 1192.969 1512.417 1995.594 2397.130 2240.083 1617.916 2095.135 570.307 1939.410 2348.944 2272.232 1936.691 2391.921 491.570 1205.682 2319.909 1223.112 2547.037 560.535 1393.788 415.089 1699.477 1803.992 571.779 1094.044 1820.368 794.730 517.719 2345.976 2653.352 1173.495 2500.739 1146.665 678.427 1199.171 2366.656 1117.603 1431.268 808.820 1397.104 432.896
1718.750 0.000 614.515 644.048 1252.403 1369.982 298.089 1015.164 843.801 989.968 1017.825 978.559 711.122 1424.279 178.753 691.721 1315.648 988.164 1229.962 265.747 1007.984 286.652 562.479 693.973 1043.151 1174.401 861.551 1025.546 699.697 676.815 1187.291 476.914 882.002 991.639 1606.025 1501.782 1565.117 390.060 1418.824 543.035 636.571 1527.900 1281.604 1052.514 731.263 1211.869 601.568 616.807 960.286 508.054 847.158 366.550 366.811 1172.448 1021.578 1250.679 1171.049 304.394 1162.358 1110.242 1030.140 1158.273 576.106 1041.437 857.036 337.571 713.633 1243.430 824.067 863.568 890.730 430.362 1036.228 1240.817 577.724 813.581 1506.525 1191.344 1233.657 313.669 1334.271 627.150 297.663 1475.108 899.911 1359.118 930.429 1362.567 1071.977 1225.363 1087.429 1145.046 1155.253 1209.646 1181.990 985.155 1181.034 394.913 1271.465 1397.979 1314.679
1919.126 581.886 0.000 1072.083 1080.542 1585.871 756.621 697.434 1262.178 706.914 851.989 1038.354 316.790 1703.988 626.272 644.647 1369.389 1087.325 1509.671 793.167 939.919 745.184 805.301 996.242 725.421 877.116 564.267 707.816 580.111 579.517 1054.328 582.098 584.717 1016.935 1659.766 1492.331 1774.531 511.166 1368.827 971.070 158.167 1323.893 1442.851 755.229 846.843 1237.165 915.622 433.458 642.556 235.729 529.428 825.081 821.185 1469.738 703.847 945.916 1362.753 558.819 844.628 1271.489 1055.436 1106.535 830.531 723.707 539.306 792.101 617.509 1443.093 429.735 871.318 794.606 684.787 718.498 1450.231 879.993 942.843 1538.244 873.614 1433.320 663.552 1613.980 369.070 348.925 1754.817 1337.313 1155.112 1210.137 1633.775 754.247 1175.726 1112.725 827.316 1208.994 1394.849 1207.286 702.100 1234.775 813.172 1432.712 1347.982 1524.094
1212.490 663.759 1135.280 0.000 1161.885 889.204 373.555 1535.929 496.543 1510.733 956.839 820.357 1231.887 894.587 666.447 1213.457 1144.350 816.866 749.184 462.682 1456.449 380.894 1084.215 416.368 1563.916 1466.008 1153.159 1337.266 1220.461 1197.579 1096.773 997.679 1173.609 901.121 1434.727 1334.245 1231.349 826.565 1251.287 179.690 1055.238 1437.382 982.367 1344.121 1179.727 1064.996 336.454 1137.572 1481.051 908.487 1367.923 325.819 343.728 634.692 1542.342 1275.926 729.145 826.130 1536.250 938.898 939.622 1067.755 905.738 1562.202 1377.801 491.263 1188.265 829.689 1158.690 1312.032 1376.848 952.098 1556.993 907.048 411.112 1262.045 1335.227 1712.108 836.561 526.895 853.493 918.758 878.044 994.330 362.156 1268.600 519.214 881.789 1592.741 1673.828 938.060 1665.811 983.955 959.597 1032.508 1505.919 1009.736 304.615 1100.121 1230.441 980.911
1735.685 1257.795 1051.852 1161.992 0.000 1402.430 1195.165 743.246 1107.356 1413.914 515.529 854.912 785.938 1520.546 1378.531 1444.804 961.105 885.643 1326.229 1390.863 1740.076 1197.652 1605.459 884.913 771.234 568.539 550.538 439.798 1376.274 1379.674 273.860 1382.255 497.984 749.359 1022.110 810.345 1591.090 1152.250 686.841 1229.716 1005.903 307.562 1259.409 368.742 1647.000 776.575 978.543 1233.333 616.898 1047.354 875.967 1261.323 1178.652 1286.296 1068.199 292.810 1179.311 1358.976 638.782 1088.047 806.749 446.712 1630.688 824.286 1076.558 1492.776 1417.666 1259.651 775.691 1671.475 1594.763 1484.944 1082.850 1266.789 787.866 1743.001 895.420 1116.251 1249.879 967.204 1430.539 741.850 1176.765 1571.375 1246.830 138.780 1026.696 1450.333 725.771 1975.884 775.175 1200.243 927.894 1211.407 731.430 1409.100 888.902 1338.806 1102.820 665.996 1340.652
523.241 1365.049 1598.323 895.225 1394.323 0.000 1077.354 2044.122 564.573 2052.140 1189.277 702.106 1732.595 339.783 1387.015 1802.944 778.058 664.199 181.147 1236.173 2098.215 1084.693 1749.478 850.215 2072.109 1869.415 1556.566 1740.673 1761.869 1738.987 1329.211 1663.913 1577.016 910.788 855.183 950.119 455.299 1421.580 1047.620 955.785 1516.629 1669.820 255.904 1731.000 1916.421 989.283 998.575 1678.937 1904.279 1369.877 1885.082 1099.311 1047.526 370.071 2057.941 1508.364 300.399 1491.393 1939.657 486.525 873.639 1193.087 1642.431 2077.800 1920.753 1264.754 1775.805 235.328 1620.080 2029.614 1952.902 1617.361 2072.592 180.586 886.353 1998.739 903.782 2227.707 241.205 1074.458 249.776 1380.148 1484.662 274.817 740.882 1501.038 441.568 87.966 2026.647 2334.023 854.166 2181.409 827.335 359.098 879.841 2047.327 798.274 1078.106 489.490 1077.774 204.861
1429.329 298.872 787.161 354.627 1192.339 1080.561 0.000 1187.811 554.380 1162.615 957.761 918.495 883.769 1134.858 318.329 865.339 1255.584 928.100 940.541 209.219 1124.457 16.007 736.097 460.048 1215.798 1114.337 801.488 985.595 872.343 849.461 1127.227 649.561 821.938 931.575 1545.961 1441.718 1422.706 472.551 1358.760 253.614 710.211 1467.836 1173.724 992.450 847.735 1151.805 325.905 789.454 1132.933 563.460 1019.805 85.699 77.390 883.027 1194.224 1190.615 881.628 478.012 1184.579 1050.178 970.076 1098.209 573.746 1214.084 1029.683 311.132 856.273 1002.820 807.019 980.041 1044.856 603.980 1208.875 1098.405 454.792 930.054 1446.462 1363.990 1009.692 253.606 1044.851 567.087 529.926 1185.687 610.490 1299.055 641.008 1073.146 1244.623 1341.836 1027.365 1317.693 1095.189 1112.080 1121.926 1157.801 1120.970 163.182 1211.402 1337.915 1172.268
2387.253 1017.297 687.105 1507.493 762.934 2053.998 1192.032 0.000 1737.743 993.053 1051.800 1506.480 503.257 2172.114 1061.683 1080.058 1622.474 1547.011 1977.797 1228.578 1375.329 1180.595 1240.712 1505.541 292.766 461.769 543.240 345.920 955.414 965.791 939.636 1017.508 490.686 1400.927 1700.590 1528.508 2242.658 1020.465 1406.541 1406.480 712.282 1006.285 1910.977 437.621 1282.254 1437.944 1424.921 838.700 302.811 778.225 414.486 1260.492 1260.753 1937.864 595.399 794.236 1830.879 994.230 347.884 1739.615 1458.316 1125.080 1265.941 345.819 655.698 1227.511 1052.919 1911.219 636.156 1306.729 1230.016 1120.198 609.905 1918.357 1389.292 1378.254 1556.789 637.783 1901.446 1155.566 2082.106 734.552 812.018 2222.943 1772.723 837.503 1678.264 2101.901 247.944 1611.137 1436.543 727.442 1589.262 1862.975 1392.798 988.240 1550.270 1248.582 1764.188 1385.696 1992.220
918.079 848.091 1284.025 502.043 1113.134 569.311 557.887 1737.029 0.000 1711.833 908.087 444.791 1429.980 623.608 867.548 1414.558 768.783 441.300 429.291 758.437 1673.676 565.226 1285.315 330.749 1765.017 1588.226 1275.377 1459.484 1421.562 1398.680 1048.022 1198.779 1295.827 577.692 1059.161 958.678 911.456 1010.897 875.720 567.380 1202.107 1388.631 662.474 1449.811 1396.954 689.430 479.108 1338.673 1623.090 1055.355 1569.024 624.045 528.060 427.899 1743.443 1227.175 370.378 1027.231 1658.468 563.331 597.406 931.782 1122.965 1763.302 1578.901 860.351 1405.492 491.570 1305.558 1529.260 1594.075 1153.199 1758.093 587.155 474.762 1479.272 959.661 1913.209 498.442 676.363 533.600 1065.626 1073.979 674.437 339.689 1219.849 129.757 561.895 1745.458 1891.055 562.494 1866.911 608.388 600.830 656.942 1707.020 634.169 689.702 724.554 854.875 661.018
2389.915 978.254 705.934 1468.450 1425.411 2056.660 1152.988 985.648 1698.700 0.000 1396.673 1509.142 759.574 2174.776 1022.639 460.746 1840.177 1558.113 1980.460 1149.875 711.808 1141.551 593.727 1467.030 821.383 1221.985 909.136 1039.525 330.527 346.023 1456.759 659.032 929.586 1487.723 2045.462 1873.380 2245.320 982.042 1757.330 1367.437 731.110 1668.762 1913.639 1100.098 618.732 1707.953 1386.411 503.423 974.974 756.355 695.897 1221.449 1221.710 1940.526 577.991 1290.785 1833.541 841.021 1176.337 1742.277 1526.224 1469.952 635.687 698.398 367.302 1048.986 384.888 1913.882 872.519 643.207 566.495 736.007 567.654 1921.020 1350.781 711.437 1901.661 558.820 1904.109 1116.523 2084.769 940.506 772.975 2225.605 1733.680 1499.981 1680.926 2104.563 1085.956 947.616 1583.514 512.523 1679.782 1865.638 1678.075 24.368 1705.563 1209.539 1903.501 1736.485 1994.882
1555.625 1023.602 852.788 974.686 500.531 1222.370 960.971 1049.647 927.297 1366.095 0.000 674.853 738.120 1340.487 1144.338 1281.786 893.452 722.858 1146.170 1156.669 1577.057 963.458 1408.030 697.607 1077.634 874.940 562.091 746.198 1240.711 1217.829 382.272 1219.317 582.541 558.907 971.568 799.486 1411.030 911.484 683.436 1042.410 758.866 776.028 1079.349 740.759 1483.982 672.359 791.237 1153.256 909.804 800.317 890.607 1027.129 962.740 1106.236 1063.466 519.177 999.252 1149.946 945.182 907.988 616.297 396.058 1421.657 1083.325 1028.740 1258.583 1254.648 1079.592 712.645 1508.457 1431.744 1275.914 1078.117 1086.730 600.560 1579.982 827.767 1233.232 1069.819 733.011 1250.479 529.148 992.827 1391.316 1066.771 607.246 846.636 1270.274 1032.172 1812.865 670.959 1186.934 844.528 1031.348 629.662 1361.282 821.248 1104.612 1035.166 662.591 1160.593
1061.929 972.903 1089.783 795.205 884.151 726.385 910.272 1535.582 432.499 1543.600 680.737 0.000 1224.055 826.023 1093.639 1294.404 469.974 150.329 631.707 1105.970 1589.675 912.759 1357.331 518.765 1563.570 1360.875 1048.026 1232.134 1253.329 1230.447 820.671 1231.935 1068.477 335.478 760.351 621.531 904.244 915.164 545.036 855.765 1008.089 1159.648 600.495 1220.828 1496.599 357.025 684.883 1170.397 1395.739 861.337 1376.542 976.430 884.992 591.940 1549.401 999.824 484.763 1099.247 1431.117 429.013 273.590 599.378 1370.958 1569.261 1412.213 1164.734 1267.265 582.557 1111.540 1521.074 1444.362 1225.215 1564.052 579.944 494.206 1592.600 660.851 1719.167 572.784 682.312 736.016 871.608 1005.445 876.852 640.862 990.866 332.173 764.311 1518.107 1825.483 230.089 1672.870 309.579 548.773 326.257 1538.787 335.360 978.086 590.236 524.190 653.806
2088.841 680.939 316.852 1171.136 791.951 1755.586 855.674 501.355 1401.386 761.453 763.212 1208.068 0.000 1873.702 725.325 743.700 1333.886 1257.039 1679.385 892.220 1038.972 844.237 904.354 1165.956 529.342 588.525 275.675 439.331 678.882 678.570 823.299 681.151 296.126 1112.338 1412.001 1239.919 1944.246 684.107 1123.870 1070.123 324.982 1035.302 1612.565 466.638 945.896 1149.356 1085.336 532.228 346.861 409.659 329.986 924.134 924.396 1639.452 522.219 657.325 1532.467 657.872 576.144 1441.203 1169.728 836.492 929.584 539.232 449.106 891.154 716.562 1612.807 183.128 970.371 893.659 783.840 536.869 1619.945 1049.707 1041.896 1268.201 696.653 1603.034 819.209 1783.694 376.693 475.661 1924.531 1436.366 866.520 1379.852 1803.489 538.315 1274.779 1147.955 650.355 1300.674 1564.563 1104.210 756.640 1261.682 912.225 1475.600 1103.025 1693.808
475.140 1425.288 1751.612 902.110 1547.612 340.569 1135.084 2197.411 622.303 2205.429 1342.566 874.314 1885.884 0.000 1444.745 1956.233 1002.985 870.822 223.992 1243.058 2236.825 1142.423 1862.512 907.945 2225.398 2022.704 1709.855 1893.962 1915.158 1892.276 1482.500 1775.976 1730.305 1064.077 1080.111 1175.047 519.164 1576.993 1272.547 962.669 1669.918 1823.109 480.831 1884.289 1960.103 1118.952 1056.305 1832.226 2057.568 1523.166 2038.371 1106.196 1105.257 376.956 2211.230 1661.653 521.978 1604.428 2092.946 711.452 1026.928 1361.305 1686.114 2231.090 2074.042 1271.639 1929.094 458.870 1773.369 2092.409 2106.191 1730.396 2225.881 405.513 1051.959 2042.421 1128.710 2380.996 466.133 1244.725 104.599 1533.437 1651.176 292.098 747.766 1654.327 499.298 327.216 2179.936 2454.204 992.016 2334.699 1037.911 584.025 1086.464 2200.616 1023.201 1084.991 714.418 1284.397 359.362
1700.989 137.555 597.537 614.502 1335.100 1352.221 280.328 998.187 826.040 972.991 1100.521 1061.256 694.145 1406.518 0.000 675.715 1398.344 1070.861 1212.202 247.986 991.978 268.892 546.473 731.708 1026.174 1177.869 865.019 1008.568 682.719 659.837 1269.987 459.937 885.470 1074.335 1688.722 1584.479 1647.813 472.757 1501.520 513.489 619.593 1610.597 1364.300 1055.982 715.257 1294.565 597.565 599.830 943.309 491.077 830.181 348.789 349.050 1152.277 1004.600 1246.669 1153.288 261.582 1145.381 1192.939 1112.836 1240.970 480.358 1024.460 840.059 233.037 696.656 1274.480 807.089 847.562 873.752 414.356 1019.251 1323.513 660.420 797.575 1589.222 1174.366 1281.352 396.366 1316.511 709.847 333.956 1457.347 879.732 1441.815 912.668 1344.806 1054.999 1209.357 1170.126 1128.069 1237.949 1292.343 1264.687 968.177 1263.730 355.591 1354.162 1480.675 1397.376
2177.526 691.044 658.003 1185.149 1441.760 1844.271 869.687 1058.652 1415.399 462.603 1280.932 1296.753 754.610 1962.387 707.175 0.000 1627.788 1345.724 1768.071 844.812 511.277 858.250 223.726 1209.617 963.854 1238.334 925.485 1069.034 237.998 215.116 1473.109 291.261 945.935 1275.335 1918.166 1785.808 2032.931 769.565 1702.850 1084.135 672.395 1685.112 1701.250 1116.447 341.879 1495.565 1128.997 354.965 1003.774 543.879 846.150 938.147 938.409 1722.924 720.461 1307.134 1621.152 469.386 1205.846 1529.888 1313.835 1450.696 348.447 840.868 531.904 744.319 90.079 1701.493 867.555 397.876 365.964 364.372 710.125 1708.631 1093.367 424.197 1818.666 697.942 1691.720 829.313 1872.380 798.013 560.499 2013.216 1450.379 1516.330 1468.537 1892.174 1115.465 747.085 1371.125 651.644 1467.393 1653.249 1465.686 457.789 1493.174 926.238 1691.112 1682.005 1782.493
1142.318 1342.748 1416.871 1180.294 953.682 809.063 1280.117 1612.894 817.588 1870.688 858.475 457.982 1301.367 1034.037 1463.484 1621.491 0.000 369.400 832.826 1475.815 1916.763 1282.604 1727.176 903.800 1640.882 1438.187 1125.338 1309.446 1580.417 1557.535 927.496 1559.023 1145.789 641.986 346.287 414.032 997.561 1242.252 511.532 1240.854 1335.176 1229.179 630.436 1290.359 1823.687 540.175 1063.495 1497.484 1473.051 1188.425 1453.854 1346.275 1263.605 929.880 1626.713 1070.150 687.709 1469.091 1508.429 504.292 541.375 668.909 1740.803 1646.573 1591.987 1549.823 1594.353 666.122 1293.296 1848.162 1771.450 1595.060 1641.364 673.261 872.818 1919.687 282.885 1796.479 656.350 1052.156 944.029 1198.696 1332.532 994.702 1025.951 1060.397 717.262 856.966 1595.419 2152.570 403.584 1750.182 242.604 589.315 430.733 1865.874 213.543 1363.175 327.183 541.766 747.123
1047.724 1026.262 1100.385 854.994 888.109 712.181 963.631 1546.184 492.288 1554.202 691.338 141.496 1234.656 885.812 1146.998 1305.005 367.365 0.000 691.495 1159.329 1600.277 966.118 1410.690 578.553 1574.171 1371.477 1058.627 1242.735 1263.931 1241.049 831.272 1242.537 1079.078 390.384 657.742 590.560 890.039 925.766 507.602 915.553 1018.690 1163.606 580.363 1224.786 1507.201 398.266 744.671 1180.998 1406.341 871.939 1387.144 1029.789 944.780 651.728 1560.003 1004.577 517.765 1152.606 1441.719 408.881 328.496 603.336 1424.317 1579.862 1422.815 1224.523 1277.867 568.352 1122.142 1531.676 1454.964 1278.574 1574.653 565.739 553.994 1603.202 558.242 1729.769 558.580 735.671 795.804 882.210 1016.046 900.109 700.650 994.824 391.961 760.084 1528.709 1836.084 263.148 1683.471 206.970 532.241 288.823 1549.388 232.751 1037.875 505.155 486.757 639.601
518.411 1233.816 1560.140 761.483 1356.140 193.181 943.612 2005.940 430.832 2013.958 1151.094 682.842 1694.412 223.940 1253.273 1764.761 811.514 679.351 0.000 1102.432 2059.401 950.951 1671.041 716.474 2033.927 1831.233 1518.383 1702.491 1723.686 1700.804 1291.028 1584.505 1538.834 872.606 888.639 983.575 538.342 1385.522 1081.075 822.043 1478.446 1631.637 289.360 1692.817 1782.679 927.481 864.834 1640.754 1866.097 1331.695 1846.899 965.569 913.785 236.330 2019.758 1470.181 330.507 1412.956 1901.475 519.980 835.457 1169.833 1508.690 2039.618 1882.570 1131.013 1737.623 267.398 1581.898 1914.985 1914.719 1538.924 2034.409 214.041 860.487 1864.997 937.238 2189.525 274.661 1053.253 133.933 1341.965 1459.705 274.769 607.140 1462.856 307.826 154.086 1988.464 2276.780 800.545 2143.227 846.439 392.553 894.993 2009.144 831.729 944.365 522.946 1092.926 287.904
1546.217 266.530 804.641 430.644 1388.051 1222.931 209.219 1205.291 754.930 1153.231 1153.472 1114.207 901.249 1228.314 288.195 844.681 1451.295 1123.812 1082.911 0.000 1077.989 197.782 715.438 660.598 1233.278 1310.049 997.199 1181.307 889.823 866.941 1322.939 667.041 1017.650 1127.287 1741.673 1637.430 1565.076 601.732 1554.472 329.631 826.697 1663.548 1316.094 1188.162 801.268 1347.517 526.455 806.934 1150.413 698.181 1037.285 177.387 277.940 968.419 1211.704 1386.327 1062.872 439.272 1352.485 1245.890 1165.787 1293.921 527.278 1231.564 1047.163 168.953 809.806 1163.416 1002.730 933.573 998.389 580.487 1226.355 1240.775 655.343 883.586 1642.173 1381.470 1170.288 449.317 1187.220 762.798 541.060 1328.057 695.874 1494.766 841.558 1215.516 1262.103 1295.368 1223.077 1335.173 1290.900 1293.324 1317.638 1148.418 1316.681 171.733 1407.113 1533.626 1314.638
2452.068 998.703 932.680 1420.324 1716.437 2118.813 1115.088 1333.329 1660.800 693.643 1555.609 1571.295 1029.287 2217.994 1014.834 525.972 1902.330 1620.266 2042.612 1068.620 0.000 1103.651 557.007 1517.275 1194.894 1513.011 1200.162 1343.711 517.843 494.961 1747.786 704.067 1220.612 1549.876 2192.707 2060.350 2307.473 1044.242 1977.392 1319.311 947.072 1959.789 1975.792 1391.124 281.614 1770.106 1432.324 629.642 1278.451 818.556 1084.590 1183.548 1183.810 1958.100 951.501 1581.811 1895.694 777.045 1480.523 1804.430 1588.377 1725.238 554.432 1071.909 802.893 967.732 450.113 1976.034 1142.232 238.701 194.407 672.031 941.165 1983.172 1401.026 399.052 2093.208 928.982 1966.262 1136.972 2146.922 1072.690 835.176 2287.758 1685.554 1791.007 1743.079 2166.716 1390.142 257.975 1645.666 882.685 1741.935 1927.790 1740.227 688.829 1767.716 1174.276 1965.653 1956.547 2057.035
1436.668 287.436 775.725 361.966 1194.839 1087.900 16.007 1176.374 561.719 1151.178 960.261 920.995 872.332 1142.197 306.893 853.902 1258.084 930.600 947.880 197.782 1113.020 0.000 724.660 467.387 1204.361 1116.837 803.988 988.095 860.906 838.024 1129.727 638.124 824.438 934.075 1548.461 1444.218 1430.045 475.051 1361.260 260.953 712.711 1470.336 1181.063 994.950 836.299 1154.305 333.244 778.017 1121.496 565.960 1008.368 84.468 84.729 890.366 1182.787 1193.115 888.967 466.575 1187.079 1052.678 972.576 1100.709 562.309 1202.647 1018.246 299.695 844.836 1010.159 809.519 968.604 1033.420 592.543 1197.438 1105.744 462.131 918.617 1448.962 1352.553 1017.031 256.106 1052.189 569.587 518.489 1193.026 617.829 1301.554 648.347 1080.485 1233.186 1330.399 1029.865 1306.256 1097.689 1119.419 1124.426 1146.364 1123.470 158.978 1213.902 1340.415 1179.607
2108.036 560.634 817.365 1054.738 1601.122 1772.492 739.276 1218.014 1284.988 595.831 1403.058 1363.793 913.972 1852.408 576.765 224.028 1700.881 1373.398 1671.150 714.401 567.305 727.840 0.000 1079.206 1097.082 1397.696 1084.846 1228.395 397.360 374.478 1572.524 317.052 1105.297 1376.872 1991.259 1887.016 1950.351 775.294 1804.057 953.725 831.757 1844.473 1666.837 1275.809 290.583 1597.102 998.586 514.327 1163.136 703.240 986.778 807.737 807.998 1592.514 853.689 1466.496 1575.672 338.976 1365.208 1495.476 1415.373 1543.507 215.000 974.097 691.266 613.908 252.405 1628.663 1026.916 422.889 487.704 233.962 843.353 1626.050 962.957 372.902 1891.759 831.170 1618.891 698.903 1775.459 957.375 563.018 1916.295 1319.968 1675.691 1371.616 1803.754 1274.826 784.684 1472.663 784.873 1540.486 1594.880 1567.224 591.017 1566.267 795.827 1656.699 1783.212 1699.913
1200.150 695.921 1012.992 413.561 899.227 851.382 460.048 1493.550 325.201 1466.810 694.181 528.069 1158.947 905.679 769.709 1209.592 865.158 537.674 711.362 660.598 1512.884 467.387 1080.350 0.000 1521.538 1341.844 1028.995 1213.102 1176.538 1153.656 834.115 994.785 1049.445 614.742 1155.535 1055.053 1114.627 752.452 972.095 481.284 931.074 1174.724 831.114 1219.957 1249.134 772.708 240.101 1093.606 1376.708 784.323 1325.545 526.205 430.221 709.970 1499.964 1013.268 637.482 822.265 1412.086 659.752 647.664 805.097 1025.125 1519.823 1335.422 762.511 1190.475 773.641 1034.526 1381.439 1367.571 948.233 1514.614 790.327 158.852 1331.452 1056.035 1669.730 780.513 405.330 815.671 794.594 815.534 956.508 472.630 1005.942 411.829 843.966 1499.076 1743.234 645.772 1623.432 704.763 759.156 742.829 1461.996 730.544 603.688 820.975 951.249 864.189
2413.980 1044.024 713.832 1534.220 789.661 2080.725 1218.759 289.479 1764.470 821.762 1078.528 1533.207 529.985 2198.841 1088.410 964.071 1649.201 1573.739 2004.525 1255.305 1215.133 1207.322 1097.051 1532.268 0.000 586.235 569.967 372.648 792.236 802.716 966.363 920.685 517.414 1427.654 1727.317 1555.235 2269.385 1047.192 1433.269 1433.207 739.009 1033.012 1937.704 464.348 1122.057 1464.671 1451.648 710.231 329.538 804.952 299.107 1287.219 1287.480 1964.591 393.688 820.963 1857.606 1020.957 509.460 1766.342 1485.044 1151.807 1139.011 144.107 492.623 1254.238 888.212 1937.946 662.884 1146.532 1069.820 1071.389 408.194 1945.084 1416.019 1214.762 1583.516 436.072 1928.174 1182.293 2108.834 761.279 838.746 2249.670 1799.451 864.231 1704.991 2128.628 419.633 1450.940 1463.271 525.731 1615.989 1889.702 1419.526 816.948 1576.997 1275.310 1790.915 1412.423 2018.947
2213.248 1178.493 870.549 1450.948 588.929 1879.993 1115.863 461.945 1584.919 1232.611 877.796 1332.475 604.636 1998.109 1245.127 1263.502 1448.469 1373.006 1803.792 1311.561 1558.773 1118.349 1424.156 1349.810 589.931 0.000 369.235 258.495 1194.972 1198.372 765.631 1200.952 316.681 1226.922 1526.585 1354.503 2068.653 986.516 1238.453 1349.935 824.600 832.280 1736.972 263.616 1465.698 1263.939 1269.190 1052.030 435.596 866.051 694.664 1182.021 1173.711 1763.859 886.897 620.231 1656.874 1177.674 287.591 1565.610 1284.312 951.075 1449.385 642.984 895.256 1410.955 1236.364 1737.214 594.388 1490.173 1413.460 1303.642 901.547 1744.352 1233.561 1561.698 1382.784 934.948 1727.442 1016.078 1908.102 560.547 995.462 2048.938 1706.812 663.499 1504.259 1927.896 395.630 1794.581 1262.539 1018.940 1415.257 1688.970 1218.794 1227.798 1376.265 1259.504 1590.183 1217.608 1818.215
1895.719 860.964 553.020 1133.419 574.260 1562.464 798.334 545.541 1267.390 915.083 560.267 1014.946 287.107 1680.580 927.598 945.973 1130.940 1055.478 1486.264 994.032 1241.245 800.821 1106.627 1032.281 573.528 370.834 0.000 242.092 877.443 880.843 620.354 883.423 78.435 909.393 1209.056 1036.974 1751.124 668.987 920.925 1032.406 507.071 817.612 1419.443 248.947 1148.169 946.410 951.661 734.501 405.698 548.522 394.886 864.492 856.183 1446.330 587.119 454.379 1339.345 860.145 441.076 1248.081 966.783 633.546 1131.857 604.132 577.727 1093.427 918.835 1419.686 276.859 1172.644 1095.932 986.113 601.769 1426.824 916.032 1244.169 1065.255 765.460 1409.913 698.549 1590.573 243.018 677.934 1731.409 1389.283 648.830 1186.730 1610.367 528.066 1477.052 945.010 719.162 1097.729 1371.442 901.265 910.269 1058.737 941.975 1272.655 900.079 1500.686
2083.017 996.859 666.667 1320.717 458.698 1749.762 985.632 346.543 1454.688 1023.345 747.565 1202.244 449.456 1867.878 1041.245 1059.620 1318.238 1242.776 1673.562 1181.330 1354.891 988.119 1220.274 1219.579 374.531 255.272 239.004 0.000 985.705 994.490 635.401 997.070 186.451 1096.691 1396.354 1224.272 1938.422 856.285 1108.223 1219.704 691.844 702.050 1606.741 133.385 1261.816 1133.708 1138.959 848.148 220.195 735.820 479.264 1051.790 1043.481 1633.628 671.496 490.000 1526.643 973.792 242.079 1435.379 1154.081 820.844 1245.504 427.583 685.989 1207.073 1032.482 1606.983 431.200 1286.291 1209.578 1099.760 686.147 1614.122 1103.330 1357.816 1252.553 719.548 1597.211 885.847 1777.871 430.316 791.581 1918.707 1576.581 533.268 1374.028 1797.665 329.068 1590.699 1132.308 803.540 1285.026 1558.740 1088.563 1018.531 1246.035 1129.273 1459.953 1087.377 1687.984
2096.008 684.260 576.485 1174.456 1360.242 1762.753 858.994 946.537 1404.706 329.805 1199.414 1215.235 673.092 1880.869 728.645 238.109 1546.271 1264.206 1686.553 895.541 539.653 847.557 398.763 1173.124 790.103 1156.816 843.967 987.516 0.000 50.034 1391.591 365.038 864.418 1193.817 1836.648 1704.290 1951.413 688.047 1621.332 1073.443 590.877 1603.594 1619.732 1034.929 446.578 1414.047 1092.504 223.858 922.256 462.361 656.787 927.455 927.716 1646.619 548.587 1225.616 1539.634 578.639 1124.329 1448.371 1232.317 1369.178 468.043 667.118 330.817 853.572 217.244 1619.975 786.037 471.053 394.340 473.626 538.251 1627.113 1056.874 542.578 1737.148 627.305 1610.202 822.529 1790.862 716.495 478.981 1931.698 1439.686 1434.812 1387.019 1810.656 1033.947 775.461 1289.607 581.007 1385.876 1571.731 1384.168 324.991 1411.656 915.545 1609.594 1600.487 1700.975
2075.895 664.146 556.372 1154.342 1340.129 1742.640 838.881 953.225 1384.592 350.739 1179.301 1195.122 652.979 1860.756 708.532 217.995 1526.157 1244.093 1666.439 875.427 519.540 827.444 378.650 1153.010 796.790 1136.703 823.853 967.402 55.472 0.000 1371.477 344.924 844.304 1173.703 1816.534 1684.177 1931.300 667.934 1601.219 1053.329 570.764 1583.480 1599.619 1014.816 426.464 1393.933 1072.390 194.540 902.143 442.247 663.474 907.341 907.603 1626.506 569.522 1205.503 1519.521 558.526 1104.215 1428.257 1212.204 1349.065 447.929 673.805 337.504 833.458 197.130 1599.861 765.923 450.939 374.227 453.512 559.185 1606.999 1036.761 522.465 1717.035 624.910 1590.089 802.415 1770.749 696.382 458.868 1911.585 1419.573 1414.698 1366.906 1790.543 1013.833 755.348 1269.493 578.613 1365.762 1551.617 1364.054 345.926 1391.543 895.432 1589.480 1580.374 1680.862
1690.909 1213.020 1051.834 1117.217 283.375 1357.654 1150.390 940.598 1062.581 1440.700 381.791 810.137 812.724 1475.771 1333.756 1471.591 925.476 850.014 1281.454 1346.088 1766.862 1152.876 1597.448 840.138 968.586 765.891 632.917 637.150 1403.061 1406.461 0.000 1409.041 600.928 704.583 976.713 764.948 1546.314 1107.475 641.443 1184.941 957.912 540.448 1214.633 566.094 1673.786 740.946 933.768 1260.119 814.250 999.363 922.074 1216.547 1133.877 1241.520 1114.306 298.725 1134.535 1339.364 836.134 1043.272 761.973 401.315 1611.076 1021.638 1103.345 1448.001 1444.452 1214.876 727.700 1698.261 1621.549 1465.332 1128.957 1222.014 743.091 1769.787 859.791 1292.648 1205.103 922.429 1385.763 693.859 1191.873 1526.599 1202.055 371.667 981.920 1405.558 923.123 2002.670 739.546 1246.350 892.264 1166.632 695.801 1435.887 853.273 1294.030 1067.191 620.598 1295.876
2029.603 482.201 580.400 972.398 1364.157 1694.059 656.936 981.049 1202.648 659.981 1203.329 1219.150 677.007 1770.068 500.185 291.988 1550.186 1268.121 1588.809 672.314 706.056 645.499 317.223 1000.774 919.172 1160.731 847.882 991.431 369.710 346.828 1395.506 0.000 868.333 1197.732 1840.563 1708.205 1871.918 584.627 1625.247 871.384 594.792 1607.509 1588.405 1038.844 435.376 1417.962 920.154 290.520 926.171 466.276 747.449 725.396 725.658 1510.173 816.872 1229.531 1497.240 262.397 1128.244 1417.043 1236.232 1373.093 331.133 836.731 599.187 596.846 336.330 1550.231 789.952 567.681 560.743 185.389 831.522 1547.618 884.525 517.694 1741.063 895.321 1540.458 620.471 1693.118 720.410 344.437 1833.954 1237.628 1438.727 1289.275 1721.413 1037.862 929.476 1293.522 849.023 1389.791 1516.447 1388.083 655.168 1415.571 713.487 1578.267 1604.402 1621.480
1908.040 873.285 565.341 1145.741 529.199 1574.785 810.655 500.480 1279.711 927.404 572.588 1027.267 299.428 1692.901 939.919 958.294 1143.261 1067.799 1498.585 1006.353 1253.566 813.142 1118.948 1044.602 528.467 325.773 64.028 197.031 889.764 893.164 613.059 895.744 0.000 921.714 1221.377 1049.295 1763.445 681.308 933.246 1044.727 519.392 772.550 1431.764 203.886 1160.490 958.731 963.982 746.822 360.637 560.843 395.588 876.813 868.504 1458.651 587.821 428.502 1351.666 872.466 396.015 1260.402 979.104 645.867 1144.178 581.520 590.048 1105.748 931.156 1432.007 289.180 1184.965 1108.253 998.434 602.472 1439.145 928.353 1256.490 1077.576 766.162 1422.234 710.870 1602.894 255.339 690.255 1743.730 1401.604 603.769 1199.051 1622.688 483.005 1489.373 957.331 719.864 1110.050 1383.763 913.586 922.590 1071.058 954.296 1284.976 912.400 1513.007
1256.190 987.140 1061.263 891.337 777.716 922.935 924.509 1427.515 572.914 1515.080 558.431 334.607 1115.988 1041.051 1107.876 1265.883 639.110 396.481 846.735 1120.207 1561.155 926.996 1371.568 602.027 1455.503 1252.808 939.959 1124.067 1224.809 1201.927 712.604 1203.415 960.409 0.000 828.251 654.752 1111.595 886.644 531.248 959.061 979.568 1053.213 779.914 1114.393 1468.079 364.034 707.887 1141.876 1287.672 832.817 1268.475 990.667 907.997 806.801 1441.334 891.757 699.816 1113.484 1323.050 608.552 115.718 494.691 1385.195 1461.194 1383.693 1222.121 1238.745 780.157 1083.020 1492.554 1415.842 1239.452 1455.985 787.295 517.211 1564.079 684.451 1611.100 770.384 696.548 951.044 843.088 976.924 1091.880 847.286 884.431 547.201 970.838 1410.040 1796.962 310.959 1564.803 518.151 731.913 321.337 1510.266 518.621 1068.150 769.776 510.403 861.157
1189.963 1633.448 1671.786 1464.281 1020.038 856.707 1570.818 1723.913 1101.743 2040.361 969.493 748.683 1412.385 1081.681 1754.184 1912.192 346.610 660.101 880.470 1766.516 2207.464 1573.305 2017.877 1189.046 1751.900 1549.206 1236.356 1420.464 1871.117 1848.235 976.646 1849.723 1256.807 822.540 0.000 295.318 1045.206 1532.953 392.818 1524.841 1577.863 1317.744 680.986 1378.923 2114.388 718.144 1354.196 1788.185 1584.070 1479.126 1564.872 1636.976 1554.305 977.524 1737.732 1147.933 835.271 1759.792 1619.448 654.730 816.240 746.117 2031.504 1757.591 1703.005 1833.811 1885.054 713.767 1372.827 2138.863 2062.150 1885.760 1752.382 720.905 1163.519 2210.388 221.249 1907.498 703.995 1342.857 991.674 1313.811 1623.233 1042.347 1309.938 1148.962 1001.416 904.611 1706.437 2443.271 690.815 1861.200 533.305 721.876 608.702 2035.547 504.244 1647.163 465.099 458.474 794.768
1287.311 1468.648 1473.243 1315.206 796.320 954.056 1406.017 1514.851 952.667 1862.109 792.552 583.882 1234.133 1179.030 1589.384 1747.391 419.215 566.649 977.818 1601.715 2042.663 1408.504 1853.076 1038.548 1542.838 1355.003 1054.325 1226.261 1706.317 1683.435 752.928 1684.923 1066.676 637.669 300.672 0.000 1142.554 1368.152 169.100 1375.766 1379.321 1094.026 778.334 1155.205 1949.587 550.506 1189.396 1623.384 1360.358 1314.325 1343.483 1472.175 1389.505 1074.873 1535.715 924.215 932.619 1594.992 1425.245 752.702 631.369 522.399 1866.703 1552.728 1524.753 1684.735 1720.253 811.115 1149.109 1974.062 1897.350 1720.960 1550.366 818.253 998.719 2045.588 236.399 1714.057 801.343 1178.057 1089.022 1115.268 1458.432 1139.695 1160.863 925.244 852.341 1001.959 1512.235 2278.471 524.180 1667.759 484.402 836.701 441.064 1857.295 455.341 1498.087 574.569 234.756 892.116
433.387 1569.199 1821.641 1240.960 1617.641 456.621 1423.088 2267.440 910.308 2275.458 1412.594 906.255 1955.912 519.633 1689.934 2026.261 987.557 887.517 526.882 1581.908 2321.533 1430.427 1953.627 1115.061 2295.427 2092.733 1779.883 1963.991 1985.187 1962.305 1552.528 1868.062 1800.334 1134.106 1064.682 1159.618 0.000 1625.729 1257.119 1301.520 1739.946 1893.138 436.353 1954.318 2122.411 1208.921 1281.179 1902.254 2127.597 1593.195 2108.400 1445.046 1393.261 715.806 2281.259 1731.682 629.896 1695.542 2162.975 690.674 1091.014 1402.586 1967.254 2301.118 2144.071 1610.489 1999.123 508.393 1843.398 2252.932 2176.220 1821.511 2295.909 326.054 1090.502 2204.729 1113.281 2451.025 498.620 1278.607 460.257 1603.466 1688.812 508.321 1086.616 1724.356 787.303 470.190 2249.965 2557.340 1077.483 2404.727 1036.834 563.247 1103.159 2270.644 1007.773 1423.841 698.989 1289.719 267.380
1780.983 393.754 527.834 806.721 1165.520 1445.440 471.635 1008.392 1006.474 981.651 919.402 917.447 697.044 1583.081 514.490 732.454 1248.482 966.418 1388.765 601.484 1027.726 474.122 778.182 752.154 1036.379 985.223 672.373 856.481 691.380 668.498 1100.408 585.972 692.824 896.028 1538.860 1406.502 1623.298 0.000 1323.544 705.708 446.355 1432.000 1321.944 863.336 934.650 1116.258 671.534 608.447 953.514 299.603 840.386 537.793 529.484 1335.121 1014.805 1064.385 1241.846 520.098 1054.494 1150.582 934.529 1071.390 791.810 1034.665 850.264 673.307 705.316 1301.611 565.935 959.125 882.413 646.066 1029.456 1298.998 635.905 1029.284 1439.360 1184.572 1291.839 371.851 1493.074 437.972 328.672 1633.368 1062.584 1263.218 1089.231 1493.343 1065.204 1263.534 991.818 1138.274 1088.087 1267.828 1086.379 976.837 1113.868 615.276 1311.805 1302.699 1372.860
1385.266 1390.444 1363.776 1237.002 686.852 1052.011 1327.814 1405.383 874.464 1752.641 683.084 505.679 1124.666 1267.987 1511.180 1669.188 517.171 488.446 1073.671 1523.512 1964.459 1330.301 1774.873 960.344 1433.371 1245.535 944.858 1116.794 1628.113 1605.231 643.460 1606.719 957.209 528.202 398.627 186.862 1240.509 1289.949 0.000 1297.562 1269.853 984.558 876.290 1045.738 1871.384 443.675 1111.192 1545.181 1250.890 1236.122 1234.015 1393.972 1311.301 1033.737 1426.248 814.748 926.752 1516.788 1315.778 781.911 521.901 412.932 1788.500 1443.261 1415.286 1606.532 1642.050 909.071 1039.641 1895.859 1819.146 1642.756 1440.898 916.209 920.515 1967.384 334.354 1604.589 899.298 1099.853 1177.980 1005.801 1380.229 1237.650 1082.659 815.776 774.137 1099.914 1402.767 2200.267 446.076 1558.291 530.697 905.271 334.233 1747.828 491.705 1419.884 672.524 125.288 990.071
1269.707 551.339 1006.724 154.032 1225.925 946.421 261.135 1407.373 560.517 1382.177 1020.878 877.574 1103.331 951.804 537.892 1084.901 1201.567 874.083 806.401 334.126 1327.893 268.473 955.659 480.407 1435.360 1355.930 1043.081 1227.188 1091.906 1069.023 1160.813 869.123 1063.531 965.161 1491.944 1391.462 1288.566 714.144 1308.504 0.000 951.804 1501.422 1039.584 1234.043 1051.171 1122.213 395.662 1009.016 1352.495 805.053 1239.367 198.040 242.383 691.909 1413.786 1339.966 786.362 697.574 1426.172 996.115 1003.661 1131.795 777.182 1433.646 1249.245 362.707 1059.709 886.906 1048.612 1183.476 1248.292 823.542 1428.437 964.265 475.152 1133.489 1392.444 1583.552 893.778 465.750 910.710 808.680 749.488 1051.547 419.364 1332.640 576.431 939.006 1464.185 1545.272 995.277 1537.255 1041.172 1016.814 1089.725 1377.363 1066.953 176.059 1157.338 1287.658 1038.128
1856.959 607.414 158.518 1035.766 1026.175 1523.704 700.681 722.962 1200.011 732.441 758.418 976.186 325.975 1641.820 651.800 669.228 1307.221 1025.157 1447.504 818.695 964.499 703.167 829.882 934.074 750.949 822.749 509.899 694.007 605.639 605.045 960.756 606.759 530.350 954.767 1588.473 1398.760 1712.364 447.335 1275.256 934.753 0.000 1269.526 1380.683 700.862 871.423 1174.997 853.455 458.986 652.512 191.160 554.956 766.839 758.529 1407.570 729.375 901.911 1300.585 584.347 836.147 1209.321 993.268 1012.963 856.058 749.235 564.834 817.628 642.089 1380.925 347.588 895.898 819.186 710.315 744.026 1388.063 817.825 967.424 1444.672 899.141 1371.153 600.896 1551.813 275.498 375.787 1692.649 1291.630 1100.744 1147.970 1571.607 779.774 1200.307 1050.557 852.844 1146.826 1332.682 1142.320 727.628 1172.607 838.699 1370.544 1254.410 1461.926
2032.187 1554.298 1314.086 1458.495 328.568 1698.932 1491.668 1005.481 1403.859 1676.149 812.032 1151.415 1048.173 1817.049 1675.034 1707.039 1257.608 1182.145 1622.732 1687.366 2002.311 1494.154 1867.693 1181.416 1033.468 830.774 812.773 702.032 1638.509 1641.909 536.094 1644.490 760.219 1045.862 1318.613 1106.848 1887.592 1430.054 983.344 1526.219 1268.137 0.000 1555.911 630.977 1909.235 1073.078 1275.046 1495.567 879.133 1309.588 1138.202 1557.825 1475.155 1582.798 1330.434 555.045 1475.813 1621.211 901.016 1384.550 1103.251 743.215 1892.923 1086.521 1338.793 1789.279 1679.901 1556.154 1037.925 1933.710 1856.998 1747.179 1345.085 1563.292 1084.369 2005.235 1191.923 1378.486 1546.381 1263.707 1727.041 1004.085 1439.000 1867.878 1543.333 183.797 1323.198 1746.836 988.006 2238.118 1071.678 1462.478 1224.396 1507.910 1027.933 1671.335 1185.404 1635.309 1399.322 962.498 1637.154
592.310 1260.967 1452.703 994.606 1248.703 256.766 1176.735 1898.502 663.954 1906.520 1043.657 567.926 1586.975 481.740 1381.703 1657.324 600.808 518.579 280.529 1335.554 1952.595 1184.074 1645.395 806.829 1926.489 1723.795 1410.946 1595.053 1616.249 1593.367 1183.591 1559.831 1431.396 765.168 677.934 772.870 434.026 1278.084 870.370 1055.166 1371.009 1524.200 0.000 1585.380 1814.179 843.663 972.947 1533.317 1758.659 1224.257 1739.462 1198.692 1146.908 469.452 1912.321 1362.744 382.816 1387.311 1794.037 316.835 728.019 1015.837 1659.023 1932.181 1775.133 1364.135 1630.185 261.312 1474.460 1883.994 1807.282 1513.279 1926.972 109.725 782.270 1896.497 726.533 2082.087 251.539 970.376 391.732 1234.528 1368.365 444.694 840.263 1355.418 540.949 304.669 1881.027 2188.403 708.546 2035.790 650.085 248.079 734.221 1901.707 621.024 1177.487 312.241 902.971 183.588
2072.813 1056.197 748.253 1328.652 387.795 1739.558 993.567 439.648 1444.485 1110.316 737.361 1192.041 482.340 1857.675 1122.831 1141.206 1308.035 1232.572 1663.358 1189.265 1436.478 996.054 1301.860 1222.042 467.635 264.941 246.939 136.199 1072.676 1076.076 564.498 1078.656 194.386 1086.488 1377.841 1166.075 1928.218 864.220 1042.571 1227.639 702.304 631.147 1596.537 0.000 1343.402 1123.505 1146.894 929.734 313.300 743.755 572.368 1059.725 1051.416 1623.424 764.601 419.097 1516.439 1055.378 335.183 1425.176 1143.877 802.443 1327.090 520.688 772.960 1288.660 1114.068 1596.780 472.092 1367.877 1291.165 1181.346 779.252 1603.918 1111.265 1439.402 1242.350 812.653 1587.007 893.782 1767.667 438.251 873.167 1908.504 1583.959 462.365 1363.824 1787.462 422.173 1672.285 1122.104 896.644 1274.823 1548.536 1078.359 1105.502 1235.831 1137.208 1449.749 1021.726 1677.780
2268.921 731.876 861.531 1153.497 1645.288 1920.154 848.261 1262.180 1393.973 622.232 1484.460 1500.182 958.138 1951.167 748.007 341.705 1831.217 1544.640 1780.134 801.793 288.872 836.824 290.180 1250.448 1123.483 1441.862 1129.012 1272.561 446.432 423.550 1676.636 437.240 1149.463 1478.764 2121.595 1989.237 2121.593 946.536 1906.279 1052.484 875.923 1888.639 1838.080 1319.975 0.000 1698.994 1165.497 558.493 1207.302 747.406 1013.179 916.721 916.983 1691.273 880.090 1510.662 1721.221 510.218 1409.374 1666.718 1517.264 1654.125 287.605 1000.497 731.482 700.905 287.444 1799.906 1071.082 144.456 209.272 405.204 869.754 1797.292 1134.199 132.225 2022.095 857.571 1790.133 870.145 1884.443 1001.540 734.260 2025.279 1418.727 1719.857 1480.600 1912.738 1318.992 506.251 1574.554 811.274 1670.822 1766.122 1669.115 617.418 1696.603 907.449 1827.941 1885.434 1871.155
1338.370 1194.804 1268.927 1054.298 776.694 1002.826 1132.173 1435.906 691.592 1722.744 673.073 340.480 1124.379 1085.116 1315.540 1473.547 541.897 409.613 890.800 1327.871 1768.819 1134.660 1579.232 777.858 1463.893 1261.199 948.350 1132.457 1432.473 1409.591 750.508 1411.079 968.800 362.717 720.398 548.316 1180.685 1094.308 446.480 1114.858 1184.318 1052.191 882.830 1113.371 1675.743 0.000 915.551 1349.540 1296.063 1040.481 1276.866 1198.331 1115.661 851.033 1449.725 893.161 743.856 1321.148 1331.441 711.348 317.035 491.921 1592.859 1469.584 1414.999 1423.827 1446.409 858.998 1116.307 1700.218 1623.506 1447.116 1464.376 856.385 724.875 1771.743 576.598 1619.491 849.225 904.212 995.109 1025.804 1184.588 1135.945 899.955 883.409 591.266 1023.404 1418.431 2004.626 232.841 1573.193 460.401 825.214 163.309 1717.930 421.409 1237.179 679.688 425.634 930.247
1351.172 603.282 932.945 336.454 976.219 1002.405 325.905 1413.503 476.224 1386.762 771.173 694.013 1078.900 1056.701 635.566 1129.545 1031.101 703.618 862.385 526.455 1432.837 333.244 1000.302 241.624 1441.490 1261.797 948.947 1133.055 1096.491 1073.609 911.107 914.738 969.398 715.455 1321.479 1220.996 1280.570 672.404 1138.038 398.878 851.027 1251.716 997.057 1139.910 1164.972 935.685 0.000 1013.558 1296.661 704.276 1245.497 392.063 296.078 804.870 1419.916 1090.260 803.471 742.218 1332.039 825.696 753.956 882.089 890.982 1439.776 1255.375 628.369 1110.427 924.664 954.478 1297.277 1287.524 868.186 1434.567 956.270 225.446 1247.290 1221.979 1589.682 931.535 325.283 966.694 714.546 735.487 1107.530 532.334 1082.934 562.851 994.989 1419.028 1659.072 811.245 1543.385 870.706 925.100 905.806 1381.948 896.487 469.546 986.919 1117.193 1030.133
2005.487 593.738 434.936 1083.935 1224.725 1672.232 768.473 837.725 1314.185 502.992 1108.893 1124.714 537.576 1790.348 638.124 357.192 1455.749 1173.685 1596.032 805.019 652.464 757.036 517.846 1082.602 710.353 1021.300 708.450 851.999 226.405 197.973 1256.074 292.156 728.901 1103.295 1746.127 1613.769 1860.892 597.526 1530.811 982.922 460.113 1468.077 1529.211 899.413 559.388 1323.525 1001.983 0.000 786.740 371.840 538.630 836.933 837.195 1556.098 610.738 1090.100 1449.113 484.677 988.812 1357.849 1141.796 1269.267 560.314 630.597 400.806 803.953 330.054 1529.453 650.520 583.863 507.151 417.342 625.388 1536.592 966.353 655.388 1646.627 782.745 1519.681 732.008 1700.341 625.974 388.460 1841.177 1349.165 1299.295 1296.498 1720.135 898.430 888.271 1199.085 736.447 1295.354 1481.210 1293.647 498.178 1321.135 825.024 1519.072 1509.966 1610.454
2246.069 917.627 587.435 1407.823 637.837 1912.814 1092.361 301.658 1617.740 944.113 910.617 1365.296 351.169 2030.930 962.013 980.388 1481.290 1405.828 1836.614 1128.908 1275.659 1080.925 1141.042 1386.140 329.645 434.411 405.842 220.824 906.473 915.258 814.539 917.838 353.288 1259.743 1559.406 1377.957 2101.474 920.795 1254.453 1306.810 612.611 881.188 1769.793 312.524 1182.583 1296.760 1305.520 768.916 0.000 678.555 400.032 1160.822 1161.083 1796.680 592.264 669.139 1689.695 894.560 357.637 1598.431 1317.133 983.896 1166.271 382.698 606.757 1127.841 953.249 1770.035 490.149 1207.058 1130.346 1020.528 606.915 1777.173 1269.891 1278.584 1415.605 674.663 1760.263 1052.408 1940.923 596.877 712.348 2081.759 1673.053 712.407 1537.080 1960.717 284.183 1511.467 1295.360 724.307 1448.078 1721.792 1251.615 939.299 1409.086 1148.912 1623.005 1233.608 1851.036
1707.699 493.338 245.452 886.506 1063.823 1374.444 551.421 782.656 1050.751 797.408 796.066 826.926 417.650 1492.560 537.724 548.211 1157.961 875.897 1298.244 704.619 843.483 553.907 708.865 784.814 810.643 860.397 547.548 731.656 507.136 484.254 998.405 485.742 567.999 805.507 1448.339 1315.981 1563.104 298.075 1233.023 785.493 202.050 1307.175 1231.423 738.511 750.407 1025.737 704.195 381.868 727.778 0.000 614.650 617.579 609.270 1258.310 789.070 939.559 1151.325 470.271 898.911 1060.061 844.008 980.869 741.983 808.929 624.528 703.552 521.073 1231.665 410.353 774.882 698.169 596.239 803.720 1238.803 668.565 846.407 1348.839 958.836 1221.893 451.636 1402.553 313.147 254.771 1543.389 1142.370 1138.393 998.710 1422.347 839.469 1079.290 901.297 912.538 997.566 1183.422 995.859 792.594 1023.347 695.062 1221.284 1212.178 1312.666
2226.715 838.274 508.082 1328.470 894.335 1893.459 1013.008 410.877 1558.720 703.880 891.262 1345.942 332.375 2011.576 882.659 835.705 1461.936 1386.473 1817.259 1049.555 1102.849 1001.571 984.767 1326.518 298.851 690.909 390.895 477.322 666.241 676.618 921.159 751.433 403.246 1240.389 1540.052 1359.163 2082.120 841.441 1235.659 1227.457 533.258 1137.686 1750.439 569.022 1009.773 1277.406 1245.898 540.978 411.982 599.202 0.000 1081.469 1081.730 1777.326 301.523 778.781 1670.341 815.206 614.134 1579.077 1297.778 964.542 1026.728 299.862 366.525 1048.488 775.928 1750.681 463.221 1034.248 957.536 902.136 316.173 1757.819 1210.268 1102.478 1396.251 479.864 1740.908 976.543 1921.568 577.523 632.995 2062.405 1593.700 968.904 1517.725 1941.363 523.753 1338.656 1276.005 433.566 1428.724 1702.437 1232.260 699.067 1389.732 1069.559 1603.650 1214.813 1831.682
1407.058 367.333 855.622 291.485 1258.449 1083.773 85.652 1256.271 620.490 1231.075 1023.871 984.606 952.229 1089.155 386.790 933.800 1321.694 994.211 943.753 177.387 1192.917 84.468 804.557 526.158 1284.258 1180.447 867.598 1051.706 940.804 917.922 1193.337 718.021 888.049 997.685 1612.072 1507.828 1425.917 538.661 1424.870 190.472 776.322 1533.946 1176.935 1058.560 916.196 1217.915 392.015 857.914 1201.393 629.570 1088.265 0.000 143.500 829.261 1262.684 1256.726 923.713 546.473 1250.689 1116.289 1036.186 1164.319 642.206 1282.544 1098.143 272.924 924.734 1024.258 873.129 1048.501 1113.317 672.441 1277.335 1101.617 520.903 998.514 1512.572 1432.451 1031.129 319.716 1048.062 633.197 598.387 1188.898 556.715 1365.165 707.118 1076.357 1313.084 1410.296 1093.476 1386.153 1161.299 1154.165 1188.037 1226.261 1187.080 84.596 1277.512 1404.025 1175.479
1399.502 367.594 849.978 338.269 1175.738 1050.734 77.390 1256.532 524.553 1231.336 942.483 893.532 952.490 1105.031 387.051 934.061 1230.620 903.137 910.714 277.940 1193.179 84.729 804.818 430.221 1284.520 1172.186 859.336 1043.444 941.065 918.183 1110.626 718.282 879.787 914.974 1520.998 1420.516 1392.879 530.400 1337.557 236.955 768.060 1451.235 1143.897 1050.299 916.457 1135.204 286.586 858.176 1201.654 621.309 1088.527 143.548 0.000 853.200 1262.946 1175.338 851.801 546.734 1242.428 1025.215 953.475 1081.608 642.468 1282.805 1098.404 379.854 924.995 972.993 864.867 1048.762 1113.578 672.702 1277.596 1068.578 424.965 998.775 1421.498 1432.712 979.865 292.958 1015.023 624.935 593.482 1155.860 580.663 1282.453 611.181 1043.319 1313.345 1410.558 1010.764 1386.414 1070.225 1082.253 1105.325 1226.523 1096.006 221.031 1186.438 1316.712 1142.441
706.427 1160.155 1484.255 614.902 1280.255 383.141 869.951 1930.054 400.375 1938.072 1075.208 606.956 1618.526 388.524 1159.616 1688.875 907.424 603.465 243.121 955.851 1949.617 877.290 1577.384 686.017 1958.041 1755.347 1442.497 1626.605 1647.801 1624.919 1215.142 1490.848 1462.948 796.720 984.549 1079.485 725.286 1309.636 1037.885 675.462 1402.560 1555.752 476.304 1616.932 1672.896 851.595 791.172 1564.868 1790.211 1255.809 1771.013 818.988 840.124 0.000 1943.873 1394.296 370.762 1319.299 1825.589 607.081 759.571 1093.948 1398.907 1963.732 1806.685 984.432 1661.737 315.765 1506.012 1805.201 1838.834 1445.267 1958.523 400.985 789.262 1755.214 1033.148 2113.639 322.637 977.367 347.430 1266.080 1371.213 488.267 408.992 1386.970 320.996 375.726 1912.579 2166.996 724.659 2067.341 770.553 479.654 819.107 1933.258 796.334 797.784 618.856 1017.040 474.848
2401.345 1012.290 682.098 1502.486 1085.846 2068.090 1187.025 591.660 1732.736 575.201 1065.893 1520.572 523.886 2186.206 1056.676 717.510 1636.567 1561.104 1991.890 1223.571 968.572 1175.588 850.490 1500.534 390.731 882.420 578.356 668.833 545.675 561.171 1112.670 816.038 594.757 1415.019 1714.682 1542.600 2256.750 1015.458 1426.551 1401.473 707.275 1329.197 1925.069 760.533 875.496 1452.036 1419.914 611.389 603.493 773.218 296.522 1255.485 1255.746 1951.956 0.000 960.006 1844.971 989.223 805.645 1753.708 1472.409 1139.173 892.451 267.746 336.808 1222.504 641.651 1925.312 637.238 899.971 823.259 938.909 54.988 1932.450 1384.285 968.201 1570.882 310.503 1915.539 1150.559 2096.199 752.154 807.012 2237.035 1767.716 1160.415 1692.356 2115.993 715.264 1204.380 1450.636 279.170 1603.355 1877.068 1406.891 570.387 1564.363 1243.575 1778.281 1405.706 2006.312
1851.839 1256.866 957.834 1278.147 311.860 1518.584 1194.236 791.358 1223.510 1319.897 516.095 971.066 691.921 1636.700 1332.412 1350.787 1087.060 1011.598 1442.384 1389.934 1646.059 1196.722 1511.441 1001.067 819.345 616.651 466.598 487.909 1282.257 1285.657 297.751 1288.238 414.044 865.513 1151.909 940.144 1707.244 1078.437 816.639 1345.870 916.520 555.211 1375.563 416.854 1552.983 902.530 1094.697 1139.315 665.010 957.972 783.157 1260.394 1196.005 1402.450 975.389 0.000 1295.465 1264.959 686.893 1204.201 922.903 576.511 1536.671 872.398 982.541 1491.847 1323.649 1375.805 683.850 1577.458 1500.746 1390.927 990.040 1382.943 904.020 1648.983 1021.375 1153.731 1366.033 966.275 1546.693 652.468 1082.748 1687.529 1362.985 386.429 1142.850 1566.487 773.883 1881.866 901.130 1107.433 1053.848 1327.561 857.385 1315.083 1014.856 1337.877 1228.774 795.794 1456.806
716.398 1172.472 1412.190 743.363 1208.190 301.312 882.268 1857.989 369.487 1866.007 1003.143 530.951 1546.461 520.379 1191.929 1616.810 688.658 516.942 325.075 1082.818 1912.082 889.607 1578.324 638.122 1885.976 1683.282 1370.432 1554.540 1575.736 1552.854 1143.077 1492.759 1390.883 724.655 839.623 934.672 624.760 1237.571 951.711 803.923 1330.495 1483.687 375.778 1544.867 1721.335 779.509 803.489 1492.803 1718.146 1183.744 1698.948 947.449 852.441 372.086 1871.808 1322.231 0.000 1320.239 1753.524 315.855 687.506 1021.861 1447.346 1891.667 1734.620 1112.892 1589.672 171.891 1433.947 1843.481 1766.769 1446.207 1886.458 300.460 715.198 1803.653 888.335 2041.574 178.762 903.304 430.372 1194.015 1313.508 508.437 587.497 1314.905 246.482 349.215 1840.514 2147.889 652.573 1995.276 684.030 288.095 732.932 1861.193 708.874 926.244 474.982 930.865 374.322
1853.104 305.702 564.418 799.806 1348.175 1517.560 484.345 965.067 1030.056 842.363 1148.126 1108.861 661.025 1597.476 281.285 467.883 1445.949 1118.466 1416.218 439.282 784.145 472.908 338.640 824.274 993.054 1144.749 831.900 975.449 577.130 554.248 1317.593 260.702 852.350 1121.941 1736.327 1632.084 1695.419 520.362 1549.126 698.793 586.474 1591.526 1411.906 1022.862 507.424 1342.171 743.655 483.835 910.189 457.957 797.061 552.805 553.066 1337.582 971.480 1213.549 1320.740 0.000 1112.261 1240.544 1160.441 1288.575 324.463 991.340 806.939 363.815 498.937 1373.732 773.970 639.729 704.545 206.524 986.131 1371.118 708.025 589.742 1636.827 1077.703 1363.959 443.971 1520.527 712.091 308.086 1661.363 1065.036 1422.745 1116.684 1548.822 1021.880 1001.524 1217.731 1031.405 1285.554 1339.948 1312.292 837.549 1311.335 540.895 1401.767 1528.280 1444.981
2282.854 1135.458 805.266 1520.554 658.535 1949.599 1185.469 349.675 1654.525 1161.943 947.402 1402.081 588.054 2067.715 1179.843 1198.218 1518.075 1442.613 1873.399 1346.739 1493.490 1187.955 1358.873 1419.416 513.129 286.601 438.841 241.522 1124.304 1133.088 835.237 1135.669 386.288 1296.528 1596.191 1424.109 2138.259 1055.808 1308.059 1419.541 830.442 901.886 1806.578 333.222 1400.414 1333.545 1338.796 986.747 358.794 896.386 617.862 1251.627 1243.317 1833.465 810.095 689.837 1726.480 1112.390 0.000 1635.216 1353.918 1020.681 1384.102 566.182 824.588 1345.672 1171.080 1806.820 569.799 1424.889 1348.177 1238.358 824.745 1813.958 1303.167 1496.415 1452.390 858.147 1797.048 1085.684 1977.708 630.153 930.179 2118.544 1776.418 733.105 1573.865 1997.502 222.253 1729.298 1332.145 942.138 1484.863 1758.576 1288.400 1157.130 1445.871 1329.110 1659.789 1287.214 1887.821
868.176 1160.510 1352.247 981.608 1148.246 532.632 1097.880 1798.046 619.069 1806.064 943.200 467.470 1486.518 757.606 1281.246 1556.867 484.781 418.123 556.395 1293.578 1852.139 1100.367 1544.939 706.373 1826.033 1623.339 1310.489 1494.597 1515.793 1492.911 1083.134 1459.374 1330.940 664.712 635.746 730.795 710.491 1177.628 828.295 1042.168 1270.552 1423.743 339.349 1484.923 1713.723 743.207 872.490 1432.860 1658.203 1123.801 1639.005 1164.038 1072.600 652.561 1811.865 1262.287 338.660 1286.854 1693.581 0.000 627.563 948.277 1558.566 1831.724 1674.677 1351.137 1529.729 388.803 1374.004 1783.538 1706.826 1412.822 1826.515 386.190 681.814 1796.041 684.458 1981.631 379.031 869.919 667.598 1134.072 1267.908 720.560 827.265 1254.962 518.743 580.535 1780.571 2087.946 608.089 1935.333 534.058 288.529 633.765 1801.250 504.997 1164.489 330.676 831.698 460.053
1207.335 1024.985 1099.108 929.182 822.100 874.080 962.355 1481.312 596.135 1552.925 616.138 272.710 1169.785 992.197 1145.721 1303.728 535.748 334.585 797.880 1158.053 1599.000 964.841 1409.413 639.872 1509.300 1306.605 993.756 1177.864 1262.654 1239.772 770.311 1241.260 1014.207 115.718 821.975 648.476 1062.740 924.489 524.972 996.906 1017.414 1097.597 731.059 1158.777 1505.924 318.808 745.733 1179.722 1341.470 870.662 1322.272 1028.512 945.842 757.946 1495.131 938.568 650.961 1151.329 1376.848 559.698 0.000 537.327 1423.041 1514.991 1421.538 1259.966 1276.590 731.302 1120.865 1530.399 1453.687 1277.297 1509.782 738.440 555.056 1601.925 678.175 1664.898 721.529 734.394 902.189 880.933 1014.770 1043.026 806.868 928.816 498.346 921.984 1463.837 1834.808 207.597 1618.600 454.251 683.058 276.111 1548.112 415.259 1105.995 673.538 504.126 812.302
1528.952 1176.216 1113.037 1080.413 467.429 1195.697 1113.585 1163.752 947.316 1481.612 410.744 596.204 853.637 1340.840 1296.952 1449.910 674.496 599.033 1146.524 1309.283 1745.182 1116.072 1560.644 803.334 1191.739 990.457 677.608 861.715 1408.836 1385.954 401.829 1387.442 698.058 495.232 750.343 538.578 1384.195 1070.671 415.073 1148.137 1019.115 742.926 1019.975 804.106 1652.106 489.965 896.964 1301.031 1009.258 1016.844 992.384 1179.743 1097.073 1106.757 1178.983 573.116 999.579 1302.560 1060.699 892.498 538.571 0.000 1574.271 1198.842 1144.257 1411.197 1422.772 1052.757 798.010 1676.581 1599.869 1428.528 1193.634 1059.895 706.287 1748.106 608.811 1348.749 1042.984 885.625 1250.833 755.062 1160.951 1381.336 1155.679 574.145 846.990 1243.600 1147.689 1980.989 488.565 1302.451 641.284 1015.858 444.820 1476.799 602.292 1257.226 816.210 394.228 1133.757
1992.304 574.926 833.642 876.880 1617.399 1643.536 571.643 1234.291 1117.355 639.750 1417.350 1378.085 930.249 1674.550 501.314 350.584 1715.173 1387.690 1503.517 525.176 564.507 560.207 218.759 1023.023 1141.001 1413.973 1101.123 1244.672 471.122 448.240 1586.816 331.344 1121.574 1391.164 2005.551 1901.308 1964.643 789.586 1818.349 775.867 855.697 1860.750 1681.129 1292.086 287.786 1611.394 888.880 558.715 1179.413 727.181 1030.697 640.104 640.365 1414.655 897.608 1482.773 1444.603 321.902 1381.485 1509.768 1429.665 1557.799 0.000 1018.015 721.031 424.287 296.324 1565.795 1043.193 420.091 484.907 223.861 887.271 1640.342 977.249 370.104 1906.051 875.089 1572.667 713.195 1607.826 981.315 577.310 1748.662 1142.110 1691.968 1203.983 1636.121 1291.103 781.886 1486.955 828.791 1554.778 1609.172 1581.516 634.936 1580.559 630.831 1670.991 1797.504 1714.205
2422.914 1033.859 703.667 1524.055 843.797 2089.659 1208.594 343.614 1754.305 699.614 1087.462 1542.141 542.137 2207.776 1078.245 841.923 1658.136 1582.673 2013.459 1245.140 1092.985 1197.157 974.904 1522.103 142.685 640.371 599.925 426.783 670.088 680.568 1020.499 837.607 571.549 1436.588 1736.251 1564.169 2278.319 1037.027 1445.421 1423.042 728.844 1087.148 1946.638 518.484 999.909 1473.606 1441.483 632.958 383.674 794.787 301.554 1277.054 1277.315 1973.525 271.540 875.099 1866.540 1010.792 563.596 1775.277 1493.978 1160.742 1016.864 0.000 370.475 1244.073 766.065 1946.881 658.807 1024.384 947.672 960.478 286.046 1954.019 1405.854 1092.614 1592.451 348.687 1937.108 1172.128 2117.768 773.723 828.581 2258.604 1789.286 918.366 1713.925 2137.562 473.769 1328.793 1472.205 403.583 1624.924 1898.637 1428.460 694.801 1585.932 1265.145 1799.850 1424.576 2027.881
2259.708 848.579 518.388 1338.776 1086.427 1926.453 1023.314 646.663 1569.026 366.879 1057.688 1378.935 446.240 2044.569 892.965 531.992 1628.362 1427.906 1850.253 1059.861 821.912 1011.877 692.646 1336.823 490.229 883.001 570.151 700.541 330.659 341.036 1117.775 597.067 590.602 1357.516 1706.478 1534.396 2115.113 851.747 1418.346 1237.763 543.564 1329.778 1783.432 761.114 728.836 1443.832 1256.204 401.319 635.990 609.508 356.913 1091.774 1092.036 1810.319 340.521 951.801 1703.334 817.696 837.353 1612.070 1396.017 1130.968 722.819 367.244 0.000 1058.794 494.992 1783.675 559.185 753.311 676.599 712.682 330.185 1790.813 1220.574 821.541 1562.677 460.143 1773.902 986.849 1954.562 658.558 643.301 2095.398 1604.006 1160.997 1550.719 1974.356 746.972 1057.720 1442.431 413.845 1549.575 1735.431 1398.686 362.066 1556.158 1079.865 1770.076 1397.501 1864.675
1577.506 338.354 803.575 461.933 1489.964 1254.221 311.132 1204.224 856.844 1051.180 1255.386 1185.374 900.182 1259.603 255.963 743.880 1509.366 1181.883 1114.201 168.953 975.938 299.695 614.638 762.511 1232.211 1383.906 1071.056 1214.605 853.128 830.246 1424.852 596.360 1091.507 1229.200 1799.743 1699.261 1596.365 673.556 1616.303 360.920 825.631 1765.461 1347.383 1262.019 699.217 1430.013 628.369 805.867 1149.346 697.114 1036.218 264.696 379.854 999.709 1210.637 1452.706 1094.161 363.797 1351.418 1303.914 1267.701 1395.834 425.227 1230.497 1046.096 0.000 707.755 1194.706 1013.127 831.522 896.338 505.012 1225.288 1272.065 757.256 781.535 1700.244 1286.520 1201.577 551.230 1218.510 864.711 539.993 1359.346 727.163 1596.679 884.230 1246.805 1261.036 1193.317 1303.076 1240.222 1348.971 1324.613 1397.525 1046.367 1374.752 215.885 1465.137 1595.458 1345.927
2154.083 720.035 634.648 1158.936 1418.405 1820.828 853.700 1035.297 1399.411 388.176 1257.577 1273.311 731.255 1938.945 736.166 91.511 1604.346 1322.281 1744.628 807.232 436.851 842.263 251.084 1231.199 889.427 1214.979 902.129 1045.678 219.549 196.667 1449.753 337.052 922.580 1251.892 1894.723 1762.366 2009.488 746.210 1679.408 1057.923 649.040 1661.756 1677.807 1093.092 286.476 1472.122 1150.579 331.610 980.419 520.523 779.124 922.160 922.421 1696.711 646.035 1283.779 1597.709 498.378 1182.491 1506.446 1290.393 1427.254 293.044 766.442 497.426 706.343 0.000 1678.050 844.199 323.449 291.538 393.364 635.698 1685.188 1114.950 368.794 1795.223 623.516 1668.277 858.305 1848.937 774.657 537.144 1989.774 1424.166 1492.974 1445.094 1868.732 1092.109 672.659 1347.682 577.218 1443.951 1629.806 1442.243 383.363 1469.732 912.887 1667.669 1658.562 1759.050
596.856 1222.189 1464.272 846.273 1260.272 236.144 1003.623 1910.071 490.842 1918.090 1055.226 559.245 1598.544 461.118 1313.284 1668.893 644.007 530.148 259.907 1187.221 1964.164 1010.962 1606.618 768.052 1938.059 1735.364 1422.515 1606.623 1627.818 1604.936 1195.160 1521.053 1442.966 776.738 721.133 816.069 505.218 1278.719 913.569 906.832 1382.578 1535.769 256.236 1596.949 1775.401 855.232 924.844 1544.886 1770.229 1235.827 1751.031 1050.359 973.796 315.817 1923.890 1374.313 173.563 1348.533 1805.607 343.664 739.589 1059.036 1568.700 1943.750 1786.702 1215.802 1641.755 0.000 1486.029 1895.564 1818.851 1474.501 1938.541 180.917 743.492 1857.720 769.732 2093.657 9.773 931.598 371.111 1246.097 1341.802 443.269 691.929 1366.987 367.837 284.047 1892.596 2199.972 720.115 2047.359 693.284 216.237 745.790 1913.276 664.223 1029.154 355.440 943.724 254.780
1965.404 790.588 426.500 1143.657 794.900 1632.148 808.572 631.455 1308.455 871.102 709.612 1084.631 182.347 1750.265 834.974 853.349 1316.080 1133.602 1555.948 1001.869 1148.620 811.058 1014.003 1042.519 659.443 591.474 278.625 431.336 788.530 788.219 731.160 790.799 299.076 1063.212 1380.929 1169.164 1820.809 565.859 1045.660 1042.644 347.878 1038.252 1489.128 469.587 1055.545 1131.550 961.899 641.877 483.677 415.054 458.683 874.730 866.421 1516.015 631.542 660.274 1409.030 767.521 568.149 1317.766 1101.713 805.531 1039.232 651.402 558.754 1000.802 826.211 1489.370 0.000 1080.020 1003.307 893.489 646.193 1496.508 926.270 1151.545 1250.395 801.308 1479.597 708.787 1660.257 253.256 585.310 1801.094 1399.521 869.470 1256.414 1680.052 655.139 1384.428 1130.150 755.011 1255.271 1441.126 1086.405 866.288 1243.876 952.213 1457.795 1024.814 1570.371
2366.417 829.372 887.470 1250.993 1671.227 2017.650 945.757 1288.119 1491.469 648.171 1510.399 1526.121 984.077 2048.663 845.503 399.761 1857.157 1575.092 1877.630 899.289 264.742 934.320 387.676 1347.944 1149.422 1467.801 1154.951 1298.500 472.371 449.489 1702.575 534.736 1175.402 1504.703 2147.534 2015.176 2219.089 999.032 1932.218 1149.980 901.862 1914.578 1930.618 1345.914 112.283 1724.933 1262.993 584.432 1233.241 773.345 1039.118 1014.217 1014.479 1788.769 906.029 1536.601 1818.716 607.714 1435.313 1759.257 1543.203 1680.064 385.101 1026.437 757.421 798.401 323.903 1897.402 1097.021 0.000 106.373 502.700 895.693 1894.788 1231.695 229.721 2048.034 883.510 1887.629 967.641 1981.939 1027.479 789.966 2122.775 1516.223 1745.796 1578.096 2010.234 1344.931 486.606 1600.493 837.213 1696.761 1863.618 1695.054 643.357 1722.542 1004.945 1920.480 1911.373 1968.651
2325.037 912.702 805.612 1334.323 1589.369 1991.782 1029.087 1206.261 1574.798 566.313 1428.541 1444.264 902.219 2109.898 928.833 398.642 1775.299 1493.235 1915.581 982.619 190.681 1017.650 471.006 1402.152 1067.565 1385.943 1073.094 1216.643 390.513 367.631 1620.718 594.165 1093.545 1422.845 2065.677 1933.319 2180.442 917.175 1850.361 1233.310 820.004 1832.721 1848.761 1264.056 195.613 1643.075 1321.532 502.575 1151.383 691.488 957.261 1097.547 1097.809 1872.099 824.172 1454.743 1768.663 691.044 1353.456 1677.399 1461.346 1598.207 468.431 944.579 675.563 881.731 322.783 1849.003 1015.164 106.930 0.000 586.030 813.835 1856.141 1285.903 313.051 1966.177 801.653 1839.231 1050.971 2019.891 945.622 708.108 2160.727 1599.553 1663.939 1616.048 2039.685 1263.074 431.906 1518.635 755.355 1614.904 1800.759 1613.196 561.500 1640.685 1088.275 1838.622 1829.516 1930.004
1978.916 431.514 690.230 925.618 1473.987 1643.372 610.157 1090.879 1155.868 738.016 1273.938 1234.673 786.837 1723.288 447.645 363.535 1571.761 1244.278 1542.030 580.307 679.798 598.720 234.293 950.086 1074.902 1270.561 957.711 1101.260 472.783 449.901 1443.404 187.932 978.162 1247.753 1862.139 1757.896 1821.231 646.174 1674.937 824.605 712.286 1717.338 1537.717 1148.674 403.077 1467.983 869.467 417.577 1036.001 583.769 903.179 678.617 678.878 1463.394 938.492 1339.361 1446.552 209.856 1238.073 1366.356 1286.253 1414.387 227.036 958.352 713.174 504.839 394.590 1499.543 899.782 535.382 600.197 0.000 953.143 1496.930 833.837 485.395 1762.639 973.355 1489.771 569.783 1646.339 837.903 433.898 1787.175 1190.848 1548.557 1242.496 1674.634 1147.691 897.177 1343.543 927.058 1411.366 1465.760 1438.104 733.202 1437.147 666.707 1527.579 1654.092 1570.793
2415.871 1026.816 696.624 1517.012 1100.371 2082.616 1201.550 606.186 1747.262 564.865 1080.419 1535.098 538.411 2200.732 1071.201 707.174 1651.092 1575.630 2006.416 1238.097 958.235 1190.113 840.154 1515.060 405.257 896.945 592.882 683.358 535.338 550.835 1127.196 830.564 609.283 1429.545 1729.208 1557.126 2271.276 1029.983 1441.076 1415.999 721.800 1343.723 1939.595 775.059 865.160 1466.562 1434.440 625.914 618.018 787.744 311.048 1270.011 1270.272 1966.482 54.988 974.531 1859.497 1003.748 820.171 1768.233 1486.935 1153.698 882.114 282.271 326.472 1237.030 631.315 1939.837 651.763 889.635 812.922 953.434 0.000 1946.975 1398.810 957.864 1585.407 301.671 1930.065 1165.085 2110.725 766.679 821.537 2251.561 1782.242 1174.941 1706.882 2130.519 729.789 1194.043 1465.162 268.834 1617.880 1891.593 1421.417 560.051 1578.888 1258.101 1792.806 1420.231 2020.838
498.183 1243.144 1495.587 914.906 1291.587 177.065 1097.034 1941.386 584.254 1949.404 1086.540 580.201 1629.858 402.039 1363.880 1700.207 675.322 561.463 200.828 1255.854 1995.479 1104.373 1627.573 789.007 1969.373 1766.679 1453.829 1637.937 1659.133 1636.251 1226.474 1542.008 1474.280 808.052 752.447 847.383 324.300 1299.675 944.883 975.465 1413.892 1567.084 110.299 1628.264 1796.357 882.867 955.125 1576.200 1801.543 1267.141 1782.345 1118.992 1067.207 389.752 1955.205 1405.628 303.842 1369.488 1836.921 364.620 764.960 1090.351 1641.200 1975.064 1818.017 1284.435 1673.069 182.338 1517.344 1926.878 1850.166 1495.456 1969.855 0.000 764.448 1878.675 801.046 2124.971 172.566 952.553 312.032 1277.412 1362.758 351.719 760.562 1398.302 461.249 224.969 1923.911 2231.286 751.429 2078.673 724.599 237.193 777.105 1944.590 695.537 1097.787 386.754 975.038 73.862
1246.989 578.205 895.276 408.305 784.952 911.445 454.792 1375.834 469.556 1349.093 579.906 502.746 1041.231 1050.034 698.941 1091.876 839.834 512.351 855.718 655.343 1395.168 462.131 962.633 158.588 1403.821 1224.128 911.278 1095.386 1058.822 1035.940 719.840 877.069 931.729 524.188 1130.212 1029.729 1089.304 634.735 946.771 476.029 813.358 1060.449 805.790 1102.241 1131.417 744.418 224.856 975.890 1258.992 666.607 1207.828 520.950 424.965 818.394 1382.247 898.993 714.625 704.549 1294.370 634.429 562.689 690.822 976.261 1402.107 1217.706 757.256 1072.758 767.616 916.809 1263.723 1249.855 830.517 1396.898 765.003 0.000 1213.735 1030.712 1552.014 757.844 287.614 960.027 676.877 697.818 1099.373 545.858 891.667 556.184 959.348 1381.359 1625.518 619.978 1505.716 679.439 733.833 714.539 1344.280 705.220 598.433 795.652 925.926 838.866
2351.722 814.677 958.457 1236.298 1742.214 2002.955 931.062 1359.106 1476.773 713.671 1581.387 1597.109 1055.064 2033.968 830.808 424.505 1928.144 1627.441 1862.935 884.594 407.079 919.625 372.981 1333.249 1214.922 1538.788 1225.939 1369.488 543.359 520.476 1773.563 520.041 1246.390 1575.690 2218.522 2086.164 2204.393 1029.337 2003.206 1135.285 972.850 1985.566 1920.880 1416.902 130.358 1795.920 1248.298 655.420 1304.228 844.333 1104.618 999.522 999.783 1774.073 971.529 1607.588 1804.021 593.019 1506.301 1749.519 1614.191 1751.052 370.406 1091.936 822.921 783.705 370.245 1882.706 1168.009 262.663 327.479 488.005 961.192 1880.093 1217.000 0.000 2119.022 949.010 1872.934 952.946 1967.244 1098.467 817.061 2108.080 1501.528 1816.784 1563.401 1995.539 1415.919 624.458 1671.480 902.712 1767.749 1848.923 1766.042 708.857 1793.530 990.250 1910.742 1982.361 1953.956
1231.745 1527.922 1539.570 1366.527 932.485 898.490 1465.291 1591.697 1003.821 1908.145 837.277 643.156 1280.170 1123.464 1648.658 1806.665 286.598 555.632 922.253 1660.989 2101.937 1467.778 1912.350 1090.033 1619.684 1416.990 1104.141 1288.248 1765.591 1742.709 906.299 1744.197 1124.591 690.325 223.383 232.639 1086.988 1427.426 330.139 1427.087 1445.648 1207.982 722.769 1269.162 2008.861 597.573 1248.670 1682.658 1451.854 1373.599 1432.657 1531.449 1448.779 1019.307 1605.516 1048.952 877.054 1654.266 1487.232 697.136 684.024 647.712 1925.977 1625.375 1570.790 1736.056 1779.527 755.550 1272.098 2033.336 1956.624 1780.234 1620.167 762.688 1057.993 2104.862 0.000 1775.282 745.777 1237.331 1033.457 1181.595 1517.707 1084.129 1212.184 1039.200 903.495 946.393 1574.222 2337.745 583.454 1728.984 428.837 781.135 488.131 1903.332 399.775 1549.408 519.003 395.795 836.550
2575.730 1186.675 856.483 1676.872 1156.002 2242.475 1361.410 655.820 1907.121 562.302 1240.278 1694.958 698.678 2360.592 1231.061 702.812 1810.952 1735.489 2166.275 1391.941 953.874 1349.973 835.792 1674.919 454.891 952.577 752.741 738.989 632.505 624.271 1296.370 901.098 773.192 1589.404 1889.067 1716.985 2431.135 1189.843 1600.936 1575.858 881.660 1399.354 2099.454 830.690 860.798 1626.422 1594.299 790.057 695.880 947.603 480.222 1429.870 1430.132 2126.341 315.286 1134.391 2019.356 1083.086 875.802 1928.093 1646.794 1313.558 877.753 350.897 467.327 1291.052 626.953 2099.697 811.623 885.273 808.561 978.073 306.454 2106.835 1558.670 953.503 1745.267 0.000 2089.924 1324.945 2270.584 926.539 981.397 2411.421 1942.102 1230.572 1866.741 2290.379 785.974 1189.583 1625.021 198.982 1777.740 2051.453 1581.276 557.489 1738.748 1417.961 1952.666 1580.091 2180.697
587.083 1212.417 1454.500 853.433 1250.500 245.917 1010.783 1900.299 498.003 1908.317 1045.453 549.473 1588.771 470.891 1320.444 1659.120 634.234 520.376 269.680 1194.381 1954.392 1018.122 1596.845 758.279 1928.286 1725.592 1412.742 1596.850 1618.046 1595.164 1185.387 1511.280 1433.193 766.965 711.360 806.296 495.445 1268.947 903.796 913.993 1372.805 1525.997 246.463 1587.176 1765.629 845.460 924.397 1535.113 1760.456 1226.054 1741.258 1057.519 980.956 322.977 1914.118 1364.541 180.724 1338.760 1795.834 333.892 729.816 1049.264 1575.861 1933.977 1776.930 1222.962 1631.982 9.773 1476.257 1885.791 1809.079 1464.729 1928.768 171.145 733.720 1847.947 759.959 2083.884 0.000 921.825 380.883 1236.325 1332.030 439.467 699.090 1357.215 374.998 293.820 1882.824 2190.199 710.342 2037.586 683.512 206.465 736.018 1903.503 654.450 1036.314 345.667 933.951 245.007
1434.777 316.236 692.345 526.895 964.378 1099.234 253.606 1153.350 671.885 1128.154 729.800 690.535 831.656 1243.674 436.972 829.907 1027.623 700.140 1049.358 449.304 1146.170 256.092 700.664 405.948 1181.337 1014.552 701.703 885.811 837.883 815.001 899.266 615.100 722.154 703.614 1318.001 1213.757 1277.092 372.766 1130.799 465.266 610.427 1239.875 993.579 892.666 869.448 923.844 325.328 754.993 1049.417 463.675 985.344 319.764 295.960 1009.591 1159.763 962.655 902.414 442.580 1084.795 822.218 742.115 870.248 714.292 1179.623 995.222 551.217 851.819 955.405 707.234 1001.754 1028.916 568.548 1174.414 952.792 289.699 951.766 1218.501 1329.529 945.633 0.000 1153.667 467.302 435.849 1287.162 763.830 1071.094 749.824 1147.137 1171.784 1363.549 799.405 1283.232 867.228 921.622 893.966 1123.340 893.009 397.247 983.441 1109.954 1026.654
414.128 1335.280 1661.605 862.948 1457.604 250.561 1045.076 2107.404 532.296 2115.422 1252.558 784.306 1795.876 104.599 1354.737 1866.225 912.978 780.815 133.984 1203.896 2160.865 1052.415 1772.505 817.938 2135.391 1932.697 1619.847 1803.955 1825.151 1802.269 1392.492 1685.969 1640.298 974.070 990.103 1085.039 458.152 1486.986 1182.539 923.507 1579.910 1733.102 390.824 1794.281 1884.144 1028.945 966.298 1742.218 1967.561 1433.159 1948.363 1067.034 1015.249 337.794 2121.223 1571.645 431.971 1514.420 2002.939 621.445 936.921 1271.297 1610.154 2141.082 1984.035 1232.477 1839.087 368.862 1683.362 2016.449 2016.184 1640.388 2135.873 315.505 961.951 1966.462 1038.702 2290.989 376.125 1154.717 0.000 1443.430 1561.169 202.090 708.604 1564.320 409.291 237.209 2089.929 2378.244 902.009 2244.691 947.903 494.017 996.457 2110.608 933.194 1045.829 624.410 1194.390 269.355
1724.359 630.158 370.187 902.613 762.888 1391.104 567.527 734.169 1067.411 939.096 528.033 843.586 376.566 1509.220 750.894 799.184 1174.621 892.557 1314.904 763.225 1094.456 570.014 959.839 801.475 762.156 559.462 246.613 430.721 758.110 735.228 697.470 736.716 267.063 822.168 1329.607 1135.473 1579.764 438.181 1011.969 801.600 276.265 1006.240 1248.083 437.575 1001.380 1028.947 720.855 670.655 594.326 317.716 579.764 633.685 625.376 1274.970 752.623 638.624 1167.985 721.244 629.704 1076.721 860.668 754.097 992.956 772.483 657.759 865.139 772.046 1248.326 252.144 1025.855 949.143 847.212 767.274 1255.464 685.225 1097.381 1185.806 922.390 1238.553 467.743 1419.213 0.000 510.226 1560.049 1158.476 837.458 1015.370 1439.007 716.694 1330.264 917.958 876.092 1014.226 1200.082 986.251 934.282 1040.007 711.168 1237.945 991.124 1329.326
1842.862 295.460 348.593 822.057 1192.827 1507.318 506.595 809.719 1052.307 784.523 994.637 1010.458 499.763 1619.727 373.424 535.326 1341.494 1059.429 1438.468 540.319 830.598 495.158 566.878 814.032 837.706 989.401 676.552 820.101 494.252 471.370 1193.419 345.450 697.002 989.040 1631.871 1499.513 1685.176 332.164 1416.555 721.043 377.807 1436.179 1401.663 867.514 735.661 1209.270 733.412 411.362 754.841 249.290 641.713 575.055 575.317 1359.832 816.133 1058.201 1310.498 308.793 956.913 1230.302 1027.540 1164.401 580.505 835.992 651.591 539.252 508.188 1363.489 612.708 761.997 685.285 434.761 830.783 1360.876 697.783 817.979 1532.371 985.899 1353.717 433.729 1542.777 511.718 0.000 1683.613 1087.287 1267.397 1138.934 1555.221 866.532 1066.406 1084.830 939.601 1181.098 1329.706 1179.391 779.709 1206.879 563.146 1391.525 1395.710 1434.739
572.295 1476.117 1779.994 1003.784 1575.994 272.990 1185.913 2225.794 673.132 2233.812 1370.948 883.777 1914.266 292.098 1495.574 1984.615 959.729 845.870 274.820 1344.732 2279.886 1193.252 1913.341 958.774 2253.781 2051.087 1738.237 1922.345 1943.540 1920.658 1510.882 1826.805 1758.688 1092.460 1036.855 1131.791 508.461 1603.251 1229.291 1064.344 1698.300 1851.491 443.268 1912.671 2024.980 1169.781 1107.134 1860.608 2085.951 1551.549 2066.753 1207.870 1156.086 478.630 2239.612 1690.035 506.227 1655.257 2121.329 668.196 1055.311 1374.758 1750.990 2259.472 2102.424 1373.313 1957.477 432.649 1801.751 2157.285 2134.573 1781.225 2254.263 350.458 1068.024 2107.298 1085.454 2409.379 422.877 1256.130 202.090 1561.819 1666.334 0.000 849.441 1682.709 550.127 259.638 2208.318 2515.694 1035.837 2363.081 1009.006 540.769 1061.512 2228.998 979.945 1186.665 671.162 1259.446 291.784
1087.075 949.696 1414.390 400.844 1278.441 766.376 659.492 1815.039 360.765 1789.843 1073.395 690.892 1510.997 771.759 945.558 1492.568 1014.884 687.401 626.356 741.792 1735.559 666.831 1363.325 503.653 1843.026 1751.945 1439.096 1623.204 1499.572 1476.690 1213.329 1276.789 1459.546 872.296 1305.262 1204.779 1108.521 1112.502 1121.821 461.403 1341.176 1553.939 859.539 1615.118 1458.837 935.531 580.714 1416.682 1760.161 1194.424 1647.033 604.930 629.665 413.475 1821.452 1392.482 606.673 1105.240 1822.187 809.432 843.507 1177.883 1184.848 1841.312 1656.911 770.373 1467.375 707.218 1444.627 1591.143 1655.958 1231.208 1836.103 784.220 594.860 1541.155 1205.762 1991.219 714.089 812.832 730.665 1204.695 1157.154 871.502 0.000 1385.157 376.679 758.960 1871.851 1952.938 808.595 1944.921 854.489 837.125 903.043 1785.029 880.270 583.725 970.655 1100.976 858.083
1863.406 1385.516 1145.305 1289.713 159.786 1530.151 1322.886 836.699 1235.077 1507.367 643.250 982.633 879.391 1648.267 1506.252 1538.257 1088.826 1013.364 1453.950 1518.584 1833.529 1325.372 1698.912 1012.634 864.687 661.992 643.991 533.251 1469.727 1473.127 367.313 1475.708 591.437 877.080 1149.831 938.066 1718.811 1261.272 814.562 1357.437 1099.356 183.797 1387.130 462.195 1740.453 904.296 1106.264 1326.786 710.351 1140.807 969.420 1389.044 1306.373 1414.017 1161.652 386.263 1307.032 1452.429 732.235 1215.768 934.469 574.433 1724.141 917.739 1170.011 1620.497 1511.119 1387.372 869.144 1764.928 1688.216 1578.397 1176.303 1394.510 915.587 1836.454 1023.141 1209.704 1377.599 1094.925 1558.259 835.303 1270.218 1699.096 1374.551 0.000 1154.417 1578.054 819.224 2069.337 902.896 1293.696 1055.614 1339.128 859.151 1502.553 1016.622 1466.527 1230.541 793.717 1468.373
840.560 925.990 1252.314 508.307 1048.314 491.792 635.786 1698.113 123.005 1706.131 843.268 375.016 1386.586 546.089 945.447 1456.935 699.008 371.524 351.772 836.336 1751.574 643.125 1363.214 408.647 1726.101 1523.406 1210.557 1394.665 1415.860 1392.978 983.202 1276.678 1231.007 564.779 989.385 888.903 833.937 1077.695 805.945 568.867 1170.620 1323.811 584.955 1384.991 1474.853 619.654 557.007 1332.928 1558.270 1023.868 1539.073 701.944 605.959 316.785 1711.932 1162.355 292.859 1105.130 1593.648 493.556 527.631 862.007 1200.863 1731.792 1574.744 877.837 1429.796 414.051 1274.071 1607.158 1606.893 1231.098 1726.583 509.637 552.661 1557.171 889.885 1881.698 420.923 745.427 456.082 1034.139 1151.878 596.918 345.028 1155.029 0.000 484.377 1680.638 1968.953 492.718 1835.401 538.613 523.311 587.166 1701.318 564.394 691.189 654.779 785.100 583.499
542.260 1362.756 1646.809 890.423 1442.809 90.071 1072.552 2092.608 559.771 2100.626 1237.763 750.592 1781.081 324.605 1382.213 1851.430 826.544 712.685 152.736 1231.371 2146.701 1079.891 1797.964 845.413 2120.596 1917.901 1605.052 1789.160 1810.355 1787.473 1377.697 1712.399 1625.503 959.274 903.670 998.606 474.318 1470.066 1096.106 950.983 1565.115 1718.306 304.390 1779.486 1911.619 1037.769 993.773 1727.423 1952.766 1418.364 1933.568 1094.509 1042.725 365.269 2106.427 1556.850 347.500 1539.880 1988.144 535.011 922.126 1241.573 1637.629 2126.287 1969.239 1259.952 1824.292 282.429 1668.566 2043.924 2001.388 1665.848 2121.078 229.072 934.839 1993.937 952.269 2276.193 289.692 1122.944 234.597 1428.634 1533.149 259.638 736.080 1549.524 436.766 0.000 2075.133 2382.509 902.652 2229.896 875.821 407.584 928.327 2095.813 846.760 1073.304 537.976 1126.261 223.880
2357.685 1031.291 701.099 1521.488 733.366 2024.430 1206.026 238.049 1729.356 1057.777 1022.233 1476.912 510.121 2142.546 1075.677 1094.052 1592.906 1517.443 1948.229 1242.572 1389.324 1194.589 1254.706 1494.247 406.775 382.839 513.672 316.353 1020.138 1028.922 910.068 1031.503 461.118 1371.359 1671.022 1498.940 2213.090 1034.459 1382.890 1420.475 726.276 976.717 1881.409 408.053 1296.248 1408.376 1413.627 882.580 273.243 792.220 513.696 1274.486 1274.748 1908.296 705.929 764.668 1801.311 1008.224 223.988 1710.047 1428.748 1095.512 1279.936 459.827 720.422 1241.506 1066.914 1881.651 643.020 1320.723 1244.011 1134.192 720.579 1888.789 1377.998 1392.248 1527.221 751.792 1871.878 1160.515 2052.538 704.984 826.013 2193.375 1786.718 807.935 1648.696 2072.333 0.000 1625.131 1406.975 837.972 1559.694 1833.407 1363.230 1052.964 1520.702 1262.577 1734.620 1362.045 1962.652
2654.506 1192.081 1135.118 1613.702 1918.875 2321.251 1308.466 1535.767 1854.177 896.081 1758.047 1773.733 1231.725 2411.372 1208.212 728.410 2104.768 1822.704 2240.339 1261.998 231.388 1297.029 750.385 1710.653 1397.332 1715.449 1402.600 1546.149 720.281 697.399 1950.224 897.445 1423.051 1752.314 2395.146 2262.788 2509.911 1246.680 2179.830 1512.689 1149.510 2162.227 2178.230 1593.562 474.992 1972.544 1625.702 832.081 1480.889 1020.994 1287.028 1376.926 1377.188 2151.478 1153.939 1784.249 2098.132 970.423 1682.962 2006.868 1790.815 1927.676 747.810 1274.347 1005.331 1161.110 652.551 2178.472 1344.670 432.079 399.572 865.409 1143.603 2185.610 1594.404 592.430 2295.646 1131.421 2168.700 1330.350 2344.648 1275.128 1037.614 2485.484 1878.932 1993.445 1940.805 2369.154 1592.580 0.000 1848.104 1085.123 1944.373 2130.229 1942.666 891.267 1970.154 1367.654 2168.091 2158.985 2259.473
1226.991 1083.424 1157.547 942.918 776.121 891.447 1020.794 1435.333 580.213 1611.364 671.962 229.100 1123.806 973.737 1204.160 1362.168 400.892 283.452 779.420 1216.492 1657.439 1023.280 1467.852 666.478 1463.320 1260.626 947.777 1131.884 1321.093 1298.211 749.935 1299.699 968.227 314.414 688.884 527.698 1069.306 982.928 445.586 1003.478 1075.853 1051.618 748.399 1112.798 1564.363 248.995 804.172 1238.161 1295.490 929.101 1276.293 1086.952 1004.281 739.653 1449.152 892.588 632.476 1209.768 1330.868 576.917 213.803 491.348 1481.480 1469.011 1414.426 1312.448 1335.029 747.618 1115.734 1588.838 1512.126 1335.736 1463.803 745.005 613.495 1660.364 575.704 1618.918 737.846 792.833 883.729 939.372 1073.209 1024.565 788.575 882.836 479.886 912.024 1417.858 1893.247 0.000 1572.620 319.395 700.277 219.117 1606.551 280.403 1125.800 538.682 424.740 818.868
2524.501 1135.445 805.253 1625.642 1217.787 2191.246 1310.180 724.130 1855.892 511.072 1189.048 1643.728 647.448 2309.362 1179.831 651.582 1759.722 1684.259 2115.045 1340.711 902.644 1298.743 784.563 1623.689 523.201 1014.361 701.511 801.303 581.276 573.041 1245.141 849.868 721.962 1538.175 1837.838 1665.756 2379.906 1138.613 1549.706 1524.629 830.430 1461.138 2048.225 892.474 809.568 1575.192 1543.070 738.827 735.963 896.374 428.993 1378.640 1378.902 2075.112 279.809 1083.161 1968.127 1031.857 938.116 1876.863 1595.564 1262.328 826.523 400.216 416.097 1239.822 575.724 2048.467 760.393 834.043 757.331 926.843 269.472 2055.605 1507.440 902.273 1694.037 194.859 2038.694 1273.715 2219.354 875.309 930.167 2360.191 1890.872 1292.357 1815.512 2239.149 847.734 1094.837 1573.791 0.000 1726.510 2000.223 1530.046 506.259 1687.518 1366.731 1901.436 1528.861 2129.468
1182.485 1194.749 1268.872 1032.296 929.885 849.230 1132.119 1589.097 669.590 1722.690 834.678 309.984 1277.570 1063.114 1315.485 1473.493 229.560 221.401 868.798 1327.817 1768.764 1134.606 1579.178 755.802 1617.085 1414.390 1101.541 1285.649 1432.418 1409.536 903.699 1411.024 1121.992 541.853 519.937 466.774 1037.728 1094.254 549.378 1092.856 1187.178 1205.382 670.603 1266.562 1675.689 440.042 915.497 1349.486 1449.255 1040.427 1430.057 1198.277 1115.606 829.031 1602.916 1046.353 695.067 1321.093 1484.633 544.459 441.242 645.112 1592.805 1622.776 1568.190 1401.825 1446.355 706.290 1269.499 1700.164 1623.451 1447.061 1617.567 713.428 724.820 1771.689 420.438 1772.683 696.517 904.158 973.107 1050.697 1184.534 1034.869 877.953 1036.601 569.264 897.133 1571.622 2004.572 303.451 1726.385 0.000 629.483 330.600 1717.876 94.946 1215.177 367.351 528.533 787.290
716.870 1212.651 1404.387 975.891 1200.387 381.326 1114.796 1850.187 602.015 1858.205 995.341 519.611 1538.659 606.300 1333.387 1609.008 589.187 470.263 405.089 1315.346 1904.279 1122.135 1597.080 758.514 1878.174 1675.480 1362.630 1546.738 1567.933 1545.051 1135.275 1511.515 1383.081 716.853 694.614 789.550 559.185 1229.769 887.050 1036.450 1322.693 1475.884 246.642 1537.064 1765.863 795.348 924.631 1485.001 1710.344 1175.942 1691.146 1179.977 1084.969 501.255 1864.005 1314.428 286.903 1338.995 1745.722 268.829 679.704 1000.418 1610.707 1883.865 1726.817 1345.420 1581.870 237.498 1426.144 1835.679 1758.966 1464.963 1878.656 234.884 733.954 1848.182 743.213 2033.772 227.725 922.060 516.292 1186.212 1320.049 569.254 820.025 1307.102 479.010 429.229 1832.711 2140.087 660.230 1987.474 637.352 0.000 685.905 1853.391 609.403 1158.772 300.619 883.839 308.747
1253.426 1177.263 1234.873 1036.758 716.846 920.171 1114.633 1376.058 674.052 1692.506 621.638 322.940 1064.530 1067.576 1297.999 1456.007 431.502 308.009 873.259 1310.331 1751.279 1117.120 1561.692 760.318 1404.045 1201.351 888.501 1072.609 1414.933 1392.050 690.659 1393.539 908.952 319.349 610.258 438.175 1108.669 1076.768 336.339 1097.318 1140.951 992.343 772.956 1053.523 1658.203 159.609 898.011 1332.000 1236.215 1022.941 1217.017 1180.791 1098.120 833.493 1389.877 833.313 726.315 1303.607 1271.593 601.474 273.851 432.073 1575.319 1409.736 1355.151 1406.287 1428.869 777.230 1056.459 1682.678 1605.966 1429.575 1404.527 784.369 707.334 1754.203 466.457 1559.643 767.458 886.672 977.569 965.956 1167.048 1105.810 882.415 823.561 573.726 968.074 1358.583 1987.086 215.301 1513.345 350.005 724.834 0.000 1687.693 311.013 1219.639 569.293 315.493 858.231
2385.101 973.440 701.120 1463.636 1420.597 2051.846 1148.175 980.834 1693.886 24.368 1391.859 1504.329 754.760 2169.963 1017.826 455.933 1835.364 1553.299 1975.646 1145.061 706.995 1136.738 588.913 1462.217 816.570 1217.171 904.322 1034.711 325.713 341.210 1451.946 654.218 924.773 1482.910 2040.648 1868.566 2240.506 977.228 1752.517 1362.623 726.297 1663.949 1908.825 1095.285 613.919 1703.140 1381.597 498.609 970.160 751.541 691.084 1216.635 1216.896 1935.712 573.177 1285.971 1828.728 836.207 1171.524 1737.464 1521.411 1465.138 630.873 693.584 362.488 1044.172 380.074 1909.068 867.705 638.394 561.681 731.193 562.841 1916.206 1345.968 706.623 1896.848 554.007 1899.295 1111.709 2079.955 935.692 768.162 2220.792 1728.866 1495.167 1676.112 2099.750 1081.142 942.802 1578.700 507.709 1674.969 1860.824 1673.261 0.000 1700.750 1204.725 1898.687 1731.671 1990.068
1164.331 1211.956 1286.079 1049.503 905.579 831.076 1149.326 1564.791 686.797 1739.897 810.371 327.191 1253.263 1056.050 1332.692 1490.700 211.406 238.609 854.839 1345.024 1785.972 1151.813 1596.385 773.009 1592.778 1390.084 1077.234 1261.342 1449.625 1426.743 879.392 1428.231 1097.685 517.546 501.783 448.620 1019.574 1111.461 525.072 1110.063 1204.385 1181.076 652.449 1242.256 1692.896 415.735 932.704 1366.693 1424.948 1057.634 1405.751 1215.484 1132.813 846.238 1578.610 1022.046 709.722 1338.300 1460.326 526.305 416.935 620.806 1610.012 1598.469 1543.884 1419.032 1463.562 688.136 1245.192 1717.371 1640.658 1464.268 1593.260 695.274 742.027 1788.896 402.283 1748.376 678.363 921.365 966.042 1067.904 1201.741 1016.715 895.160 1012.294 586.471 878.979 1547.316 2021.779 279.145 1702.078 111.813 611.329 306.293 1735.083 0.000 1232.384 349.196 504.226 769.136
1388.641 395.696 853.512 273.068 1330.675 1065.355 157.877 1254.161 679.450 1228.965 1096.096 996.508 950.119 1070.737 384.680 931.690 1320.500 993.017 925.335 174.740 1182.361 158.032 802.447 598.383 1282.148 1252.672 939.823 1123.931 938.694 915.812 1265.562 715.911 960.274 1069.911 1610.878 1510.395 1407.499 610.886 1427.437 172.054 848.547 1606.172 1158.517 1130.786 905.639 1241.147 464.240 855.804 1199.283 701.795 1086.155 83.650 215.725 810.843 1260.574 1328.951 905.295 544.363 1322.915 1115.048 1108.411 1236.545 631.650 1280.434 1096.033 215.763 914.177 1005.840 945.354 1037.945 1102.760 670.331 1275.225 1083.199 593.128 987.957 1511.378 1430.341 1012.711 391.941 1029.644 705.422 596.277 1170.480 538.298 1437.390 695.364 1057.939 1310.974 1399.740 1114.211 1384.043 1160.105 1135.747 1208.659 1224.151 1185.886 0.000 1276.271 1406.592 1157.061
865.615 1318.836 1510.572 1139.934 1061.474 532.360 1256.206 1720.686 777.395 1964.390 966.266 553.223 1409.159 757.334 1439.572 1715.193 288.568 464.640 556.122 1451.904 2010.464 1258.692 1703.264 864.698 1748.673 1545.979 1233.130 1417.237 1674.118 1651.236 1035.288 1617.700 1253.580 737.227 438.725 533.733 720.858 1335.953 631.234 1200.493 1428.878 1336.971 353.733 1398.151 1872.048 635.416 1030.816 1591.186 1580.843 1282.127 1561.646 1322.364 1230.925 653.176 1734.505 1177.942 499.083 1445.180 1616.221 315.666 636.615 776.701 1716.892 1754.365 1699.779 1509.463 1688.055 389.419 1401.087 1941.864 1865.151 1571.148 1749.156 396.557 840.139 1954.366 487.397 1904.271 379.647 1028.245 667.326 1292.397 1426.234 717.999 985.590 1168.189 677.068 580.263 1703.211 2246.272 498.825 1857.974 337.845 312.612 525.974 1959.576 308.783 1322.815 0.000 663.835 470.420
1394.516 1367.646 1340.977 1214.204 664.054 1061.261 1305.015 1382.585 851.665 1729.843 660.286 482.880 1101.867 1245.189 1488.382 1646.389 536.627 465.647 1050.872 1500.713 1941.661 1307.502 1752.074 937.545 1410.572 1222.737 922.059 1093.995 1605.315 1582.433 620.661 1583.921 934.410 505.403 453.091 241.325 1249.759 1267.150 117.821 1274.764 1247.055 961.759 885.540 1022.939 1848.585 420.876 1088.393 1522.382 1228.091 1213.323 1211.217 1371.173 1288.503 1010.939 1403.449 791.949 903.954 1493.990 1292.979 759.112 499.102 390.133 1765.701 1420.462 1392.487 1583.733 1619.251 918.321 1016.843 1873.060 1796.348 1619.958 1418.100 925.459 897.717 1944.585 388.818 1581.790 908.548 1077.054 1155.181 983.002 1357.430 1246.900 1059.861 792.978 751.339 1109.164 1379.969 2177.468 423.277 1535.493 507.898 882.472 311.434 1725.029 468.906 1397.085 681.774 0.000 999.321
442.444 1323.330 1575.772 995.091 1371.772 210.753 1177.220 2021.571 664.439 2029.589 1166.726 660.386 1710.044 360.947 1444.066 1780.393 755.507 641.648 281.014 1336.039 2075.664 1184.559 1707.758 869.192 2049.559 1846.864 1534.015 1718.123 1739.318 1716.436 1306.660 1622.194 1554.466 888.237 832.633 927.568 259.470 1379.860 1025.069 1055.651 1494.078 1647.269 190.484 1708.449 1876.542 963.052 1035.310 1656.386 1881.729 1347.327 1862.531 1199.177 1147.393 469.937 2035.390 1485.813 384.028 1449.674 1917.107 444.805 845.146 1170.536 1721.386 2055.250 1898.202 1364.620 1753.255 262.524 1597.529 2007.064 1930.351 1575.642 2050.041 80.185 844.633 1958.860 881.232 2205.156 252.751 1032.739 270.939 1357.597 1442.943 295.980 840.748 1478.487 541.434 224.321 2004.096 2311.472 831.615 2158.859 804.784 317.378 857.290 2024.776 775.723 1177.972 466.939 1055.223 0.000
NODE_COORD_SECTION
1 -27309.573541 -21134.221380
2 2074.021538 -1344.984737
3 1162.496466 8119.636427
4 -4967.373050 -9176.696248
5 -13833.328407 14395.352982
6 -21319.662507 -14589.748492
7 -710.956186 -5236.861123
8 99.613491 20076.477444
9 -12941.099670 -8546.234325
10 9858.617212 10910.872056
11 -11054.928018 6002.517804
12 -17117.047471 -2647.831220
13 490.419340 12114.565502
14 -20862.392749 -17815.184066
15 2973.606539 -2347.380325
16 10842.308646 5734.843548
17 -23256.197055 -1470.531455
18 -18668.491208 -3262.941691
19 -19659.721031 -15347.159694
20 2483.074766 -5662.050596
21 20310.408535 10609.926660
22 -500.639525 -5122.285675
23 11591.692086 3111.962488
24 -9015.317055 -5206.555485
25 3251.528834 19772.818645
26 -4547.167964 20221.949256
27 -4323.679679 13294.324166
28 -3969.724370 17555.983567
29 9312.808143 8315.495486
30 9369.830426 8059.082073
31 -12607.283865 10961.922288
32 7777.122629 3399.309470
33 -4455.400868 14205.737265
34 -15564.145470 1030.598596
35 -27192.784647 307.638284
36 -24964.876837 3774.539158
37 -27285.977407 -15326.048098
38 121.918434 2412.916027
39 -23002.092372 5092.020213
40 -2517.023580 -9100.260039
41 386.298511 7674.747570
42 -13554.411586 13913.721797
43 -23627.677574 -10803.432996
44 -5881.287028 17116.825569
45 15456.423686 6095.211937
46 -18808.982725 1226.818623
47 -5968.161219 -5212.103016
48 6623.055074 7435.307509
49 -871.254175 17437.126535
50 375.662496 5868.499905
51 2975.759154 15491.066473
52 -165.397229 -6807.052615
53 -1976.227228 -5301.537077
54 -16092.556859 -15667.795899
55 7042.015213 17019.319282
56 -10191.024384 12784.587324
57 -18447.561838 -10559.276931
58 6171.759752 9.600430
59 -3423.589592 20649.216211
60 -20889.343452 -7293.850659
61 -16400.466797 495.518519
62 -15522.624959 6660.639085
63 11326.663048 642.961026
64 4827.168675 19101.894045
65 7172.311133 12800.312222
66 4885.718177 -5651.771590
67 11411.323472 6424.249954
68 -20145.440970 -11844.132944
69 -1557.392876 11150.706761
70 16521.059332 7552.124046
71 17029.418621 8647.319887
72 8701.188345 1199.215665
73 7248.203678 17139.838500
74 -22600.069382 -12583.075438
75 -8345.066779 -3968.360642
76 15949.219497 4160.660421
77 -25463.676278 1395.901097
78 10097.683686 19859.411043
79 -20222.516215 -11767.649164
80 -3243.998493 -1642.017880
81 -21224.857304 -17516.220698
82 -3332.049280 8253.030146
83 2419.166941 3304.999664
84 -22064.579685 -16448.298219
85 -9861.563628 -11894.185226
86 -13525.125272 14276.633721
87 -14975.800167 -9997.878605
88 -21190.998732 -14921.659101
89 -1791.190415 20435.757513
90 24285.476121 12568.916669
91 -18218.065943 378.743371
92 10502.063211 18269.811849
93 -20996.629241 -1853.110388
94 -21344.770763 -9090.981564
95 -19637.025182 1811.871369
96 9832.596871 10813.813623
97 -21167.854141 -1482.895069
98 723.963186 -7608.296448
99 -24641.418364 -5434.359225
100 -22253.429465 6209.398603
101 -23717.147070 -13895.714066
DEMAND_SECTION
1 0
2 80
3 13
4 26
5 50
6 94
7 61
8 68
9 83
10 48
11 49
12 6
13 97
14 31
15 81
16 80
17 48
18 64
19 18
20 97
21 58
22 41
23 45
24 60
25 37
26 42
27 13
28 33
29 73
30 94
31 98
32 32
33 4
34 1
35 11
36 95
37 21
38 69
39 35
40 39
41 9
42 95
43 42
44 37
45 10
46 80
47 65
48 92
49 54
50 5
51 13
52 55
53 25
54 30
55 42
56 80
57 13
58 18
59 33
60 27
61 12
62 31
63 52
64 28
65 68
66 50
67 87
68 77
69 42
70 2
71 16
72 16
73 79
74 1
75 91
76 28
77 43
78 67
79 58
80 17
81 31
82 47
83 17
84 75
85 56
86 89
87 57
88 45
89 96
90 90
91 78
92 66
93 49
94 97
95 83
96 11
97 47
98 77
99 55
100 89
101 13
DEPOT_SECTION
1
-1
EOF
