NAME : mamut-perpignan-n132-k9-poi
COMMENT : Mamut2026 fastest metric; city perpignan; No of trucks: 9 (lower bound, fleet not fixed); 3-decimal seconds/meters; ENU ref in mamut-perpignan-n132-k9-poi.vrp.json
TYPE : CVRP
DIMENSION : 133
EDGE_WEIGHT_TYPE : EXPLICIT
EDGE_WEIGHT_FORMAT : FULL_MATRIX
CAPACITY : 886
EDGE_WEIGHT_SECTION
0.000 1313.009 662.177 896.325 491.405 921.765 825.977 483.699 778.367 934.446 940.794 721.026 1035.461 901.176 576.057 809.274 512.471 1243.854 704.065 469.982 709.946 260.620 1035.474 554.622 708.649 479.576 730.238 787.843 210.244 776.556 914.936 768.432 515.212 1015.372 556.681 527.441 92.983 912.039 839.804 527.842 663.583 774.707 826.092 617.286 506.801 546.870 604.749 750.785 528.653 936.221 997.830 499.814 487.399 551.037 761.902 407.261 848.293 538.063 827.012 576.779 510.311 1215.915 929.960 746.876 540.456 364.341 564.444 703.506 709.528 947.452 297.419 506.081 983.472 573.938 680.486 462.596 466.407 1064.768 724.652 550.874 508.567 861.499 981.285 631.371 621.472 549.767 364.251 733.377 623.058 518.337 474.286 741.765 527.665 854.780 742.463 466.836 502.600 563.067 956.701 724.483 1130.048 537.704 586.299 495.914 653.575 758.925 951.237 964.178 504.647 520.719 560.145 688.490 556.177 497.938 301.203 939.260 535.497 524.636 774.968 551.916 633.482 1003.796 535.229 309.917 578.467 739.267 1054.766 498.471 531.970 741.435 564.744 605.743 541.621
1299.642 0.000 1039.399 721.321 822.645 448.965 609.198 817.213 1195.360 443.114 602.722 1309.238 431.991 726.173 1067.005 798.394 860.172 154.211 752.987 1050.138 760.513 1250.928 473.753 847.514 1297.349 1280.702 1205.205 691.012 1147.749 636.204 1159.445 626.027 1043.455 426.689 868.188 855.784 1345.512 737.035 643.284 870.108 1069.100 742.950 856.469 730.165 860.654 879.629 768.299 1179.485 854.968 1034.213 446.952 846.376 833.961 818.084 786.209 963.157 1108.340 876.142 612.739 808.484 865.443 126.089 1174.469 991.385 843.050 1450.085 741.994 677.578 691.064 612.617 1383.903 861.214 809.546 865.744 978.432 1019.011 913.938 313.409 742.951 1100.837 863.699 1113.556 1079.277 745.156 1098.442 852.360 965.331 622.338 1076.773 1150.183 906.128 782.203 814.401 560.875 1310.624 884.476 849.163 758.790 782.775 787.002 291.199 823.038 812.865 856.339 1001.313 681.961 776.234 790.252 851.209 1157.630 882.250 722.433 795.185 853.071 1384.335 454.602 1085.461 833.718 698.004 795.093 747.267 1101.788 765.728 1375.622 854.538 1215.180 928.432 845.033 870.049 1161.614 867.338 758.239 844.215
648.555 1047.216 0.000 397.196 325.395 683.108 520.571 317.688 519.127 685.695 715.846 302.406 810.513 402.047 101.042 620.788 319.953 978.061 398.659 489.270 404.540 499.744 810.526 362.609 766.928 459.379 482.389 516.856 482.936 471.150 819.112 543.484 482.587 790.425 366.250 336.709 694.425 412.910 536.319 319.729 90.540 491.703 637.606 392.338 284.329 356.439 389.374 502.936 337.921 546.647 772.882 309.383 321.388 278.893 456.497 333.194 405.721 347.632 521.606 298.245 344.300 950.122 834.136 651.052 349.725 799.739 351.219 515.021 404.123 725.741 732.816 340.071 484.343 379.371 584.663 238.936 353.070 792.356 484.550 539.969 342.556 403.139 591.711 380.799 91.610 359.035 320.951 508.429 52.287 205.384 318.502 436.360 361.654 629.832 303.792 271.511 306.936 338.119 457.572 535.997 766.633 368.560 307.262 287.016 69.316 453.520 452.108 465.049 304.863 203.175 369.714 463.542 284.034 331.928 736.601 633.854 524.593 366.609 469.563 279.773 378.454 614.221 325.346 745.314 368.166 475.073 481.723 318.923 341.539 631.193 374.013 390.368 350.890
916.007 753.742 413.242 0.000 507.356 592.042 506.607 499.650 516.865 586.191 831.408 683.080 774.154 44.038 440.847 802.750 501.915 684.587 382.012 671.232 387.894 863.284 694.423 544.571 948.890 822.919 526.711 525.525 764.113 454.504 1001.074 659.046 664.549 768.851 548.212 518.671 961.876 29.108 522.355 501.691 442.942 500.372 819.568 523.733 466.291 538.401 550.626 500.990 519.883 355.719 667.622 491.345 503.350 460.855 351.427 546.622 429.846 529.593 507.642 480.207 526.262 656.648 1016.098 833.014 531.687 1067.190 524.321 696.982 421.251 841.303 1000.268 522.032 131.052 561.333 766.625 528.190 535.032 524.865 507.268 721.931 524.518 435.062 400.783 492.497 472.284 540.997 556.634 623.991 450.615 568.924 500.464 331.290 543.616 724.513 684.466 453.473 488.898 520.080 104.281 717.959 473.160 550.521 486.323 468.977 375.155 436.873 68.307 111.758 486.824 566.715 551.676 594.937 465.995 513.889 1004.052 597.678 706.555 548.571 452.916 461.735 494.607 423.294 507.307 996.716 550.128 536.686 249.938 500.884 523.501 813.155 555.975 551.619 532.852
511.934 834.207 337.107 494.508 0.000 442.964 357.285 29.505 779.859 455.644 461.992 606.946 556.659 499.359 364.713 330.472 108.605 765.052 278.014 262.429 283.895 463.220 556.672 77.433 545.159 492.994 743.655 309.042 360.041 350.505 524.136 289.630 255.746 536.571 107.053 123.574 557.804 510.222 361.002 82.400 366.808 309.444 347.290 138.484 72.946 97.241 125.948 764.202 124.786 763.608 519.028 58.668 46.253 124.986 335.851 175.449 622.682 88.434 358.320 126.858 75.659 737.113 539.160 356.076 114.100 662.376 85.642 224.705 283.477 468.650 596.195 73.446 581.655 96.749 291.764 283.636 126.229 585.967 245.851 313.129 73.915 620.100 808.672 152.569 396.150 122.880 177.623 254.575 374.481 413.489 118.420 315.714 48.863 375.979 608.332 103.985 61.454 84.265 554.884 245.681 651.247 58.902 136.378 68.631 299.021 332.874 549.420 562.360 63.501 420.937 110.517 209.688 106.256 65.363 596.627 490.474 297.753 140.542 348.917 101.995 154.680 831.182 56.427 587.913 101.278 743.573 698.684 57.325 82.341 409.424 137.300 126.941 107.813
905.766 443.712 676.854 571.269 428.768 0.000 202.107 423.336 1045.307 23.018 308.863 946.693 335.821 576.120 704.459 477.916 466.295 374.557 345.897 656.261 353.422 857.052 224.056 453.638 903.472 886.825 1055.153 283.921 753.872 229.114 765.569 232.150 649.578 298.737 474.311 461.907 951.635 586.983 236.193 476.231 706.554 335.859 494.734 336.288 466.777 485.753 374.422 1029.432 461.092 884.161 179.567 452.500 440.084 424.207 379.118 569.280 937.838 482.265 205.648 414.607 471.567 346.618 780.593 597.508 449.174 1056.208 348.117 283.701 283.973 318.758 990.027 467.337 659.494 471.867 584.555 624.515 520.061 153.341 349.074 706.960 469.823 935.256 929.225 351.279 735.897 458.484 571.454 228.461 714.227 755.686 512.251 375.113 420.524 162.770 948.079 490.600 455.286 364.914 632.723 393.125 218.621 429.161 418.988 462.462 638.767 274.870 626.181 640.199 457.333 763.134 488.373 328.556 401.308 459.194 990.458 47.511 691.584 439.841 290.913 401.217 353.390 951.735 371.851 981.745 460.661 1058.729 778.379 451.156 476.173 767.738 473.461 364.363 450.338
831.395 620.795 509.106 464.209 386.529 221.175 0.000 381.097 927.267 223.763 445.011 778.945 539.678 469.061 536.712 527.012 349.150 551.640 178.149 598.514 185.675 782.681 436.117 385.098 876.172 771.100 892.046 94.118 679.501 59.029 814.664 272.649 591.831 510.797 403.410 371.366 877.264 479.924 46.390 396.709 538.807 134.158 543.830 301.024 375.589 415.844 332.182 912.593 378.649 776.023 391.627 386.362 397.845 308.090 211.370 466.485 770.090 424.611 15.845 277.399 422.156 523.701 829.688 646.604 378.273 982.578 305.878 332.797 116.225 454.906 915.656 417.927 551.357 401.860 633.651 456.767 462.314 330.423 164.921 649.214 420.412 767.508 821.088 274.053 568.149 387.583 472.021 268.012 546.480 587.939 415.852 207.365 378.285 278.503 780.331 373.454 383.915 322.674 524.586 442.221 395.703 386.922 267.879 363.995 471.020 107.122 519.122 532.062 381.842 595.386 417.472 293.292 298.001 409.784 919.440 171.922 633.838 475.854 123.165 302.261 276.164 843.598 329.611 923.998 390.654 890.981 670.242 395.902 418.518 740.437 402.561 329.099 379.438
482.429 829.310 307.603 465.003 8.382 438.067 352.388 0.000 750.354 450.747 457.095 577.442 551.762 469.854 335.208 325.575 79.100 760.155 270.694 232.925 276.575 433.715 551.775 70.923 515.654 463.489 714.151 304.145 330.536 343.185 532.518 284.733 226.242 531.674 86.031 94.070 528.299 480.717 356.105 57.192 337.303 304.547 342.393 133.587 43.441 76.220 121.051 734.697 95.282 734.103 514.131 29.163 16.748 117.666 328.531 145.944 593.178 67.412 353.423 121.961 48.230 732.216 547.542 364.458 107.085 632.872 80.745 219.807 276.157 463.753 566.690 44.001 552.150 90.239 300.146 254.131 96.725 581.070 240.954 283.624 46.486 590.596 779.167 147.672 366.645 101.858 148.118 249.678 344.976 383.985 88.915 308.395 43.966 371.082 578.827 74.480 31.950 79.368 525.379 240.784 646.350 54.005 131.481 39.126 269.516 325.554 519.915 532.856 33.996 391.432 89.495 204.791 101.359 35.858 567.122 485.577 268.248 115.336 341.597 97.098 149.783 801.678 51.530 558.409 94.768 714.069 669.179 27.820 61.319 379.919 116.279 122.044 101.304
798.514 1192.986 525.424 503.832 753.219 1031.286 945.393 745.512 0.000 1025.435 1143.670 227.335 1213.398 507.088 476.210 1048.612 747.777 1123.831 820.799 822.950 826.680 560.950 1133.667 790.434 1137.379 458.593 46.005 944.680 634.687 893.290 1239.955 971.308 840.231 1208.095 794.075 764.534 816.535 492.158 961.142 747.554 466.042 919.527 1065.431 820.162 712.153 784.264 817.199 27.582 765.746 200.237 1106.866 737.207 749.212 706.718 790.214 712.522 161.655 775.456 946.429 726.070 772.124 1095.892 1254.979 1071.895 777.549 958.253 779.043 942.845 831.947 1153.565 891.331 767.895 544.443 807.196 1005.506 618.265 780.895 964.109 912.374 897.613 770.380 174.861 245.301 808.623 434.126 786.860 692.322 936.253 486.304 560.280 746.327 770.077 789.479 1057.657 248.772 699.335 734.760 765.943 517.672 963.822 912.404 796.384 735.086 714.840 534.545 875.660 512.885 517.444 732.687 540.933 797.539 891.366 711.858 759.752 895.115 1036.922 882.237 794.434 891.703 707.597 806.279 267.812 753.170 903.828 795.990 62.498 356.637 746.747 769.363 1059.017 801.837 818.192 778.714
920.305 435.339 684.291 562.896 443.307 22.130 209.544 437.875 1036.934 0.000 323.402 954.130 328.907 567.747 711.896 492.455 480.834 366.184 353.333 670.800 360.859 871.591 217.142 468.177 918.012 901.364 1046.780 291.358 768.411 236.550 780.108 246.689 664.117 291.822 488.850 476.446 966.174 578.610 243.630 490.770 713.991 343.296 509.273 350.827 481.316 500.292 388.961 1021.059 475.631 875.788 172.653 467.039 454.623 438.746 386.555 583.819 945.274 496.804 213.085 429.146 486.106 338.245 795.132 612.047 463.713 1070.747 362.656 298.240 291.410 333.297 1004.566 481.876 651.121 486.406 599.094 631.952 534.600 144.968 362.161 721.499 484.362 942.692 920.852 365.818 743.333 473.023 585.993 243.000 721.664 763.123 526.791 382.549 435.063 177.309 955.515 505.139 469.825 379.453 624.350 407.664 210.248 443.700 433.527 477.001 646.204 282.307 617.808 631.827 471.872 770.570 502.912 343.096 415.848 473.734 1004.997 54.947 706.123 454.380 298.349 415.756 367.929 943.362 386.390 996.284 475.200 1056.755 770.006 465.696 490.712 782.277 488.000 378.902 464.877
940.142 601.838 711.850 795.833 463.144 315.139 404.776 457.712 1154.601 327.820 0.000 981.689 305.683 800.684 739.455 244.685 500.671 532.683 509.772 690.637 517.298 891.428 305.695 488.014 927.461 921.201 1119.380 437.038 788.248 463.805 662.593 266.526 683.954 285.594 508.687 496.283 986.011 811.547 398.391 510.607 741.550 493.842 302.760 370.664 501.153 520.129 408.798 1139.927 495.468 1107.647 268.052 486.876 474.460 458.583 570.995 603.656 997.425 516.641 403.857 448.983 505.943 504.744 677.617 533.202 483.550 1090.584 382.493 312.077 432.546 27.120 1024.403 501.713 882.980 506.243 608.543 659.511 554.437 412.500 383.450 741.336 504.199 994.843 1152.711 385.655 770.893 492.860 605.830 262.837 749.223 790.682 546.628 550.859 454.900 201.375 983.075 524.976 489.662 399.290 856.209 370.602 477.780 463.537 453.364 496.838 673.763 483.476 850.745 863.685 491.709 798.130 522.749 362.933 435.685 493.571 1024.834 362.650 725.960 463.829 499.519 435.593 387.766 1175.221 406.227 1016.121 495.037 1118.316 1001.865 485.533 510.549 791.726 507.837 398.739 484.714
742.981 1308.562 303.861 658.542 586.741 944.454 781.917 579.034 216.721 947.041 977.192 0.000 1071.859 663.393 254.646 882.134 581.299 1239.407 660.005 674.711 665.886 505.417 1071.872 623.955 989.141 403.060 179.983 778.202 579.153 732.496 1080.458 804.830 691.993 1051.771 627.596 596.922 761.002 674.256 797.666 581.075 269.479 753.049 898.952 653.684 545.675 617.785 650.720 200.530 598.134 385.966 1034.228 570.729 582.734 540.239 717.843 490.959 282.658 608.978 782.952 559.591 605.646 1211.468 1095.482 912.398 609.938 902.719 612.565 776.367 665.469 987.087 835.797 601.417 730.173 640.717 846.009 396.702 614.416 1053.702 745.896 749.375 603.902 295.864 431.030 642.145 212.563 619.248 478.717 769.775 264.741 338.716 578.715 697.706 623.000 891.178 27.208 531.724 568.282 599.465 703.402 797.343 1027.979 629.906 568.608 548.362 330.662 714.866 698.615 703.173 566.209 319.370 631.060 724.888 545.380 593.274 839.582 895.200 733.999 627.955 730.909 541.119 639.800 453.541 586.692 848.295 629.512 172.667 531.963 580.269 602.885 892.539 634.226 651.714 611.103
1018.151 453.998 789.859 750.939 541.154 318.478 482.785 535.721 1224.977 310.712 308.066 1059.698 0.000 755.790 817.464 503.738 578.680 384.843 587.782 768.646 595.307 969.437 134.309 566.023 1015.858 999.210 1197.389 515.047 866.257 541.814 877.954 344.535 761.963 27.925 586.696 574.292 1064.021 766.653 476.400 588.616 819.559 571.851 561.814 448.673 579.163 598.138 486.807 1209.102 573.477 1063.831 137.990 564.885 552.470 536.592 649.005 681.665 1075.434 594.651 481.867 526.992 583.952 356.904 892.978 709.894 561.559 1168.593 460.502 396.087 510.555 317.962 1102.412 579.723 839.164 584.252 696.940 737.520 632.446 271.027 461.460 819.345 582.208 1072.852 1108.895 463.665 848.902 570.869 683.840 340.846 827.232 868.691 624.637 628.868 532.910 279.384 1061.084 602.985 567.671 477.299 812.393 505.511 314.160 541.547 531.373 574.847 751.772 561.485 805.851 819.870 569.718 876.139 600.759 440.942 513.694 571.580 1102.843 360.871 803.969 552.227 577.528 513.602 465.775 1131.406 484.236 1094.130 573.047 1196.325 958.050 563.542 588.558 880.123 585.847 476.748 562.724
892.136 729.871 389.371 20.568 483.486 568.172 482.736 475.779 524.039 562.320 807.537 659.210 750.283 0.000 416.976 778.879 478.044 660.716 358.142 647.361 364.023 839.414 670.552 520.701 925.019 799.048 533.885 501.655 740.243 430.633 977.203 635.176 640.678 744.980 524.341 494.800 938.006 24.140 498.485 477.820 419.071 476.502 795.697 499.862 442.420 514.530 526.755 508.164 496.012 362.893 643.752 467.474 479.479 436.984 327.556 522.752 437.020 505.723 483.771 456.336 502.391 632.777 992.227 809.143 507.816 1043.319 500.451 673.112 397.380 817.432 976.397 498.162 138.226 537.462 742.754 504.320 511.161 500.995 483.397 698.060 500.647 442.236 407.957 468.626 448.414 517.126 532.763 600.120 426.744 545.054 476.593 307.420 519.745 700.643 660.596 429.602 465.027 496.210 111.455 694.088 449.289 526.651 462.452 445.107 351.284 413.002 64.248 107.884 462.954 542.844 527.806 571.066 442.125 490.019 980.181 573.808 682.684 524.701 429.045 437.864 470.737 430.468 483.437 972.845 526.257 543.860 257.112 477.014 499.630 789.284 532.104 527.749 508.981
562.095 1067.338 102.926 417.318 345.517 703.230 540.693 337.810 476.949 705.817 735.968 260.228 830.635 422.169 0.000 640.910 339.005 998.183 418.781 430.485 424.662 432.144 830.648 382.731 744.914 391.779 440.211 536.978 410.201 491.272 839.234 563.606 447.766 810.547 386.372 353.974 607.964 433.032 556.442 339.851 104.332 511.825 657.728 412.460 304.451 376.561 409.496 460.758 355.186 560.438 793.004 329.505 341.510 299.015 476.619 246.733 419.513 367.754 541.728 318.367 364.422 970.244 854.258 671.174 366.990 713.278 371.341 535.143 424.245 745.863 646.356 360.193 504.465 399.493 604.785 152.475 373.192 812.478 504.672 505.149 362.678 416.931 605.502 400.921 62.220 376.300 234.491 528.551 63.806 137.784 335.767 456.482 381.776 649.954 261.614 288.776 327.058 358.241 477.694 556.119 786.755 388.682 327.384 307.138 129.584 473.642 472.230 485.171 324.985 135.575 389.836 483.664 304.156 352.050 650.140 653.977 489.773 386.732 489.685 299.895 398.576 628.013 345.468 658.853 388.288 432.895 495.515 339.045 361.661 651.315 391.278 410.490 368.155
806.901 795.003 621.365 778.765 329.903 480.377 504.395 324.471 1064.116 493.058 239.858 891.204 498.848 783.616 648.970 0.000 403.572 725.848 499.388 555.104 505.270 758.186 498.860 354.773 777.840 787.960 1028.895 515.356 655.007 559.339 423.177 348.315 548.420 478.759 402.019 405.798 852.770 794.479 498.010 377.366 651.065 515.759 63.345 344.799 367.912 386.888 329.805 1049.442 404.982 1047.865 461.217 353.634 341.219 368.098 557.226 470.415 906.939 383.400 503.476 369.970 372.701 697.909 438.201 293.787 391.439 955.050 289.500 235.858 499.868 238.259 891.162 368.472 865.912 374.089 405.699 569.025 421.196 605.665 452.165 605.803 370.958 904.357 1092.929 358.884 680.407 402.375 472.589 344.626 658.738 700.197 413.386 537.089 321.659 394.540 892.589 398.952 356.421 310.207 839.141 220.981 670.945 330.296 379.490 363.597 583.278 541.709 833.677 846.618 358.468 707.644 405.483 352.860 349.368 360.329 889.301 527.888 590.427 314.209 557.751 345.107 360.995 1115.440 299.539 880.588 378.618 1027.831 982.941 352.291 377.308 625.291 417.352 330.799 385.153
513.788 870.559 314.658 472.058 85.644 479.315 336.331 77.937 757.409 491.996 498.343 584.497 593.011 476.909 342.263 403.286 0.000 801.404 214.419 280.907 220.300 465.074 593.023 105.957 558.565 496.370 722.188 330.238 361.894 286.910 609.780 325.982 274.224 572.922 92.834 54.681 559.657 487.772 352.079 79.102 344.358 285.062 420.104 174.836 57.982 115.812 171.872 742.735 55.893 741.158 555.380 68.755 81.637 61.391 272.257 148.878 600.233 107.004 337.366 87.133 104.549 773.465 624.804 441.720 67.697 664.971 133.717 297.518 219.883 508.239 598.049 100.320 559.205 117.707 376.300 251.120 144.707 608.116 267.047 331.607 102.805 597.651 786.222 163.297 373.701 77.007 154.415 290.927 352.031 382.291 98.245 252.120 121.903 412.330 585.883 55.847 66.308 120.616 532.434 318.495 673.396 127.014 96.653 46.388 276.571 269.280 526.971 539.911 64.235 389.739 106.897 246.039 66.531 92.177 601.833 449.614 316.231 158.247 285.322 62.271 160.952 808.733 107.843 606.391 106.501 721.124 676.234 78.295 100.911 422.830 91.985 172.865 68.862
1217.450 110.724 957.207 639.129 740.453 366.773 527.005 735.021 1113.167 360.922 520.529 1227.046 349.799 643.980 984.812 716.201 777.979 0.000 670.795 967.945 678.321 1168.736 391.560 765.322 1215.157 1198.510 1123.013 608.820 1065.556 554.012 1077.253 543.834 961.262 344.496 785.995 773.591 1263.320 654.843 561.092 787.915 986.907 660.757 774.277 647.972 778.462 797.437 686.106 1097.292 772.776 952.021 364.760 764.184 751.769 735.891 704.016 880.965 1026.147 793.950 530.547 726.291 783.251 13.059 1092.277 909.193 760.858 1367.892 659.801 595.386 608.871 530.424 1301.711 779.022 727.354 783.551 896.240 936.819 831.745 231.217 660.759 1018.644 781.507 1031.364 997.085 662.964 1016.250 770.168 883.139 540.145 994.580 1067.990 823.936 700.011 732.209 478.683 1228.432 802.284 766.970 676.598 700.583 704.810 209.007 740.846 730.673 774.146 919.120 599.768 694.041 708.060 769.017 1075.438 800.058 640.241 712.993 770.879 1302.142 372.409 1003.268 751.526 615.811 712.901 665.074 1019.596 683.535 1293.429 772.346 1132.988 846.240 762.841 787.857 1079.422 785.146 676.047 762.023
692.801 730.303 370.513 325.616 264.657 330.684 170.829 256.950 788.673 333.271 495.630 640.352 590.298 330.467 398.118 492.355 210.556 661.148 0.000 459.921 35.704 644.087 545.625 253.212 737.579 632.507 753.452 189.748 540.907 118.726 780.984 323.269 453.238 570.209 271.524 238.843 738.671 341.330 186.578 258.115 400.213 164.595 509.174 196.419 236.995 283.959 223.311 773.999 240.055 637.430 501.136 247.768 260.650 169.496 100.779 327.891 631.497 286.017 171.865 168.528 283.562 633.209 796.008 612.924 246.387 843.984 197.007 377.052 85.473 505.526 777.062 279.333 412.763 269.974 552.031 318.174 323.721 439.932 171.490 510.620 281.818 628.915 682.494 165.182 429.556 255.697 333.428 288.213 407.886 449.345 277.258 80.642 264.572 388.736 641.738 234.861 245.322 213.803 385.992 407.565 505.212 259.163 159.008 225.401 332.426 101.096 380.528 393.469 243.248 456.793 285.587 267.622 174.637 271.190 780.846 281.430 495.244 337.260 117.138 170.376 167.293 705.005 215.949 785.405 258.769 752.388 531.649 257.308 279.925 601.844 270.675 224.305 247.552
466.423 1060.743 499.544 656.944 239.140 669.500 583.821 231.433 774.018 682.180 686.802 678.540 783.195 661.796 428.019 547.025 297.196 991.588 488.790 0.000 494.671 417.709 783.208 302.357 423.125 475.227 725.889 535.578 314.529 561.281 639.311 516.166 125.978 763.107 304.416 312.166 512.292 672.658 587.539 275.577 515.545 535.980 563.843 365.020 254.535 294.605 352.484 746.436 313.377 926.044 745.564 247.548 235.133 335.762 546.627 259.223 785.119 285.797 584.857 353.394 258.045 963.649 654.335 471.251 325.181 399.947 312.179 440.654 494.253 685.203 337.982 253.816 744.091 321.673 404.861 314.557 214.141 812.503 472.387 84.345 256.301 782.537 971.108 379.106 473.434 320.243 216.213 481.111 475.020 414.598 243.571 526.490 275.400 602.515 679.926 276.035 250.335 310.801 717.320 462.234 877.783 285.438 362.914 257.222 461.457 543.650 711.857 724.797 252.381 422.045 307.880 436.224 332.792 245.673 334.197 717.011 68.969 249.012 559.693 328.532 381.216 993.619 282.963 325.484 326.202 734.919 861.121 246.205 279.704 453.231 334.664 353.477 326.346
718.392 763.096 396.104 351.207 290.248 363.477 203.622 282.542 814.265 366.064 528.423 665.943 623.091 356.059 423.709 517.947 236.147 693.941 55.415 485.512 0.000 669.678 578.418 278.804 763.170 658.098 779.044 222.541 566.499 151.519 806.575 356.062 478.829 603.002 297.116 264.435 764.262 366.921 219.371 283.706 425.804 197.388 534.765 222.010 262.587 309.550 248.903 799.590 265.647 663.021 533.929 273.360 286.242 195.088 126.370 353.482 657.088 311.609 204.658 194.119 309.154 666.002 821.599 638.515 271.978 869.576 222.598 409.845 118.266 538.319 802.653 304.924 438.354 295.566 577.623 343.765 349.312 472.725 204.283 536.211 307.410 654.506 708.085 190.774 455.147 281.289 359.019 321.006 433.477 474.937 302.850 106.233 290.163 421.529 667.329 260.452 270.913 239.395 411.583 433.156 538.005 284.754 184.600 250.993 358.018 133.889 406.120 419.060 268.840 482.384 311.178 293.214 200.228 296.781 806.438 314.223 520.835 362.852 149.932 195.967 192.884 730.596 241.540 810.996 284.360 777.979 557.240 282.900 305.516 627.435 296.266 249.896 273.143
258.087 1286.293 515.847 839.993 464.689 895.049 799.260 456.983 560.552 907.730 914.077 503.212 1008.745 844.844 433.095 782.557 485.755 1217.138 677.348 448.244 683.230 0.000 1008.757 527.906 768.775 261.762 512.424 761.127 100.901 749.840 888.220 741.716 488.495 988.656 529.965 500.725 276.108 855.707 813.088 501.126 517.253 747.991 799.376 590.570 480.085 520.154 578.033 532.970 501.936 718.407 971.113 473.098 460.682 524.321 735.186 380.545 630.479 511.346 800.296 550.063 483.594 1189.198 903.244 720.159 513.740 424.468 537.728 676.790 682.812 920.736 357.545 479.365 927.140 547.222 653.770 389.855 439.691 1038.052 697.936 529.135 481.851 643.685 763.471 604.655 444.945 523.050 337.535 706.661 476.727 331.170 447.570 715.049 500.949 828.064 524.648 440.120 475.884 536.350 900.369 697.767 1103.332 510.988 559.583 469.198 542.648 732.209 894.905 907.845 477.931 333.552 533.429 661.773 529.461 471.222 361.330 912.544 513.759 497.920 748.252 525.200 606.766 785.981 508.513 370.043 551.751 521.453 874.806 471.755 505.254 714.718 538.028 579.027 514.905
1005.841 462.192 777.549 673.880 528.844 219.271 416.261 523.412 1147.918 211.505 295.757 1047.388 146.867 678.731 805.155 491.429 566.371 393.037 560.051 756.337 567.576 957.127 0.000 553.713 1003.548 986.901 1157.764 498.075 853.948 443.268 865.644 332.226 749.654 109.783 574.387 561.983 1051.711 689.594 450.347 576.307 807.250 550.013 549.504 436.364 566.853 585.828 474.498 1132.043 561.167 986.772 38.783 552.575 540.160 524.283 593.272 669.356 1060.898 582.341 419.802 514.683 571.642 365.098 880.668 697.584 549.249 1156.284 448.193 383.777 498.127 305.652 1090.102 567.413 762.105 571.943 684.631 725.210 620.137 171.820 449.150 807.036 569.898 1060.542 1031.836 451.355 836.592 558.559 671.530 328.537 814.923 856.382 612.327 589.267 520.600 267.074 1048.774 590.675 555.362 464.989 735.334 493.201 237.100 529.237 519.064 562.538 739.463 489.024 728.792 742.811 557.408 863.829 588.449 428.632 501.384 559.270 1090.534 261.665 791.660 539.917 505.067 501.292 453.466 1054.347 471.927 1081.821 560.737 1167.739 880.991 551.232 576.248 867.813 573.537 464.438 550.414
562.968 861.624 367.937 525.338 85.971 470.381 369.673 80.538 810.689 483.061 489.409 637.776 584.076 530.189 395.543 358.661 102.666 792.469 267.699 313.463 273.580 514.254 584.089 0.000 596.192 544.027 775.468 336.459 411.074 340.190 597.508 317.047 306.780 563.988 77.186 64.782 608.837 541.052 385.421 116.535 397.638 314.472 375.479 165.901 115.676 45.490 154.136 796.014 63.966 794.438 546.445 109.702 97.287 114.671 325.536 209.872 653.512 92.160 370.708 116.543 128.769 764.530 612.532 429.447 50.042 713.410 113.831 252.893 273.162 496.839 647.229 124.540 612.485 32.691 365.136 312.114 177.263 613.384 273.268 364.162 127.025 650.930 839.502 172.425 426.980 61.359 215.409 281.992 405.311 443.286 159.240 305.399 36.572 403.396 639.162 116.842 112.488 111.682 585.714 273.870 678.664 31.163 126.063 104.082 329.851 322.559 580.250 593.190 114.535 450.733 70.608 237.105 95.941 116.397 647.660 502.894 348.786 195.874 338.602 91.680 170.080 862.012 83.844 638.947 37.220 774.403 729.514 107.066 85.005 460.457 76.336 155.130 43.755
707.494 1302.179 771.151 928.551 517.850 910.935 862.531 510.143 1093.530 923.616 912.563 998.052 1024.631 933.403 747.530 772.786 568.804 1233.024 760.397 423.377 766.278 764.966 1024.643 581.067 0.000 794.739 1045.401 814.288 661.786 832.888 684.878 778.873 293.525 1004.542 583.126 583.773 725.584 944.266 866.249 554.287 800.851 814.690 789.604 643.730 526.143 573.315 631.194 1065.948 584.985 1197.651 987.000 526.258 513.843 607.369 818.235 580.258 1056.726 564.507 863.566 632.104 503.935 1205.085 699.902 516.817 596.789 472.602 590.889 666.416 765.861 910.965 410.636 499.706 1015.699 600.383 414.299 634.069 496.641 1053.938 751.097 388.510 502.192 1054.144 1242.716 657.816 792.945 598.953 537.248 759.821 794.531 734.109 526.070 798.098 554.110 843.950 999.438 558.534 529.045 589.511 988.928 687.995 1119.218 564.148 641.624 528.829 733.065 815.258 983.464 996.404 531.091 741.557 586.590 714.934 611.502 524.383 406.852 958.446 376.313 474.773 831.300 607.242 659.926 1265.226 561.673 398.139 604.912 1054.430 1132.728 524.915 558.414 179.561 613.374 632.187 597.954
585.249 1424.763 628.382 917.755 603.159 1033.520 908.629 595.453 456.306 1046.200 1052.548 398.966 1147.215 921.011 545.630 921.028 627.277 1355.608 786.717 609.684 792.598 347.685 1147.228 666.376 924.114 0.000 408.177 899.597 421.421 859.208 1026.690 880.186 626.966 1127.127 668.435 642.246 603.270 906.082 924.377 639.596 629.788 879.760 937.846 729.040 618.555 658.624 716.504 428.724 643.458 614.160 1109.584 611.568 599.153 665.842 844.554 522.067 526.232 649.817 909.664 686.303 622.065 1327.669 1041.714 858.630 655.262 744.988 676.198 815.260 792.180 1059.206 678.065 617.835 958.367 685.692 792.240 487.629 578.161 1176.522 836.407 684.348 620.321 539.438 659.224 743.125 557.480 664.572 479.057 845.131 589.262 443.704 589.091 824.417 639.419 966.534 420.402 581.641 614.354 674.821 931.596 836.237 1241.802 649.458 695.319 610.719 655.183 841.577 926.809 931.367 616.401 446.087 671.899 800.244 670.982 609.693 681.850 1021.912 668.972 636.390 857.620 666.722 745.236 681.735 646.983 690.563 690.221 417.207 770.560 610.225 643.724 853.189 679.550 717.497 656.427
757.080 1203.217 479.603 514.062 717.267 1041.517 912.443 709.560 52.372 1035.666 1107.718 181.515 1202.385 517.319 430.389 1012.660 711.825 1134.062 790.531 781.516 796.412 519.517 1143.898 754.482 1095.945 417.159 0.000 908.728 593.253 863.023 1198.521 935.356 798.797 1182.297 758.123 728.582 775.101 502.389 928.192 711.601 430.090 883.575 1029.478 784.210 676.201 748.312 781.246 25.031 729.793 210.468 1117.097 701.255 713.260 670.766 766.097 666.702 125.703 739.504 913.479 690.117 736.172 1106.123 1213.545 1030.461 741.597 916.819 743.091 906.893 795.995 1117.613 849.897 731.943 554.674 771.244 964.072 572.444 744.942 974.340 876.422 856.180 734.428 138.908 255.532 772.671 388.305 750.907 650.888 900.301 440.484 514.459 710.375 745.960 753.527 1021.705 202.951 663.383 698.808 729.991 527.903 927.869 922.634 760.432 699.134 678.888 498.592 845.392 523.116 527.675 696.735 495.112 761.587 855.414 675.906 723.800 853.681 1025.727 840.803 758.482 861.435 671.645 770.327 278.043 717.218 862.395 760.038 16.677 366.867 710.795 733.411 1023.065 765.885 782.240 742.762
824.279 679.541 512.481 491.902 349.199 279.921 70.935 343.767 954.959 282.509 436.180 782.320 530.847 496.753 540.086 518.181 342.034 610.386 205.842 576.691 213.367 775.565 494.863 359.792 859.420 774.475 919.738 0.000 672.385 94.291 805.833 263.818 570.008 510.759 378.104 346.059 870.148 507.616 74.652 389.593 542.181 108.852 534.999 258.955 368.473 390.538 294.852 940.285 362.141 803.716 450.374 372.930 360.515 299.946 251.280 459.369 797.783 402.696 71.970 252.093 391.997 582.447 820.857 637.773 352.967 975.462 268.547 323.966 119.058 446.075 908.540 387.768 579.049 376.554 624.820 460.142 440.491 389.170 122.852 627.390 390.253 795.201 848.780 241.207 571.524 362.277 464.906 259.181 549.854 591.313 408.736 246.928 340.955 273.965 783.706 366.339 375.716 285.344 552.278 433.390 454.450 349.592 242.573 356.879 474.394 134.815 546.815 559.755 374.726 598.761 392.166 251.223 272.694 379.625 910.889 230.668 612.014 459.102 150.858 276.955 243.317 871.291 292.281 902.175 365.348 918.674 697.935 371.587 396.603 723.686 377.254 287.029 354.131
172.383 1185.391 492.771 768.707 363.788 794.148 698.359 356.081 624.587 806.829 813.176 567.247 907.844 773.559 410.019 681.656 384.854 1116.236 576.447 347.342 582.328 103.179 907.856 427.005 667.874 325.796 576.458 660.226 0.000 648.939 787.318 640.815 387.594 887.755 429.064 399.823 218.253 784.422 712.187 400.225 494.177 647.090 698.474 489.668 379.183 419.253 477.132 597.005 401.035 782.441 870.212 372.196 359.781 423.419 634.285 279.644 694.513 410.445 699.394 449.162 382.693 1088.297 802.342 619.258 412.839 323.566 436.827 575.889 581.911 819.835 256.644 378.464 855.855 446.321 552.869 334.978 338.790 937.151 597.035 428.234 380.949 707.719 827.505 503.754 421.869 422.149 236.634 605.759 453.651 308.093 346.669 614.148 400.048 727.163 588.683 339.219 374.983 435.449 829.084 596.865 1002.431 410.086 458.681 368.296 519.572 631.308 823.620 836.560 377.029 310.476 432.528 560.872 428.560 370.321 260.428 811.643 412.858 397.019 647.351 424.299 505.864 850.016 407.611 269.142 450.850 585.487 885.360 370.853 404.352 613.817 437.127 478.125 414.004
799.571 611.577 477.283 432.386 364.459 211.957 78.409 359.027 895.443 214.545 476.962 747.122 538.664 437.237 504.888 558.963 317.326 542.422 146.325 566.691 153.851 750.857 426.899 359.982 844.348 739.277 860.222 116.718 647.677 0.000 846.616 304.601 560.008 501.579 378.294 345.613 845.440 448.100 97.394 364.885 506.983 144.173 575.781 283.220 343.765 390.728 310.112 880.769 346.825 744.200 382.410 354.538 367.420 276.266 179.547 434.661 738.267 392.787 81.951 255.329 390.332 514.483 861.640 678.555 353.157 950.754 283.808 364.748 84.402 486.857 883.832 386.103 519.533 376.744 643.624 424.944 430.491 321.206 187.522 617.390 388.588 735.685 789.264 251.983 536.325 362.467 440.198 300.911 514.656 556.115 384.028 175.541 356.215 308.616 748.507 341.631 352.091 300.604 492.762 474.172 386.486 364.852 245.809 332.171 439.196 75.299 487.298 500.238 350.018 563.563 392.357 295.318 275.931 377.960 887.616 162.704 602.014 444.030 91.342 277.146 254.094 811.774 307.541 892.175 365.539 859.158 638.418 364.078 386.694 708.613 377.445 311.106 354.322
915.567 1157.560 815.920 973.320 535.474 766.316 790.334 530.042 1195.417 778.997 680.698 1085.759 880.012 978.172 843.525 445.341 609.142 1088.405 778.551 645.739 784.432 866.853 880.025 577.970 686.790 896.627 1147.288 801.898 763.673 845.881 0.000 634.254 639.056 859.923 607.590 624.112 961.437 989.034 783.949 582.937 845.620 802.301 462.159 631.341 570.912 597.779 616.348 1167.835 625.324 1242.420 842.381 559.205 546.790 625.523 836.389 659.570 1101.495 588.971 789.416 627.395 548.704 1060.466 18.211 193.098 614.637 1045.686 576.042 521.797 784.015 679.099 983.721 544.475 1060.468 597.286 305.011 735.956 600.220 909.319 738.707 696.438 546.960 1098.913 1287.484 645.426 874.963 623.417 639.135 630.565 853.293 835.997 602.541 816.252 549.401 699.331 1087.145 604.522 561.992 584.802 1033.697 543.377 974.599 559.439 636.915 569.168 777.834 828.251 1028.233 1041.173 564.038 843.444 611.054 638.799 606.794 554.183 979.936 813.827 681.062 493.048 844.294 602.533 647.537 1309.995 556.964 971.223 601.815 1156.318 1177.497 557.862 582.879 524.602 637.838 617.341 608.351
748.627 628.196 520.335 604.318 271.630 236.953 248.252 266.198 963.087 249.633 255.981 790.174 350.648 609.170 547.940 337.982 309.157 559.041 318.258 499.123 325.783 699.913 350.661 296.499 763.538 729.687 927.866 255.127 596.734 307.281 625.634 0.000 492.439 330.560 317.173 304.768 794.497 620.032 241.866 319.093 550.035 328.611 354.800 179.150 309.639 328.614 217.283 948.412 303.953 916.132 313.017 295.361 282.946 267.069 379.481 412.142 805.910 325.127 247.333 257.468 314.428 531.102 640.658 457.574 292.035 899.069 190.979 143.767 241.031 265.876 832.888 310.199 691.465 314.729 444.621 467.996 362.923 379.956 191.936 549.822 312.684 803.328 961.196 194.141 579.378 301.345 414.316 30.493 557.709 599.168 355.113 359.344 263.386 169.968 791.560 333.461 298.147 207.775 664.694 253.191 445.236 272.023 261.850 305.324 482.249 291.962 659.231 672.171 300.194 606.615 331.235 171.418 244.170 302.056 833.320 284.464 534.446 299.907 308.005 244.078 196.252 983.707 214.712 824.607 303.523 926.801 810.351 294.018 319.034 627.803 316.323 207.224 293.200
520.155 1049.717 488.518 645.918 228.114 658.474 572.796 220.408 800.005 671.155 675.776 704.527 772.170 650.770 454.005 535.999 286.170 980.562 477.764 129.852 483.645 471.440 772.182 291.331 297.148 501.214 751.876 524.552 368.261 550.255 628.285 505.141 0.000 752.081 293.390 301.140 566.024 661.632 576.513 264.551 518.218 524.954 552.817 353.995 243.510 283.579 341.458 772.422 302.352 915.018 734.538 236.523 224.107 324.736 535.602 286.733 774.093 274.771 573.831 342.369 247.019 952.623 643.309 460.225 314.156 504.653 301.153 429.629 483.228 674.178 442.688 242.790 733.065 310.647 360.699 340.544 203.116 801.477 461.361 104.822 245.275 771.511 960.082 368.080 499.420 309.217 243.723 470.085 501.006 440.584 232.545 515.465 264.374 591.489 705.912 265.009 239.309 299.775 706.294 451.208 866.757 274.412 351.888 246.196 450.431 532.624 700.831 713.771 241.356 448.032 296.854 425.198 321.767 234.647 438.903 705.985 82.787 237.986 548.667 317.506 370.191 982.593 271.937 430.190 315.176 760.905 850.095 235.179 268.679 327.253 323.638 342.452 315.320
1002.594 442.775 774.302 758.170 525.597 303.561 467.229 520.165 1217.053 295.795 292.509 1044.141 37.085 763.021 801.907 488.182 563.123 373.620 572.225 753.089 579.750 953.880 119.392 550.466 1000.301 983.654 1181.832 499.491 850.701 526.257 862.397 328.978 746.406 0.000 571.139 558.735 1048.464 773.884 460.843 573.059 804.002 556.294 546.257 433.116 563.606 582.581 471.250 1202.379 557.920 1071.062 123.073 549.328 536.913 521.035 633.448 666.109 1059.877 579.094 466.310 511.435 568.395 345.681 877.421 694.337 546.002 1153.036 444.945 380.530 494.998 302.405 1086.855 564.166 846.395 568.695 681.384 721.963 616.889 256.110 445.903 803.788 566.651 1057.295 1116.126 448.108 833.345 555.312 668.283 325.289 811.675 853.134 609.080 613.311 517.353 263.827 1045.527 587.428 552.114 461.742 819.624 489.954 321.390 525.990 515.817 559.290 736.215 545.928 813.082 827.101 554.161 860.582 585.202 425.385 498.137 556.023 1087.287 345.955 788.412 536.670 561.971 498.045 450.218 1138.637 468.679 1078.573 557.490 1180.768 965.280 547.985 573.001 864.566 570.290 461.191 547.167
519.207 909.366 321.632 479.032 87.762 518.122 379.066 80.056 764.383 530.803 537.150 591.471 631.818 483.883 349.237 405.631 65.560 840.211 257.154 286.326 263.035 470.492 631.831 125.116 563.984 501.789 729.162 372.973 367.313 329.645 611.899 364.789 279.643 611.729 0.000 79.725 565.076 494.746 394.814 76.650 351.332 327.796 422.449 213.643 60.101 113.360 201.106 749.709 80.937 748.132 594.187 66.303 83.756 104.126 314.991 154.297 607.207 57.650 380.101 129.868 106.667 812.272 626.923 443.838 92.741 670.390 160.801 299.863 262.617 543.809 603.467 102.438 566.179 142.751 379.527 256.539 150.126 650.850 309.782 337.026 104.924 604.625 793.196 206.031 380.674 15.827 159.833 329.734 359.005 387.710 103.664 294.854 124.022 451.137 592.856 61.266 68.427 159.423 539.408 320.840 716.130 134.061 139.388 48.507 283.545 312.014 533.944 546.885 62.684 395.158 81.895 284.846 109.266 94.295 607.252 492.349 321.650 163.666 328.057 105.005 203.687 815.707 131.586 611.810 131.545 728.098 683.208 76.744 98.460 428.249 108.679 202.100 93.906
535.749 854.900 338.175 495.575 104.305 463.657 342.832 96.599 780.926 476.338 482.685 608.013 577.353 500.426 365.780 387.628 59.667 785.745 240.858 302.869 246.739 487.035 577.365 51.276 580.527 518.332 745.705 321.636 383.856 313.350 628.441 310.324 296.186 557.264 38.153 0.000 581.619 511.289 358.581 93.193 367.875 287.631 404.446 159.178 76.643 77.010 156.214 766.252 24.934 764.675 539.721 82.846 100.298 87.831 298.696 170.839 623.749 74.193 343.868 89.703 123.210 757.806 643.465 460.381 13.016 686.933 118.059 281.860 246.322 492.581 620.010 118.981 582.722 63.025 396.070 273.082 166.669 606.660 258.445 353.568 121.467 621.167 809.739 154.694 397.217 22.326 176.376 275.268 375.548 404.253 120.207 278.559 77.742 396.672 609.399 77.809 84.970 104.958 555.951 302.837 671.940 72.333 99.223 65.049 300.088 295.719 550.487 563.428 79.227 411.701 52.215 230.381 69.101 110.838 623.795 476.054 338.192 180.209 311.762 64.840 152.350 832.250 92.185 628.353 51.820 744.641 699.751 93.287 115.003 444.792 37.304 157.207 14.181
94.068 1348.301 697.470 931.617 526.698 957.058 861.269 518.991 789.170 969.739 976.086 731.830 1070.754 936.469 611.349 844.566 547.764 1279.146 739.357 505.275 745.238 271.424 1070.766 589.915 733.149 490.380 741.042 823.136 245.536 811.849 950.228 803.725 550.504 1050.665 591.974 562.733 0.000 947.332 875.097 563.135 698.876 810.000 861.384 652.578 542.093 582.163 640.042 761.588 563.945 947.025 1033.122 535.106 522.691 586.329 797.195 442.554 859.097 573.355 862.304 612.072 545.603 1251.207 965.252 782.168 575.749 388.841 599.737 738.799 744.821 982.745 323.464 541.374 1018.765 609.231 715.779 497.888 501.700 1100.061 759.945 586.166 543.859 872.303 992.089 666.664 650.624 585.059 399.544 768.669 658.350 536.848 509.579 777.058 562.958 890.073 753.266 502.129 537.893 598.359 991.994 759.775 1165.341 572.996 621.591 531.206 688.868 794.218 986.530 999.470 539.939 539.231 595.438 723.782 591.470 533.231 325.703 974.553 570.790 559.929 810.261 587.209 668.774 1014.600 570.521 334.416 613.760 750.071 1090.059 533.763 567.263 776.727 600.037 641.035 576.914
889.058 726.793 386.293 13.833 480.408 565.094 479.658 472.701 517.304 559.243 804.459 656.132 747.205 22.342 413.898 775.801 474.966 657.638 355.064 644.283 360.945 836.336 667.474 517.623 921.941 795.970 527.150 498.577 737.165 427.555 974.126 632.098 637.600 741.902 521.263 491.722 934.928 0.000 495.407 474.742 415.993 473.424 792.619 496.785 439.342 511.452 523.677 501.429 492.934 356.158 640.674 464.396 476.401 433.907 324.479 519.674 430.284 502.645 480.693 453.258 499.313 629.699 989.150 806.065 504.738 1040.241 497.373 670.034 394.302 814.354 973.319 495.084 131.491 534.384 739.676 501.242 508.083 497.917 480.319 694.982 497.569 435.501 401.222 465.548 445.336 514.048 529.685 597.042 423.666 541.976 473.516 304.342 516.667 697.565 657.518 426.524 461.949 493.132 104.720 691.010 446.211 523.573 459.374 442.029 348.206 409.924 68.746 112.197 459.876 539.766 524.728 567.988 439.047 486.941 977.103 570.730 679.606 521.623 425.967 434.786 467.659 423.733 480.359 969.767 523.179 537.125 250.377 473.936 496.552 786.206 529.026 524.671 505.903
854.126 676.150 542.328 521.750 379.046 276.530 100.782 373.614 984.807 279.118 432.789 812.167 527.456 526.601 569.934 514.790 371.881 606.995 235.689 606.539 243.215 805.412 491.472 389.640 889.268 804.323 949.586 81.896 702.233 124.139 802.442 260.427 599.856 507.368 407.951 375.907 899.996 537.464 0.000 419.440 572.029 138.699 531.608 288.802 398.321 420.386 324.700 970.133 391.989 833.564 446.983 402.777 390.362 329.793 281.128 489.216 827.630 432.543 101.818 281.940 421.844 579.056 817.466 634.382 382.814 1005.310 298.395 320.575 148.906 442.684 938.387 417.615 608.897 406.401 621.429 489.989 470.339 385.779 152.699 657.238 420.101 825.048 878.628 271.054 601.371 392.124 494.753 255.790 579.702 621.161 438.584 276.775 370.802 270.574 813.553 396.186 405.564 315.191 582.126 429.999 451.059 379.439 272.420 386.727 504.242 164.663 576.662 589.602 404.574 628.608 422.014 281.071 302.542 409.472 940.736 227.277 641.862 476.715 180.705 306.803 273.165 901.138 322.129 932.023 395.196 948.522 727.782 401.434 426.451 753.533 407.102 316.877 383.979
522.197 890.375 324.622 482.023 69.447 499.132 382.056 61.065 767.374 511.812 518.160 594.461 612.827 486.874 352.228 386.640 68.551 821.220 260.144 289.317 266.025 473.483 612.840 76.602 566.975 504.780 732.153 365.210 370.304 332.636 593.584 345.798 282.634 592.739 50.892 83.520 568.067 497.737 397.805 0.000 354.323 330.787 403.458 194.652 63.091 64.846 182.116 752.700 84.732 751.123 575.196 24.971 60.270 107.117 317.982 157.287 610.197 32.273 383.092 132.859 109.296 793.281 608.608 425.523 96.536 673.381 141.811 280.873 265.608 524.819 606.458 105.066 569.170 95.918 361.212 259.529 153.117 642.135 302.019 340.016 107.552 607.615 796.187 208.738 383.665 66.719 162.824 310.743 361.996 390.701 106.655 297.845 79.892 432.147 595.847 64.257 71.418 140.433 542.399 301.849 707.415 89.750 142.379 51.497 286.536 315.005 536.935 549.876 65.675 398.148 54.356 265.856 112.257 96.924 610.243 495.340 324.640 166.657 331.048 107.996 206.678 818.697 112.595 614.801 95.032 731.088 686.199 69.448 49.946 431.240 81.140 183.109 97.701
645.536 1080.215 86.301 430.196 358.394 716.107 553.571 350.688 479.419 718.695 748.845 269.003 843.513 435.047 98.022 653.788 352.953 1011.060 431.659 513.926 437.540 496.725 843.526 395.609 799.928 456.359 444.198 549.856 479.917 504.150 852.112 576.484 515.587 823.424 399.250 369.709 691.405 445.910 569.319 352.729 0.000 524.703 670.606 425.338 317.329 389.439 422.374 464.744 370.921 463.168 805.882 342.383 354.388 311.893 489.497 330.174 322.242 380.631 554.606 331.245 377.300 983.121 867.136 684.052 382.725 796.719 384.219 548.020 437.123 758.741 729.797 373.070 517.343 412.371 617.663 235.916 386.070 825.356 517.549 572.969 375.556 319.660 508.232 413.799 71.777 392.035 317.932 541.429 42.031 202.365 351.502 469.360 394.654 662.832 270.389 304.511 339.936 371.118 490.572 568.997 799.633 401.559 340.261 320.015 134.519 486.519 485.108 498.048 337.862 200.155 402.714 496.541 317.034 364.928 733.581 666.854 557.593 399.609 502.562 312.773 411.454 530.742 358.345 742.294 401.166 441.670 398.244 351.922 374.539 664.193 407.013 423.367 383.890
777.197 704.707 464.235 443.656 314.141 305.088 88.784 308.708 906.713 307.675 480.760 734.074 575.427 448.507 491.840 528.838 294.952 635.552 157.596 541.633 165.121 728.483 520.029 312.710 821.974 726.229 871.492 85.069 625.303 104.200 817.466 308.398 534.950 555.339 331.022 298.977 823.066 459.370 104.533 342.511 493.935 0.000 545.656 232.901 321.391 343.456 259.794 892.039 315.059 755.470 475.540 332.164 325.457 252.864 218.819 412.287 749.537 367.062 89.820 205.011 356.939 607.613 832.490 649.406 305.885 928.380 233.489 368.546 70.812 490.655 861.458 352.710 530.803 329.472 593.306 411.896 405.433 414.336 155.872 592.332 355.195 746.955 800.534 201.665 523.278 315.195 417.824 302.006 501.608 543.067 361.654 198.682 305.897 318.545 735.460 319.256 329.717 250.286 504.032 444.047 479.616 314.534 195.491 309.797 426.148 86.569 498.569 511.509 327.644 550.515 345.084 281.728 225.612 344.567 865.242 255.834 576.956 421.656 102.612 229.873 203.775 823.045 257.223 867.117 318.266 870.428 649.689 336.529 361.545 686.239 330.172 260.787 307.049
801.362 823.930 615.826 773.226 324.365 474.839 498.857 318.933 1058.577 487.519 268.785 885.665 527.775 778.078 643.431 33.427 398.033 754.775 493.850 549.565 499.731 752.648 527.787 349.234 772.301 782.422 1023.356 509.818 649.469 553.801 417.639 342.776 542.882 507.686 396.480 400.259 847.232 788.940 492.471 371.827 645.526 510.220 0.000 339.260 362.374 381.349 324.267 1043.903 399.444 1042.326 490.143 348.096 335.681 362.559 551.688 464.877 901.401 377.862 497.938 364.432 367.163 726.835 432.663 288.248 385.901 949.512 283.961 230.319 494.329 267.186 885.623 362.934 860.373 368.550 400.161 563.487 415.657 617.842 446.627 600.264 365.419 898.819 1087.390 353.345 674.869 396.836 467.051 339.087 653.199 694.658 407.848 531.551 316.121 407.854 887.051 393.413 350.882 304.668 833.602 215.443 683.122 324.758 373.951 358.059 577.739 536.170 828.139 841.079 352.929 702.106 399.945 347.322 343.830 354.791 883.762 522.350 584.888 308.670 552.213 339.569 355.456 1109.901 294.001 875.049 373.079 1022.292 977.403 346.753 371.769 619.752 411.814 325.260 379.614
619.291 732.590 390.999 487.984 142.294 341.346 269.520 136.862 833.750 354.027 360.375 660.838 455.042 492.836 418.604 356.991 179.820 663.435 205.309 369.786 211.190 570.577 455.055 167.163 652.515 600.351 798.530 221.277 467.398 265.260 645.620 188.013 363.103 434.953 187.836 175.432 665.161 503.698 273.238 189.756 420.699 221.679 373.809 0.000 180.303 199.278 52.088 819.076 174.617 799.798 417.411 166.025 153.610 137.732 263.147 282.806 676.574 195.791 270.556 128.132 185.092 635.496 660.644 477.559 162.699 769.733 61.643 229.031 205.788 370.270 703.552 180.863 575.131 185.392 421.459 338.660 233.586 484.349 158.086 420.485 183.348 673.992 844.862 64.805 450.042 172.009 284.980 152.958 428.372 469.831 225.777 243.010 134.050 274.361 662.224 204.125 168.811 78.439 548.360 272.200 549.629 142.687 132.514 175.988 352.912 247.629 542.897 555.837 170.858 477.279 201.899 101.854 114.834 172.720 703.984 388.857 405.109 252.197 263.672 114.742 66.915 867.373 85.376 695.270 174.187 797.465 694.017 164.682 189.698 516.781 186.987 40.128 163.864
481.622 881.076 289.001 446.401 59.473 489.833 373.697 51.766 731.752 502.513 508.861 558.840 603.528 451.253 316.606 377.341 60.192 811.921 251.785 232.117 257.666 432.907 603.541 101.397 514.672 462.681 696.532 355.911 329.728 324.276 566.857 336.499 225.434 583.440 99.452 75.161 527.491 462.115 389.445 52.931 318.701 322.428 394.159 185.353 0.000 89.641 172.817 717.078 76.373 715.501 565.897 42.584 55.466 98.757 309.623 145.136 574.576 80.833 374.732 124.499 77.733 783.982 581.881 398.797 88.177 632.064 132.512 271.574 257.249 515.520 565.882 73.504 533.549 120.713 332.407 235.530 95.917 632.836 292.720 282.816 75.989 571.994 760.565 199.439 348.044 97.487 147.310 301.444 326.374 366.701 88.107 289.486 95.733 422.848 560.226 55.572 40.138 131.134 506.778 292.550 698.116 105.771 134.019 20.217 250.915 306.645 501.314 514.254 38.064 374.148 102.916 256.557 103.897 66.006 566.314 486.980 267.440 114.354 322.688 99.637 198.318 783.076 103.296 557.601 125.242 695.467 650.578 52.124 74.741 378.938 112.465 173.810 89.342
573.836 887.664 387.881 545.281 99.788 496.421 389.616 91.406 830.632 509.102 515.449 657.720 610.117 550.133 415.486 384.701 116.965 818.509 287.642 324.331 293.523 525.122 610.129 36.146 607.060 554.895 795.411 359.310 421.942 360.133 623.548 343.088 317.648 590.028 91.485 79.081 619.705 560.995 405.364 109.258 417.581 334.415 401.519 191.941 118.532 0.000 180.177 815.958 78.266 814.381 572.485 103.027 90.612 134.614 345.480 224.172 673.456 87.541 390.651 136.487 139.637 790.570 638.572 455.488 64.341 724.278 139.871 278.933 293.106 522.879 658.097 135.408 632.428 38.329 391.176 326.414 188.131 639.424 296.119 375.030 137.893 670.874 859.445 192.368 446.924 75.658 229.708 308.032 425.254 457.585 173.539 325.343 62.612 429.436 659.106 131.141 105.813 137.722 605.657 299.910 704.704 57.203 146.006 112.989 349.794 342.503 600.194 613.134 107.860 465.033 83.496 263.145 115.885 127.265 658.528 522.838 359.654 206.742 358.546 111.624 190.024 881.956 109.884 649.815 44.176 794.347 749.458 99.789 39.514 471.325 90.636 181.170 58.055
601.962 771.433 384.894 514.419 124.965 380.190 295.955 119.533 827.646 392.870 399.218 654.733 493.885 519.270 412.500 335.654 173.716 702.278 231.744 352.457 237.625 553.248 493.898 149.834 635.186 583.022 792.425 247.711 450.069 291.694 624.282 226.856 345.774 473.797 181.732 169.327 647.832 530.133 299.672 172.427 414.595 248.114 352.472 47.919 162.974 181.949 0.000 812.971 168.512 811.395 456.254 148.696 136.281 131.628 289.582 265.477 670.469 178.462 296.990 133.500 167.763 674.339 639.306 456.222 156.594 752.404 40.305 198.612 232.223 409.113 686.223 163.534 601.566 169.150 404.130 332.555 216.257 523.193 184.520 403.156 166.019 667.887 856.459 91.239 443.937 165.904 267.651 191.801 422.268 463.727 208.448 269.445 116.721 313.205 656.119 194.013 151.482 57.102 574.795 250.863 588.473 125.358 143.020 158.659 346.808 274.064 569.331 582.272 153.529 471.174 195.794 103.662 112.898 155.391 686.655 427.701 387.780 234.868 290.107 108.637 93.350 878.969 79.272 677.941 168.082 791.360 720.451 147.353 172.369 499.452 180.882 7.791 157.759
770.932 1178.185 498.622 489.031 736.285 1016.486 930.593 728.579 27.582 1010.635 1126.737 200.534 1198.597 492.288 449.408 1031.679 730.844 1109.030 805.999 795.368 811.880 533.368 1118.867 773.500 1109.797 431.011 25.721 927.747 607.105 878.490 1212.373 954.375 812.649 1193.294 777.141 747.600 788.953 477.358 946.341 730.620 449.108 902.594 1048.497 803.229 695.220 767.330 800.265 0.000 748.812 185.436 1092.066 720.274 732.279 689.784 775.413 685.721 144.721 758.523 931.628 709.136 755.191 1081.091 1227.397 1044.313 760.616 930.671 762.110 925.911 815.014 1136.632 863.749 750.961 529.643 790.262 977.923 591.463 763.844 949.309 895.440 870.031 753.447 157.927 230.501 791.690 407.324 769.926 664.740 919.320 459.502 533.478 729.393 755.276 772.545 1040.723 221.970 682.402 717.827 749.010 502.872 946.888 897.603 779.451 718.152 697.906 517.611 860.859 498.085 502.643 715.753 514.131 780.605 874.433 694.925 742.819 867.533 1022.122 854.655 777.500 876.902 690.664 789.345 253.011 736.236 876.246 779.057 35.696 341.836 729.814 752.430 1038.872 784.904 801.258 761.781
526.073 916.232 328.498 485.898 94.628 524.988 385.932 86.922 771.249 537.669 544.017 598.337 638.684 490.749 356.103 412.497 68.977 847.077 264.020 293.192 269.901 477.359 638.697 131.338 570.850 508.655 736.028 379.839 374.179 336.511 618.765 371.655 286.509 618.595 39.418 80.062 571.942 501.612 401.680 83.516 358.198 334.662 429.315 220.509 66.967 120.226 207.972 756.575 0.000 754.998 601.053 73.170 90.622 110.992 321.857 161.163 614.073 79.759 386.967 136.734 113.534 819.138 633.789 450.705 93.078 677.256 167.667 306.729 269.483 550.675 610.334 109.304 573.045 143.088 386.393 263.405 156.992 657.717 316.648 343.892 111.790 611.491 800.062 212.897 387.541 32.483 166.699 336.600 365.871 394.576 110.530 301.720 130.888 458.003 599.723 68.132 75.293 166.290 546.274 327.706 722.997 140.927 146.254 55.373 290.411 318.880 540.810 553.751 69.550 402.024 105.306 291.713 116.132 101.161 614.118 499.215 328.516 170.532 334.923 111.871 210.553 822.573 138.452 618.676 131.882 734.964 690.074 83.610 105.326 435.115 117.366 208.966 94.243
950.409 1039.907 529.443 350.753 747.665 878.208 792.315 739.958 195.352 872.357 1117.116 380.010 1060.319 354.009 558.510 1043.058 742.223 970.752 667.721 911.541 673.602 712.845 980.589 784.880 1189.198 610.488 205.197 811.233 786.581 740.212 1241.383 944.754 904.857 1055.016 788.521 758.980 968.430 339.080 808.063 742.000 460.488 786.080 1059.877 809.441 706.600 778.710 811.645 179.477 760.192 0.000 953.788 731.653 743.658 701.164 637.135 785.404 156.101 769.902 793.350 720.516 766.570 942.813 1256.407 1073.323 771.995 1110.147 773.489 937.291 706.959 1127.011 1043.225 762.341 391.365 801.642 1006.933 696.404 775.341 811.031 792.976 962.240 764.826 169.307 49.464 778.205 532.265 781.306 778.420 909.699 502.519 662.853 740.773 616.998 783.925 1010.221 401.446 693.781 729.206 760.389 364.594 958.268 759.325 790.830 729.532 709.286 528.991 722.581 359.807 364.365 727.133 660.644 791.985 880.645 706.304 754.198 1047.010 883.844 946.864 788.880 738.624 702.043 780.315 71.974 747.616 1055.723 790.436 215.172 203.558 741.193 763.809 1053.463 796.283 812.638 773.160
977.345 441.665 749.053 653.353 500.348 180.488 377.477 494.916 1127.391 172.722 267.260 1018.892 156.254 658.204 776.658 462.932 537.874 372.510 521.267 727.840 528.793 928.631 44.489 525.217 975.052 958.405 1137.237 459.292 825.451 404.484 837.148 303.729 721.157 119.170 545.890 533.486 1023.215 669.067 411.564 547.810 778.753 511.229 521.008 407.867 538.357 557.332 446.001 1111.516 532.671 966.245 0.000 524.079 511.664 495.786 554.488 640.860 1034.628 553.845 381.019 486.186 543.146 344.571 852.172 669.088 520.753 1127.787 419.696 355.281 459.343 277.156 1061.606 538.917 741.578 543.446 656.134 696.714 591.640 151.293 420.654 778.539 541.402 1032.046 1011.309 422.859 808.096 530.063 643.034 300.040 786.426 827.885 583.831 550.483 492.104 238.578 1020.278 562.179 526.865 436.493 714.807 464.705 216.573 500.741 490.567 534.041 710.966 450.240 708.265 722.284 528.912 835.333 559.953 400.136 472.888 530.774 1062.037 222.881 763.163 511.421 466.283 472.796 424.969 1033.820 443.430 1053.324 532.241 1147.212 860.464 522.736 547.752 839.317 545.041 435.942 521.918
525.705 872.586 330.598 487.998 51.658 481.343 388.032 43.276 773.349 494.023 500.371 600.437 595.038 492.850 358.203 368.851 74.527 803.431 266.120 276.201 272.001 476.991 595.051 58.812 558.930 506.765 738.128 347.421 373.812 338.611 575.794 328.009 269.517 574.950 56.868 89.496 571.575 503.712 399.381 28.028 360.298 336.763 385.669 176.863 69.067 47.056 164.327 758.675 90.708 757.098 557.407 0.000 42.481 113.092 323.958 163.263 616.173 38.249 389.067 138.834 91.506 775.492 590.818 407.734 95.479 676.148 124.021 263.083 271.584 507.029 609.966 87.277 575.145 78.128 343.422 265.505 140.001 624.345 284.230 326.900 89.762 613.591 802.162 190.948 389.641 72.695 168.800 292.954 367.971 396.676 112.630 303.821 62.103 414.357 601.823 70.233 57.682 122.644 548.374 284.060 689.625 71.961 148.354 57.473 292.511 320.980 542.911 555.851 59.729 404.124 60.332 248.067 118.232 79.134 610.398 501.315 311.524 158.611 337.023 113.971 193.059 824.673 94.806 601.685 82.657 737.064 692.175 51.658 32.156 423.195 87.115 165.320 89.193
487.641 852.568 307.715 465.115 31.640 461.325 375.646 23.258 750.466 474.006 480.353 577.554 575.021 469.966 335.320 348.833 62.352 783.413 253.945 238.136 259.827 438.927 575.033 71.227 520.865 468.701 715.245 327.403 335.747 326.437 555.777 307.992 231.453 554.932 69.283 77.322 533.511 480.829 379.364 40.444 337.415 324.588 365.651 156.845 27.921 59.472 144.309 735.792 78.533 734.215 537.389 12.415 0.000 100.918 311.783 150.763 593.289 50.664 376.682 126.660 53.442 755.474 570.801 387.717 90.337 638.083 104.004 243.066 259.409 487.012 571.902 49.213 552.262 90.543 323.405 253.005 101.936 604.328 264.212 288.835 51.698 590.707 779.279 170.931 366.757 85.110 153.330 272.936 345.088 384.176 94.127 291.646 67.225 394.340 578.939 57.732 15.201 102.626 525.491 264.043 669.608 77.263 136.180 22.378 269.628 308.806 520.027 532.968 17.248 391.624 72.747 228.049 106.058 41.070 572.333 489.141 273.459 120.547 324.849 101.797 173.041 801.790 74.788 563.620 95.072 714.181 669.291 11.072 44.571 385.130 99.530 145.302 91.502
546.172 832.035 275.106 432.506 118.028 440.792 296.779 110.322 717.857 453.472 459.820 544.945 554.487 437.358 302.711 364.762 63.927 762.880 174.867 313.292 180.748 497.458 554.500 106.584 590.950 528.755 682.636 291.715 394.279 247.358 637.774 287.458 306.609 534.399 124.896 92.215 592.042 448.220 312.528 111.486 304.806 245.659 381.580 136.312 90.366 137.330 133.348 703.183 93.426 701.606 516.856 101.140 114.021 0.000 232.705 181.262 560.681 139.389 297.814 48.234 136.933 734.941 652.798 469.714 99.758 697.355 95.193 258.995 180.331 469.715 630.433 132.704 519.653 123.346 405.402 222.767 177.092 568.564 228.524 363.991 135.189 558.099 746.670 124.773 334.149 109.068 186.799 252.403 312.479 353.938 130.630 212.568 117.943 373.807 546.331 88.232 98.693 82.093 492.882 279.971 633.844 112.534 57.250 78.772 237.019 229.728 487.419 500.359 96.619 361.386 138.958 207.516 28.008 124.561 634.218 410.063 348.615 190.631 245.771 23.747 122.429 769.181 69.320 638.776 112.140 681.572 636.683 110.680 133.296 455.215 124.046 134.342 100.923
758.030 765.131 435.742 301.571 329.886 365.511 205.657 322.179 764.628 368.099 557.339 705.581 652.007 306.422 463.347 557.584 275.785 695.976 110.634 525.150 120.876 709.316 580.453 318.441 802.808 697.736 729.407 240.730 606.137 153.554 846.213 384.978 518.467 631.918 336.753 304.072 803.900 317.285 221.405 323.344 465.442 226.304 574.403 261.648 302.224 349.188 288.540 749.954 305.284 613.385 535.963 312.997 325.879 234.725 0.000 393.120 607.452 351.246 206.692 233.757 348.791 668.037 861.237 678.153 311.616 909.213 262.236 438.761 147.182 567.234 842.291 344.562 388.718 335.203 617.260 383.403 388.950 474.759 233.199 575.849 347.047 604.870 658.449 230.411 494.785 320.926 398.657 349.922 473.115 514.574 342.487 39.247 329.801 450.445 706.967 300.090 310.551 279.032 361.947 472.794 540.039 324.392 224.237 290.630 397.655 162.805 356.483 369.424 308.477 522.022 350.816 329.645 239.866 336.419 846.075 316.258 560.473 402.489 161.003 235.605 232.522 680.960 281.178 850.634 323.998 728.343 507.603 322.537 345.154 667.073 335.904 289.534 312.781
415.086 990.185 331.230 512.587 168.582 598.942 459.389 160.875 696.458 611.623 617.970 495.631 712.638 517.439 245.109 486.450 145.884 921.030 337.477 283.476 343.358 366.372 712.650 210.506 575.861 397.668 648.330 453.296 263.192 409.968 671.108 445.609 278.713 692.549 199.006 160.853 460.955 528.301 475.138 162.040 332.636 408.120 503.268 294.462 140.920 198.750 281.926 668.876 162.065 773.495 675.006 151.694 164.575 184.449 395.315 0.000 632.570 189.942 460.424 210.192 187.487 893.091 686.132 503.048 173.869 566.269 241.621 380.683 342.941 624.629 499.347 183.258 599.734 223.879 436.658 131.648 144.339 731.174 390.106 336.095 185.743 629.988 818.559 286.355 290.524 183.179 55.713 410.553 292.110 247.786 107.699 375.178 204.842 531.957 497.016 100.249 149.247 240.243 572.963 401.659 796.454 214.880 219.711 129.326 308.909 392.338 567.500 580.440 147.173 255.234 212.025 365.666 189.590 175.115 503.131 572.673 320.719 218.605 408.381 185.329 284.010 841.070 212.405 511.844 212.673 657.359 708.572 161.233 183.850 483.188 198.157 282.919 175.034
869.586 1110.300 380.731 421.146 598.953 948.601 794.129 591.246 157.176 942.750 989.404 285.729 1084.071 424.402 409.798 894.346 593.511 1041.145 672.217 762.828 678.098 632.022 1050.981 636.168 1040.486 529.665 121.956 790.414 705.759 744.709 1092.671 817.042 756.145 1063.983 639.809 610.268 887.607 409.473 809.878 593.287 311.776 765.261 911.164 665.896 557.887 629.998 662.932 142.502 611.479 156.549 1024.181 582.941 594.946 552.452 647.783 636.691 0.000 621.190 795.165 571.803 617.858 1013.206 1107.695 924.610 623.283 1029.325 624.777 788.579 677.681 999.299 962.402 613.629 461.758 652.930 858.221 547.692 626.628 881.424 758.108 813.528 616.114 13.206 201.613 654.357 383.552 632.593 629.707 781.987 353.806 514.141 592.061 627.646 635.213 903.391 307.165 545.069 580.494 611.677 434.987 809.555 829.718 642.118 580.820 560.574 380.278 727.078 430.200 434.758 578.421 511.931 643.273 737.100 557.592 605.486 966.187 907.413 798.151 640.168 743.121 553.331 652.013 224.124 598.904 974.900 641.724 120.891 249.305 592.481 615.097 904.751 647.571 663.926 624.448
525.109 915.268 327.534 484.934 93.664 524.024 384.968 85.958 770.285 536.705 543.053 597.373 637.720 489.785 355.139 411.533 71.462 846.113 263.056 292.229 268.937 476.395 637.733 103.791 569.886 507.691 735.064 378.875 373.215 335.547 617.801 370.691 285.545 617.631 29.445 85.627 570.978 500.648 400.716 82.552 357.234 333.699 428.351 219.545 66.003 112.640 207.008 755.611 86.839 754.034 600.089 72.206 89.658 110.028 320.893 160.199 613.109 0.000 386.003 135.770 112.570 818.174 632.825 449.741 95.907 676.292 166.703 305.765 268.520 549.711 609.370 108.340 572.081 111.135 385.429 262.441 156.029 656.753 315.684 342.928 110.826 610.527 799.098 211.933 386.577 45.272 165.736 335.636 364.907 393.612 109.566 300.757 129.924 457.039 598.759 67.168 74.329 165.326 545.310 326.742 722.033 124.848 145.290 54.409 289.447 317.916 539.847 552.787 68.586 401.060 32.909 290.749 115.168 100.198 613.154 498.251 327.552 169.568 333.959 110.907 209.589 821.609 137.488 617.712 92.393 734.000 689.110 82.646 104.362 434.151 59.693 208.002 89.621
850.503 614.888 529.198 484.301 375.423 215.268 20.091 369.991 947.358 217.856 429.166 799.037 523.833 489.152 556.803 511.167 368.258 545.733 198.241 602.916 205.766 801.789 430.210 386.016 885.645 791.192 912.137 78.273 698.610 79.120 798.819 256.804 596.232 503.745 404.328 372.284 896.373 500.015 30.545 415.817 558.898 135.076 527.985 285.179 394.697 416.762 321.076 932.684 388.365 796.115 385.720 399.154 386.739 326.170 231.462 485.593 790.182 428.920 0.000 278.317 418.221 517.794 813.843 630.759 379.191 1001.686 294.772 316.952 136.317 439.061 934.764 413.992 571.448 402.778 617.806 476.859 466.716 324.516 149.076 653.615 416.477 787.600 841.179 267.431 588.241 388.501 491.130 252.167 566.571 608.030 434.961 227.457 367.179 266.787 800.423 392.563 401.941 311.568 544.677 426.376 389.796 375.816 268.797 383.103 491.111 127.214 539.213 552.154 400.950 615.478 418.391 277.447 298.919 405.849 937.113 166.015 638.239 473.092 143.257 303.180 269.542 863.690 318.506 928.400 391.573 911.073 690.334 397.811 422.827 749.910 403.479 313.254 380.356
572.186 825.294 294.929 452.329 127.353 434.050 253.129 121.921 737.680 446.731 453.078 564.768 547.746 457.180 322.534 365.878 89.941 756.139 181.558 339.306 187.440 523.472 547.758 107.699 616.964 554.769 702.459 249.414 420.293 241.509 638.890 280.717 332.623 527.657 126.011 93.967 618.056 468.043 268.878 137.500 324.629 197.928 382.696 129.571 116.380 138.445 134.464 723.006 110.048 721.429 510.114 127.154 138.669 47.853 239.396 207.276 580.504 162.051 254.165 0.000 162.947 728.200 653.914 470.830 100.874 723.369 96.309 260.110 182.037 462.974 656.447 158.718 539.476 124.461 406.518 242.590 203.106 562.715 192.073 390.005 161.203 577.922 766.493 102.875 353.972 110.184 212.813 245.662 332.302 373.761 156.644 219.259 119.059 367.065 566.154 114.246 124.707 83.209 512.705 281.087 627.995 113.650 9.520 104.786 256.842 223.878 507.242 520.182 122.633 381.209 140.074 200.774 20.602 150.575 660.231 404.213 374.629 216.645 239.921 24.863 100.530 789.004 70.436 664.790 113.256 701.395 656.505 136.693 159.310 481.229 125.162 135.457 102.039
532.765 893.074 352.630 510.030 78.372 501.830 422.677 70.666 795.381 514.511 503.458 622.469 615.526 514.881 380.235 363.681 142.166 823.919 333.759 283.260 339.640 484.051 615.539 141.589 510.164 513.825 760.160 374.434 380.872 406.250 545.533 355.023 276.577 595.437 150.533 157.135 578.635 525.744 426.395 121.694 382.330 374.836 380.499 203.876 91.181 140.722 191.340 780.707 158.347 779.130 577.895 93.666 81.251 180.731 391.597 196.280 638.205 131.915 423.713 192.250 0.000 795.980 560.557 377.473 170.151 683.207 151.035 257.311 339.223 501.860 617.026 40.190 597.177 160.905 313.161 299.158 147.060 644.833 311.243 333.959 17.094 635.623 824.194 217.962 411.673 166.360 198.454 319.967 390.003 430.330 139.251 371.460 114.256 434.845 623.855 137.546 96.452 149.657 570.406 278.890 710.113 124.294 201.770 102.191 314.543 388.619 564.943 577.883 98.499 437.777 153.997 275.080 171.649 42.043 617.458 549.341 318.583 94.398 404.662 167.388 220.072 846.705 121.819 608.744 165.434 759.096 714.206 92.323 125.822 374.429 180.781 192.333 171.315
1204.391 110.367 944.148 626.070 727.394 353.714 513.947 721.962 1100.108 347.863 507.471 1213.987 336.740 630.922 971.754 703.143 764.921 77.373 657.736 954.887 665.262 1155.677 378.502 752.263 1202.098 1185.451 1109.954 595.761 1052.498 540.953 1064.194 530.776 948.204 331.438 772.937 760.532 1250.261 641.784 548.033 774.857 973.849 647.699 761.218 634.914 765.403 784.378 673.047 1084.233 759.717 938.962 351.701 751.125 738.710 722.833 690.958 867.906 1013.089 780.891 517.488 713.233 770.192 0.000 1079.218 896.134 747.799 1354.834 646.743 582.327 595.813 517.366 1288.652 765.963 714.295 770.493 883.181 923.760 818.687 218.158 647.700 1005.586 768.448 1018.305 984.026 649.905 1003.191 757.109 870.080 527.087 981.522 1054.932 810.877 686.952 719.150 465.624 1215.373 789.225 753.912 663.539 687.524 691.751 195.948 727.787 717.614 761.088 906.062 586.710 680.983 695.001 755.958 1062.379 786.999 627.182 699.934 757.820 1289.084 359.350 990.210 738.467 602.753 699.842 652.016 1006.537 670.477 1280.371 759.287 1119.929 833.181 749.782 774.798 1066.363 772.087 662.988 748.964
927.954 1169.947 828.308 985.708 547.862 778.704 802.722 542.430 1207.804 791.384 693.086 1098.146 892.399 990.559 855.913 457.728 621.530 1100.792 790.938 658.126 796.820 879.240 892.412 590.358 699.177 909.014 1159.676 814.286 776.061 858.269 15.574 646.642 651.443 872.311 619.977 636.499 973.824 1001.422 796.336 595.324 858.008 814.688 474.546 643.728 583.299 610.166 628.735 1180.222 637.711 1254.808 854.768 571.593 559.178 637.911 848.776 671.957 1113.882 601.359 801.803 639.783 561.092 1072.853 0.000 205.485 627.025 1058.073 588.430 534.184 796.402 691.487 996.108 556.863 1072.855 609.674 317.398 748.344 612.607 921.707 751.095 708.826 559.348 1111.300 1299.872 657.814 887.350 635.805 651.523 642.952 865.681 848.384 614.929 828.639 561.788 711.719 1099.532 616.910 574.379 597.190 1046.084 555.764 986.987 571.827 649.303 581.555 790.221 840.638 1040.620 1053.561 576.426 855.832 623.441 651.187 619.181 566.570 992.324 826.215 693.450 505.435 856.681 614.920 659.924 1322.383 569.352 983.610 614.203 1168.705 1189.884 570.250 595.266 536.990 650.225 629.728 620.738
761.666 1003.659 662.019 819.420 381.573 612.416 636.434 376.141 1041.516 625.096 572.124 931.858 726.111 824.271 689.624 336.767 455.242 934.504 624.650 491.838 630.531 712.952 726.124 424.070 549.610 742.726 993.387 647.998 609.773 691.981 197.758 480.353 485.155 706.023 453.689 470.211 807.536 835.134 630.048 429.036 691.720 648.400 353.585 477.440 417.011 443.878 462.447 1013.934 471.423 1088.519 688.480 405.305 392.889 471.622 682.488 505.669 947.594 435.070 635.515 473.495 394.804 906.565 212.782 0.000 460.736 891.785 422.141 367.896 630.114 570.525 829.820 390.574 906.567 443.386 151.110 582.056 446.319 755.419 584.807 542.537 393.060 945.012 1133.584 491.525 721.062 469.516 485.235 476.664 699.393 682.096 448.641 662.351 395.500 545.431 933.244 450.622 408.091 430.901 879.796 389.476 820.699 405.539 483.014 415.267 623.933 674.350 874.332 887.272 410.138 689.543 457.153 484.899 452.893 400.282 826.035 659.926 527.161 339.147 690.393 448.632 493.636 1156.094 403.064 817.322 447.915 1002.417 1023.596 403.962 428.978 370.701 483.937 463.440 454.450
537.748 847.619 337.901 495.302 106.304 456.376 339.636 98.597 780.653 469.056 475.404 607.740 570.071 500.153 365.506 380.346 65.632 778.464 237.662 304.868 243.544 489.034 570.084 38.260 582.526 520.331 745.432 315.965 385.855 310.154 625.662 303.042 298.185 549.983 40.152 27.748 583.618 511.016 355.385 95.191 367.602 284.435 397.164 151.896 78.642 63.994 148.932 765.978 26.932 764.401 532.440 84.845 102.297 84.635 295.500 172.838 623.476 76.192 340.672 86.507 125.209 750.525 640.686 457.602 0.000 688.931 110.777 274.579 243.126 485.299 622.009 120.980 582.449 50.010 393.290 275.080 168.668 599.379 252.774 355.567 123.465 620.894 809.466 149.024 396.944 24.325 178.375 267.987 375.275 406.252 122.206 275.363 64.727 389.391 609.126 79.808 86.969 97.677 555.678 295.555 664.659 59.317 96.027 67.048 299.815 292.523 550.214 563.154 81.226 413.699 54.214 223.100 65.905 112.837 625.793 472.858 340.191 182.207 308.566 61.644 146.679 831.976 84.904 630.352 38.804 744.367 699.478 95.286 103.508 446.791 39.302 149.926 1.165
319.377 1398.974 748.142 982.290 577.370 1007.731 911.942 569.664 912.479 1020.411 1026.759 855.139 1121.426 987.141 662.022 895.239 598.436 1329.819 790.030 359.013 795.911 391.072 1121.439 640.587 429.574 613.689 864.350 873.809 287.892 862.521 998.324 854.397 464.244 1101.338 642.646 613.406 322.885 998.004 925.769 613.807 749.548 860.673 912.057 703.251 592.766 632.835 690.715 884.897 614.618 1070.333 1083.795 585.779 573.364 637.002 847.867 493.226 982.406 624.028 912.977 662.744 596.276 1301.880 1013.348 830.263 626.421 0.000 650.409 789.471 795.494 1033.417 22.520 592.046 1069.437 659.903 751.759 548.561 552.372 1150.733 810.618 372.867 594.532 995.611 1115.398 717.336 707.437 635.732 450.217 819.342 709.023 595.986 560.251 827.731 613.630 940.745 876.575 552.801 588.565 649.032 1042.666 810.448 1216.013 623.669 672.264 581.879 739.540 844.890 1037.202 1050.143 590.612 598.368 646.110 774.455 642.142 583.904 22.128 1025.225 381.242 608.024 860.933 637.881 719.447 1137.908 621.194 30.841 664.432 873.380 1140.732 584.436 617.935 609.135 650.709 691.708 627.586
561.657 751.021 348.500 492.563 84.659 359.778 274.100 79.227 791.251 372.459 378.806 618.338 473.474 497.415 376.105 295.349 137.321 681.866 209.888 312.152 215.770 512.943 473.486 109.529 594.881 542.716 756.030 225.856 409.763 269.839 583.977 206.445 305.469 453.385 145.337 132.933 607.526 508.278 277.817 132.122 378.200 226.258 312.167 55.299 122.668 141.644 40.305 776.577 132.117 775.000 435.842 108.391 95.975 95.233 267.726 225.171 634.074 138.156 275.135 97.105 127.458 653.927 599.001 415.917 120.199 712.099 0.000 189.581 210.367 388.702 645.918 123.228 579.711 128.845 363.824 296.160 175.952 502.781 162.665 362.851 125.714 631.492 820.064 69.384 407.542 129.510 227.345 171.389 385.873 427.332 168.143 247.589 76.415 292.793 619.724 153.708 111.177 20.707 552.940 210.558 568.061 85.052 106.625 118.353 310.413 252.208 547.476 560.416 113.224 434.779 159.399 126.502 76.503 115.086 646.349 407.289 347.475 194.563 268.251 72.242 71.495 842.574 42.877 637.636 131.687 754.966 698.596 107.048 132.064 459.146 144.487 41.299 121.364
695.587 689.101 510.051 667.451 218.590 297.857 321.875 213.158 952.802 310.538 316.885 779.890 411.553 672.303 537.656 239.994 292.258 619.946 388.075 442.814 393.956 646.873 411.566 243.459 665.550 676.647 917.581 335.471 543.694 380.904 527.646 165.795 436.131 391.464 290.705 294.484 741.457 683.165 315.490 266.052 539.751 404.445 256.812 230.849 256.599 275.574 200.430 938.128 293.669 936.551 373.922 242.321 229.906 256.784 445.913 359.102 795.626 272.087 320.956 258.657 261.388 592.007 542.670 359.586 280.126 842.761 178.186 0.000 321.375 315.886 779.848 257.159 754.598 262.775 346.633 457.712 309.882 440.860 272.280 493.513 259.644 793.044 981.615 247.570 569.094 291.061 361.276 162.106 547.424 588.883 302.073 425.776 210.346 230.872 781.276 287.638 245.107 198.893 727.827 155.203 506.140 218.983 268.176 252.284 471.964 372.306 722.364 735.304 247.154 596.331 294.170 141.038 238.055 249.016 777.011 345.368 478.137 201.919 388.348 233.794 249.681 1004.126 188.226 768.298 267.304 916.517 871.628 240.978 265.994 529.815 306.039 204.403 273.839
734.588 680.138 412.300 402.008 306.444 280.519 116.448 298.737 855.051 283.106 457.488 682.139 552.155 406.859 439.905 522.563 252.343 610.983 115.947 501.708 123.473 685.874 495.460 295.000 779.366 674.294 819.830 112.733 582.695 68.561 811.191 285.126 495.025 532.067 313.311 280.630 780.458 417.722 132.197 299.902 442.000 87.580 539.381 226.626 278.782 325.746 253.519 840.377 281.842 713.822 450.971 289.556 302.437 211.283 177.170 369.678 697.875 327.804 117.483 198.735 325.349 583.044 826.215 643.131 288.174 885.771 227.214 338.910 0.000 467.383 818.849 321.120 489.155 311.761 587.030 359.961 365.508 389.767 133.348 552.407 323.605 695.293 758.886 195.390 471.343 297.484 375.215 250.071 449.673 491.132 319.046 157.034 299.621 346.209 683.525 276.648 287.109 244.011 462.384 437.772 455.047 300.950 189.216 267.188 374.213 50.931 456.920 469.860 285.035 498.580 327.374 229.793 216.424 312.977 822.633 231.265 537.031 379.047 66.973 212.163 197.500 781.396 250.948 827.192 300.556 818.766 608.040 299.095 321.712 643.631 312.462 254.512 289.339
948.575 610.270 720.283 804.265 471.577 323.572 413.209 466.145 1163.034 336.253 27.120 990.121 314.116 809.117 747.888 243.086 509.104 541.115 518.205 699.070 525.731 899.860 314.128 496.446 925.862 929.634 1127.813 445.471 796.681 472.238 660.994 274.959 692.387 294.027 517.120 504.716 994.444 819.980 406.824 519.040 749.983 502.274 301.162 379.097 509.586 528.562 417.231 1148.360 503.900 1116.079 276.484 495.308 482.893 467.016 579.428 612.089 1005.857 525.074 412.290 457.416 514.375 513.176 676.018 531.603 491.982 1099.017 390.926 310.478 440.978 0.000 1032.835 510.146 891.413 514.676 606.945 667.943 562.870 420.932 391.883 749.769 512.632 1003.275 1161.144 394.088 779.325 501.293 614.263 271.270 757.656 799.115 555.060 559.291 463.333 209.807 991.507 533.409 498.095 407.722 864.642 369.003 486.212 471.970 461.797 505.271 682.196 491.909 859.178 872.118 500.142 806.562 531.182 371.365 444.117 502.003 1033.267 371.083 734.393 462.231 507.952 444.025 396.199 1183.654 414.660 1024.554 503.470 1126.749 1010.298 493.965 518.982 790.127 516.270 407.172 493.147
296.857 1376.454 725.623 959.770 554.851 985.211 889.422 547.144 889.960 997.891 1004.239 832.619 1098.906 964.622 639.502 872.719 575.917 1307.299 767.510 340.669 773.391 368.552 1098.919 618.068 411.230 591.169 841.831 851.289 265.373 840.001 978.381 831.877 445.900 1078.818 620.127 590.886 317.564 975.484 903.250 591.288 727.029 838.153 889.537 680.731 570.246 610.316 668.195 862.377 592.098 1047.814 1061.275 563.259 550.844 614.482 825.348 470.707 959.886 601.508 890.457 640.224 573.756 1279.360 993.405 810.321 603.902 66.922 627.890 766.952 772.974 1010.898 0.000 569.527 1046.918 637.384 733.416 526.041 529.852 1128.214 788.098 354.523 572.012 973.092 1092.878 694.817 684.917 613.212 427.697 796.822 686.503 573.466 537.732 805.211 591.111 918.226 854.056 530.282 566.046 626.512 1020.147 787.928 1193.494 601.149 649.744 559.359 717.020 822.371 1014.683 1027.623 568.092 575.849 623.591 751.935 619.623 561.384 3.784 1002.706 362.898 588.082 838.414 615.362 696.927 1115.389 598.674 12.498 641.913 850.860 1118.212 561.916 595.415 590.791 628.190 669.188 605.067
536.994 897.303 356.859 514.259 82.601 506.060 426.907 74.895 799.610 518.740 507.688 626.698 619.755 519.111 384.464 367.910 146.395 828.148 337.988 287.490 343.869 488.280 619.768 145.818 514.393 518.054 764.389 378.663 385.101 410.479 549.762 359.252 280.806 599.667 154.762 161.364 582.864 529.973 430.624 125.923 386.559 379.066 384.729 208.106 95.410 144.951 195.569 784.936 162.576 783.359 582.124 97.895 85.480 184.960 395.826 200.509 642.434 136.144 427.942 196.480 4.229 800.209 564.786 381.702 174.380 687.436 155.264 261.540 343.452 506.089 621.255 0.000 601.406 165.134 317.390 303.387 151.290 649.062 315.472 338.189 2.485 639.852 828.423 222.191 415.902 170.590 202.683 324.197 394.232 434.559 143.480 375.689 118.485 439.074 628.084 141.775 100.681 153.886 574.635 283.120 714.342 128.524 205.999 106.420 318.772 392.849 569.172 582.112 102.728 442.006 158.227 279.309 175.878 46.272 621.687 553.570 322.813 98.627 408.892 171.617 224.302 850.934 126.049 612.974 169.663 763.325 718.436 96.552 130.051 378.658 185.010 196.563 175.545
956.844 795.037 454.079 108.223 548.194 633.337 547.444 540.487 521.055 627.486 872.245 705.713 815.448 111.480 481.684 843.587 542.752 725.882 422.850 712.069 428.731 904.122 735.718 585.409 989.727 863.757 530.901 566.363 804.951 495.341 1041.912 699.884 705.386 810.146 589.050 559.509 1002.714 96.550 563.193 542.528 483.779 541.210 860.405 564.571 507.128 579.239 591.463 505.180 560.720 359.909 708.917 532.182 544.187 501.693 392.265 587.460 434.035 570.431 548.480 521.044 567.099 697.943 1056.936 873.851 572.524 1108.027 565.159 737.820 462.088 882.141 1041.105 562.870 0.000 602.171 807.462 569.028 575.869 566.160 548.105 762.769 565.355 439.251 404.973 533.334 513.122 581.834 597.471 664.828 491.452 609.762 541.302 372.128 584.454 765.351 725.304 494.310 529.735 560.918 37.763 758.796 514.454 591.359 527.160 509.815 415.992 477.711 103.684 84.884 527.662 607.553 592.514 635.774 506.833 554.727 1044.890 638.973 747.392 589.409 493.754 502.572 535.445 427.483 548.145 1037.553 590.965 540.875 254.127 541.722 564.338 853.992 596.812 592.457 573.689
560.244 868.662 360.397 517.797 112.841 477.418 362.132 107.409 803.148 490.099 496.446 630.236 591.114 522.649 388.002 385.531 88.128 799.507 260.158 327.364 266.039 511.530 591.127 36.976 605.021 542.826 767.928 337.008 408.350 332.650 624.378 324.085 320.681 571.025 62.647 50.243 606.113 533.511 377.881 117.687 390.097 306.931 402.350 172.939 101.138 59.443 169.975 788.474 49.428 786.897 553.483 107.341 124.157 107.130 317.996 195.334 645.972 86.268 363.167 109.003 147.705 771.568 639.402 456.318 35.503 711.427 131.820 279.764 265.622 506.342 644.505 143.476 604.944 0.000 392.006 297.576 191.164 620.421 273.817 378.063 145.961 643.390 831.961 170.066 419.440 46.820 200.871 289.030 397.770 428.747 144.701 297.859 63.443 410.433 631.622 102.304 109.464 118.719 578.173 300.741 685.701 58.034 118.522 89.544 322.310 315.019 572.710 585.650 103.721 436.195 54.658 244.142 88.401 135.333 648.289 495.354 362.687 204.703 331.062 84.140 167.722 854.472 105.946 652.848 15.042 766.863 721.974 117.781 87.593 469.286 61.798 170.968 29.217
695.938 989.523 596.291 753.691 316.708 598.279 622.297 311.276 975.788 610.960 599.907 866.130 711.975 758.543 623.896 445.468 390.376 920.368 559.784 426.110 565.666 647.224 711.987 359.204 412.595 676.997 927.659 590.813 544.044 632.276 306.459 466.217 353.642 691.886 388.823 405.345 741.807 769.405 615.912 364.170 625.991 591.215 462.286 420.255 351.282 379.012 407.719 948.206 406.557 1022.791 674.343 340.439 328.024 406.757 617.622 439.941 881.866 370.205 621.378 408.629 329.075 892.428 321.483 138.399 395.871 788.105 367.413 353.760 565.248 598.309 726.140 324.846 840.838 378.520 0.000 516.327 380.590 741.282 527.622 448.627 327.331 879.284 1067.855 434.340 655.334 404.651 419.506 462.528 633.664 616.367 382.912 597.485 330.634 531.294 867.516 385.756 343.225 366.036 814.067 375.339 806.562 340.673 418.149 350.402 558.204 614.645 808.604 821.544 345.272 623.815 392.288 470.762 388.027 335.416 722.356 645.790 436.429 290.479 630.688 383.766 436.451 1090.366 338.198 713.642 383.049 936.688 957.868 339.096 364.112 233.686 419.071 408.712 389.584
465.741 1031.064 247.490 510.910 271.347 631.444 468.908 263.640 628.612 634.032 664.182 411.891 758.850 515.761 161.369 569.125 248.649 961.909 346.996 334.131 352.877 417.027 758.862 310.946 648.560 370.455 591.874 465.193 313.847 419.487 751.136 491.821 351.412 738.761 301.771 263.618 511.610 526.624 484.656 264.805 248.896 440.039 585.943 340.675 232.962 301.515 337.711 612.420 264.830 705.002 721.218 254.458 267.340 227.230 404.833 133.924 564.077 292.707 469.943 246.582 290.252 933.970 766.160 583.076 276.634 616.924 299.556 463.357 352.460 674.078 550.002 286.023 598.057 326.644 516.687 0.000 268.358 740.693 432.886 408.795 288.508 561.495 750.067 329.136 206.784 285.944 121.682 456.766 208.370 187.293 231.717 384.697 307.607 578.169 413.276 198.420 252.012 286.455 571.286 484.334 805.973 316.896 255.598 232.091 238.887 401.856 565.822 578.763 249.938 194.740 314.790 411.878 232.370 277.880 553.786 582.191 393.419 315.243 417.899 228.110 326.791 772.577 273.682 562.499 315.438 584.557 640.079 263.998 286.615 577.635 300.922 338.704 277.799
480.312 900.621 339.422 496.822 79.018 509.378 423.699 71.311 760.162 522.058 528.406 609.260 623.073 501.673 367.027 396.886 137.074 831.466 328.667 230.807 334.548 431.598 623.086 142.234 521.272 461.372 712.033 375.456 328.419 401.159 579.281 356.044 224.124 602.985 144.294 152.043 526.182 512.536 427.416 115.454 369.122 375.858 413.704 204.898 94.413 134.483 192.362 732.580 153.255 765.922 585.442 87.426 75.011 175.639 386.505 138.970 624.996 125.675 424.734 193.272 97.923 803.527 594.305 411.221 165.059 630.754 152.056 291.118 334.131 535.064 564.573 93.694 583.969 161.551 344.831 260.873 0.000 652.381 312.265 281.507 96.179 622.414 810.986 218.983 398.464 160.121 141.144 320.989 376.795 377.011 81.942 366.368 115.277 442.393 610.646 114.405 90.212 150.679 557.198 312.095 717.661 125.316 202.792 97.100 301.335 383.528 551.734 564.675 92.259 384.458 147.758 276.102 172.670 85.551 565.005 556.888 266.131 126.778 399.571 168.409 221.094 833.497 122.841 556.291 166.079 721.063 700.998 86.083 119.582 391.361 174.541 193.355 166.224
1051.953 314.786 788.758 511.068 574.956 153.779 314.011 569.524 985.106 147.928 412.181 1058.597 290.331 515.919 816.363 607.853 612.483 245.631 457.801 802.449 465.327 1003.239 178.566 599.825 1049.660 1033.013 994.952 395.826 900.060 341.018 911.756 378.338 795.766 253.247 620.499 608.095 1097.823 526.782 348.098 622.419 818.458 447.763 640.922 482.476 612.965 631.940 520.610 969.231 607.279 823.960 151.766 598.687 586.272 570.395 491.022 715.468 898.087 628.453 317.553 560.795 617.754 217.692 926.780 743.696 595.361 1202.396 494.305 429.889 395.877 422.076 1136.214 613.525 599.293 618.055 730.743 736.419 666.249 0.000 466.629 853.148 616.010 903.303 869.024 497.467 847.801 604.671 717.642 374.649 826.132 867.591 658.439 487.017 566.712 308.957 1059.983 636.787 601.474 511.101 572.522 539.313 74.289 575.349 557.285 608.650 750.672 386.774 565.980 579.999 603.520 875.038 634.561 474.744 547.496 605.382 1136.646 159.415 837.772 586.029 402.817 547.404 499.578 891.535 518.039 1127.933 606.849 1004.927 718.179 597.344 622.360 913.925 619.649 510.550 596.526
730.589 755.526 473.420 463.128 253.592 364.283 170.605 248.160 916.172 376.963 383.311 743.259 477.978 467.980 501.026 465.312 276.932 686.371 177.068 481.085 184.593 681.875 477.991 274.409 763.814 711.649 880.951 122.362 578.696 168.402 752.964 210.949 474.401 457.890 293.615 280.958 776.459 478.842 174.323 301.055 503.121 187.421 482.130 163.348 291.601 305.155 199.245 901.497 280.395 774.942 440.347 277.323 264.908 234.844 238.291 394.104 758.995 307.089 171.640 196.928 296.390 658.432 767.988 584.904 268.477 881.032 172.941 264.733 99.841 393.206 814.850 292.161 550.275 291.171 532.757 421.081 344.885 489.608 0.000 531.784 294.646 756.413 820.006 145.600 532.463 277.787 396.278 175.894 510.794 552.253 337.075 218.154 245.348 276.417 744.645 301.237 280.110 189.737 523.504 380.521 554.888 253.985 187.408 287.286 435.334 150.772 518.041 530.981 282.156 559.700 307.677 155.616 207.593 284.018 815.282 331.106 516.408 363.495 166.815 211.854 147.711 842.517 196.675 806.569 279.965 879.886 669.161 275.980 300.996 628.079 292.765 191.423 269.642
550.224 1107.826 546.627 704.027 286.223 716.583 630.904 278.516 857.819 729.263 733.885 762.341 830.278 708.879 511.820 594.108 344.279 1038.671 535.873 85.221 541.754 501.510 830.291 349.440 400.790 559.029 809.691 582.661 398.331 608.364 686.394 563.249 103.643 810.190 351.499 359.249 596.094 719.741 634.622 322.660 576.327 583.063 610.926 412.103 301.618 341.688 399.567 830.237 360.460 973.127 792.647 294.631 282.216 382.845 593.710 343.025 832.202 332.880 631.940 400.477 305.128 1010.732 701.418 518.334 372.264 415.145 359.262 487.737 541.336 732.286 353.180 300.899 791.174 368.756 451.944 398.359 261.224 859.586 519.470 0.000 303.384 829.620 1018.191 426.189 557.235 367.326 300.015 528.194 558.821 498.399 290.654 573.573 322.483 649.598 763.727 323.118 297.418 357.884 764.403 509.317 924.866 332.521 409.997 304.305 508.540 590.733 758.940 771.880 299.464 505.847 354.963 483.307 379.875 292.756 349.396 764.094 20.641 296.095 606.776 375.615 428.299 1040.702 330.046 340.682 373.285 818.720 908.204 293.288 326.787 430.896 381.747 400.560 373.429
534.509 894.817 354.374 511.774 80.116 503.574 424.421 72.409 797.125 516.255 505.202 624.213 617.270 516.625 381.979 365.425 143.909 825.662 335.503 285.004 341.384 485.795 617.282 143.333 511.908 515.568 761.904 376.178 382.615 407.994 547.277 356.766 278.321 597.181 152.277 158.879 580.379 527.488 428.139 123.438 384.074 376.580 382.243 205.620 92.925 142.466 193.084 782.451 160.091 780.874 579.638 95.410 82.994 182.475 393.340 198.023 639.948 133.658 425.456 193.994 1.744 797.723 562.301 379.216 171.894 684.951 152.779 259.055 340.966 503.603 618.770 41.933 598.921 162.649 314.905 300.902 148.804 646.577 312.987 335.703 0.000 637.366 825.938 219.706 413.416 168.104 200.198 321.711 391.747 432.073 140.995 373.204 116.000 436.589 625.598 139.289 98.196 151.401 572.150 280.634 711.857 126.038 203.514 103.935 316.287 390.363 566.686 579.627 100.243 439.521 155.741 276.824 173.392 43.787 619.201 551.085 320.327 96.141 406.406 169.132 221.816 848.449 123.563 610.488 167.178 760.840 715.950 94.067 127.566 376.173 182.525 194.077 173.059
875.152 1117.216 380.343 428.062 598.564 955.517 793.741 590.858 162.742 949.666 989.015 291.295 1083.683 431.319 409.409 893.958 593.123 1048.061 671.829 762.440 677.710 637.588 1057.898 635.779 1040.097 535.231 127.522 790.026 711.325 744.320 1092.282 816.654 755.757 1063.594 639.420 609.879 893.173 416.389 809.489 592.899 311.387 764.872 910.776 665.508 557.499 629.609 662.544 148.068 611.091 162.115 1031.097 582.552 594.558 552.063 647.394 636.303 6.916 620.801 794.776 571.415 617.469 1020.122 1107.306 924.222 622.895 1034.891 624.389 788.190 677.292 998.911 967.968 613.240 468.674 652.541 857.832 547.304 626.240 888.340 757.719 813.139 615.726 0.000 207.179 653.968 383.164 632.205 629.319 781.598 353.418 513.752 591.672 627.257 634.824 903.002 312.731 544.681 580.106 611.288 441.903 809.167 836.634 641.729 580.431 560.185 379.890 726.689 437.116 441.675 578.032 511.543 642.884 736.711 557.203 605.097 971.753 907.024 797.763 639.779 742.732 552.942 651.624 229.689 598.515 980.466 641.335 126.457 256.221 592.092 614.709 904.362 647.182 663.537 624.059
998.186 1087.685 577.221 398.531 795.443 925.985 840.093 787.736 243.129 920.134 1164.893 427.788 1108.097 401.787 606.288 1090.836 790.001 1018.530 715.498 959.318 721.379 760.622 1028.366 832.658 1236.976 658.265 252.975 859.011 834.359 787.990 1289.160 992.532 952.635 1102.794 836.298 806.757 1016.207 386.857 855.841 789.777 508.266 833.858 1107.654 857.219 754.377 826.487 859.422 227.254 807.969 52.177 1001.565 779.431 791.436 748.941 684.913 833.181 203.878 817.680 841.128 768.293 814.348 990.591 1304.184 1121.100 819.773 1157.925 821.267 985.069 754.737 1174.789 1091.003 810.119 439.142 849.419 1054.711 744.182 823.118 858.808 840.753 1010.017 812.604 217.084 0.000 825.982 580.042 829.083 826.197 957.477 550.296 710.630 788.550 664.776 831.702 1057.999 449.224 741.559 776.984 808.167 412.371 1006.045 807.103 838.608 777.310 757.064 576.768 770.359 407.584 412.143 774.911 708.421 839.763 928.423 754.082 801.976 1094.787 931.622 994.641 836.658 786.402 749.821 828.093 35.340 795.394 1103.500 838.214 262.950 251.336 788.971 811.587 1101.241 844.061 860.416 820.938
620.491 757.977 377.805 439.892 143.494 366.734 226.043 138.062 820.556 379.415 385.762 647.644 480.430 444.744 405.410 358.191 166.626 688.822 157.217 370.986 163.098 571.777 480.442 164.102 653.716 601.551 785.335 177.799 468.598 217.168 646.820 213.401 364.303 460.341 183.308 170.652 666.361 455.606 229.760 190.957 407.505 173.587 375.009 62.255 181.503 194.849 89.147 805.882 170.089 751.706 442.798 167.225 154.810 124.538 215.055 283.961 663.379 196.991 227.078 93.941 186.292 660.883 661.844 478.760 158.171 770.933 62.843 252.424 157.696 395.658 704.752 182.063 527.039 180.864 422.659 325.465 234.786 509.737 114.608 421.686 184.548 660.797 796.770 0.000 436.847 167.481 286.180 178.345 415.178 456.637 226.977 194.918 135.250 299.749 649.029 190.931 170.011 79.639 500.268 273.400 575.017 143.887 84.422 177.188 339.718 199.537 494.805 507.745 172.058 464.084 197.371 133.458 97.287 173.920 705.184 379.872 406.310 253.397 215.580 101.547 18.526 819.281 86.576 696.470 169.659 784.271 645.925 165.882 190.898 517.981 182.459 90.141 159.336
602.189 1095.999 91.298 445.979 374.178 731.891 569.354 366.471 434.589 734.479 764.629 217.868 859.297 450.831 54.675 669.571 368.736 1026.844 447.442 470.579 453.324 448.100 859.309 411.393 785.008 407.734 397.851 565.639 431.291 519.934 867.896 592.268 487.860 839.208 415.034 384.360 648.058 461.693 585.103 368.513 74.592 540.486 686.390 441.121 333.113 405.223 438.158 418.398 385.571 530.699 821.665 358.166 370.171 327.677 505.280 286.827 389.774 396.415 570.390 347.029 393.083 998.905 882.920 699.836 397.375 753.372 400.002 563.804 452.906 774.524 686.450 388.854 533.126 428.155 633.446 192.569 401.854 841.139 533.333 545.243 391.339 387.192 575.763 429.582 0.000 406.685 274.585 557.212 52.178 153.739 366.153 485.143 410.438 678.616 219.254 319.161 355.719 386.902 506.355 584.781 815.417 417.343 356.045 335.799 118.099 502.303 500.892 513.832 353.646 151.530 418.498 512.325 332.817 380.711 690.234 682.638 529.867 415.393 518.346 328.556 427.238 598.274 374.129 698.947 416.949 390.535 465.775 367.706 390.322 679.976 421.663 439.151 398.540
513.424 903.583 315.849 473.249 81.979 512.339 373.283 74.273 758.600 525.020 531.367 585.688 626.035 478.100 343.454 399.848 59.777 834.428 251.371 280.543 257.252 464.709 626.048 119.333 558.201 496.006 723.379 367.190 361.530 323.862 606.116 359.006 273.860 605.946 15.827 73.942 559.293 488.963 389.031 70.867 345.549 322.013 416.666 207.860 54.318 107.577 195.323 743.926 75.154 742.349 588.404 60.521 77.973 98.343 309.208 148.514 601.424 51.867 374.318 124.085 100.884 806.489 621.140 438.055 86.958 664.607 155.018 294.080 256.834 538.026 597.685 96.655 560.396 136.968 373.744 250.756 144.343 645.067 303.999 331.243 99.141 598.842 787.413 200.248 374.891 0.000 154.050 323.951 353.222 381.927 97.881 289.071 118.239 445.354 587.073 55.483 62.644 153.640 533.625 315.057 710.347 128.278 133.605 42.724 277.762 306.231 528.161 541.102 56.901 389.375 76.112 279.064 103.483 88.512 601.469 486.566 315.867 157.883 322.274 99.222 197.904 809.924 125.803 606.027 125.762 722.315 677.425 70.961 92.677 422.466 102.896 196.317 88.123
359.373 992.521 319.310 532.073 170.918 601.278 461.725 163.211 640.746 613.959 620.306 483.711 714.974 536.925 233.190 488.786 148.220 923.366 339.813 227.763 345.694 310.659 714.986 212.842 565.163 341.956 592.617 455.632 207.480 412.304 667.739 447.945 268.015 694.885 201.342 163.189 405.243 547.788 477.474 164.376 320.716 410.456 505.604 296.798 143.256 201.086 284.262 613.164 164.401 776.823 677.342 154.030 166.911 186.785 397.651 43.010 635.898 192.278 462.760 212.528 189.823 895.427 682.763 499.679 176.205 510.556 243.957 383.019 345.277 626.965 443.634 185.594 619.221 226.215 433.290 119.728 146.675 733.510 392.441 308.655 188.079 633.315 821.887 288.691 278.605 185.515 0.000 412.889 280.191 235.867 110.035 377.514 207.178 534.293 485.097 102.585 151.583 242.579 592.450 403.995 798.790 217.216 222.047 131.662 310.708 394.674 586.986 599.926 149.509 243.314 214.361 368.002 191.926 177.451 447.418 575.009 293.279 220.941 410.717 187.665 286.346 844.398 214.741 456.132 215.009 601.647 711.899 163.569 186.186 485.524 200.493 285.255 177.370
737.078 630.399 508.786 592.768 260.080 239.156 250.455 254.648 951.537 251.836 258.184 778.625 352.851 597.620 536.391 340.185 297.607 561.244 306.708 487.573 314.234 688.364 352.864 284.950 765.741 718.137 916.316 243.577 585.184 298.043 627.837 63.073 480.890 332.763 305.623 293.219 782.947 608.483 244.069 307.543 538.486 317.061 357.003 167.600 298.089 317.065 205.734 936.863 292.404 904.583 315.220 283.812 271.396 255.519 367.931 400.592 794.361 313.577 249.536 245.919 302.879 533.305 642.861 459.777 280.486 887.520 179.429 145.970 229.481 268.079 821.339 298.649 679.916 303.179 446.824 456.447 351.373 382.158 180.386 538.272 301.135 791.779 949.647 182.591 567.828 289.796 402.766 0.000 546.159 587.618 343.563 347.794 251.836 172.170 780.010 321.912 286.598 196.226 653.145 255.394 447.438 260.473 250.300 293.774 470.699 280.412 647.681 660.621 288.645 595.066 319.685 159.868 232.620 290.506 821.770 286.666 522.896 302.110 296.455 232.529 184.702 972.157 203.163 813.057 291.973 915.252 798.801 282.468 307.485 630.006 304.773 195.675 281.650
609.602 1076.485 52.453 426.465 354.664 712.377 549.841 346.958 480.174 714.965 745.115 263.453 839.783 431.317 62.089 650.058 349.222 1007.330 427.929 477.992 433.810 460.791 839.795 391.879 792.422 420.426 443.436 546.126 443.983 500.420 848.382 572.754 495.274 819.694 395.520 365.979 655.472 442.180 565.589 348.999 46.623 520.972 666.876 421.608 313.599 385.709 418.644 463.983 367.191 502.729 802.151 338.652 350.657 308.163 485.766 294.240 361.804 376.901 550.876 327.515 373.569 979.391 863.406 680.322 378.995 760.786 380.489 544.290 433.392 755.011 693.863 369.340 513.613 408.641 613.932 199.983 382.340 821.626 513.819 552.656 371.825 359.222 547.793 410.068 52.657 388.305 281.998 537.698 0.000 166.431 347.772 465.629 390.924 659.102 264.839 300.781 336.206 367.388 486.842 565.267 795.903 397.829 336.531 316.285 98.585 482.789 481.378 494.318 334.132 164.222 398.984 492.811 313.303 361.197 697.648 663.124 537.280 395.879 498.832 309.042 407.724 570.304 354.615 706.361 397.435 436.119 437.806 348.192 370.809 660.462 403.282 419.637 380.159
484.640 1190.159 215.994 540.140 431.585 791.682 629.146 423.878 541.776 794.270 824.420 325.055 919.088 544.991 133.242 729.363 408.887 1121.005 507.234 446.960 513.115 329.065 919.101 471.184 761.389 288.700 505.038 625.431 312.257 579.725 863.965 652.059 464.241 898.999 462.009 423.856 530.510 555.854 644.894 425.043 217.400 600.278 746.181 500.913 393.201 461.753 497.949 525.585 425.068 673.507 881.457 414.697 427.578 387.468 565.072 275.867 532.581 452.945 630.181 406.820 450.490 1093.065 878.989 695.905 436.872 635.823 459.794 623.595 512.698 834.316 568.901 446.261 627.287 486.882 629.515 208.146 410.300 900.931 593.124 521.623 448.746 529.999 718.571 489.374 145.092 446.182 263.624 617.004 176.874 0.000 373.659 544.935 467.845 738.407 326.441 358.658 412.250 446.693 600.516 644.572 909.577 477.134 415.836 392.329 242.795 562.094 595.052 607.993 410.176 7.448 475.028 572.116 392.609 438.118 572.685 742.429 506.247 473.665 578.137 388.348 487.029 741.081 433.920 581.399 475.676 497.721 608.583 424.236 446.853 690.464 461.160 498.942 438.037
463.073 921.312 317.465 474.865 99.708 530.068 404.517 92.002 743.614 542.749 549.096 576.543 643.764 479.717 333.544 417.577 91.012 852.157 282.605 214.259 288.486 414.359 643.776 155.634 504.724 444.824 695.485 396.146 311.180 355.096 599.972 376.735 207.576 623.675 144.134 105.981 508.943 490.579 420.265 107.168 347.165 353.248 434.395 225.589 86.048 143.878 213.052 716.032 107.193 743.965 606.132 96.821 95.702 129.577 340.443 101.526 603.040 135.070 405.552 155.319 118.613 824.218 614.996 431.911 118.997 614.206 172.747 311.809 288.069 555.755 547.334 114.384 562.012 169.006 365.522 223.429 73.203 673.071 332.955 264.959 116.870 600.458 789.029 231.483 365.747 128.307 103.700 341.680 344.077 339.567 0.000 320.306 135.968 463.083 577.929 45.376 94.374 171.369 535.241 332.786 738.351 146.007 164.839 74.454 279.378 337.466 529.778 542.718 92.301 347.014 157.153 296.792 134.717 106.241 548.457 517.800 249.583 147.469 353.508 130.457 229.138 811.540 143.532 539.743 157.801 704.515 679.042 106.361 128.977 412.052 143.285 214.046 120.162
749.081 781.612 426.793 292.622 320.937 381.992 222.138 313.230 755.679 384.580 560.373 696.632 655.041 297.473 454.398 548.635 266.836 712.457 110.978 516.201 116.859 700.367 596.934 309.492 793.858 688.787 720.458 254.491 597.187 170.035 837.264 388.012 509.518 634.952 327.804 295.123 794.951 308.336 237.887 314.395 456.493 229.338 565.453 252.699 293.275 340.238 279.591 741.005 296.335 604.436 552.445 304.048 316.930 225.776 40.847 384.171 598.502 342.297 223.173 224.808 339.842 684.518 852.288 669.204 302.667 900.264 253.287 441.795 150.216 570.269 833.342 335.613 379.769 326.254 608.311 374.454 380.001 491.241 236.233 566.900 338.098 595.920 649.500 221.462 485.835 311.977 389.708 352.956 464.166 505.625 333.538 0.000 320.852 453.479 698.017 291.141 301.602 270.083 352.998 463.844 556.521 315.443 215.288 281.681 388.706 165.839 347.534 360.474 299.528 513.073 341.867 323.902 230.917 327.470 837.126 332.739 551.524 393.540 177.485 226.656 223.573 672.010 272.229 841.685 315.049 719.394 498.654 313.588 336.205 658.123 326.955 280.585 303.832
526.396 829.993 351.569 508.969 49.398 438.750 353.071 43.966 794.320 451.430 457.778 621.408 552.445 513.821 379.174 326.999 122.275 760.838 266.822 276.891 272.704 477.682 552.458 43.901 559.620 507.455 758.117 304.828 374.502 339.314 560.935 285.416 270.208 532.357 104.616 95.308 572.265 524.683 356.788 79.963 381.269 305.230 343.817 134.270 87.407 76.016 122.475 778.664 94.493 778.069 514.814 73.130 60.715 113.795 324.660 189.910 637.144 85.997 354.106 115.667 92.197 732.899 575.959 392.875 80.568 676.838 82.169 221.231 272.286 465.177 610.657 87.967 596.116 63.217 328.563 298.097 140.691 581.753 241.637 327.590 90.453 634.562 823.133 148.356 410.612 91.885 192.084 250.361 388.942 427.951 132.882 304.523 0.000 371.765 622.794 117.981 75.916 80.051 569.345 242.208 647.033 10.039 125.187 83.092 313.482 321.683 563.882 576.822 77.963 435.398 101.134 205.474 95.065 79.825 611.088 486.261 312.214 159.302 337.726 90.804 150.466 845.644 52.213 602.375 67.746 758.035 713.146 70.494 79.905 423.885 106.862 123.468 74.282
796.481 606.957 568.189 652.172 319.484 173.582 256.887 314.052 1010.941 186.263 250.014 838.028 344.682 657.024 595.794 368.632 357.011 537.802 366.112 546.977 373.637 747.767 344.694 344.353 794.188 777.541 975.720 289.149 644.588 315.916 656.284 122.866 540.293 324.593 365.027 352.622 842.351 667.886 250.501 366.947 597.890 345.952 385.450 227.004 357.493 376.468 265.137 996.266 351.807 963.986 305.913 343.215 330.800 314.923 427.335 459.996 853.764 372.981 255.968 305.322 362.282 509.863 671.308 488.224 339.889 946.923 238.833 174.417 288.885 259.909 880.742 358.053 739.319 362.583 475.271 515.850 410.777 316.585 239.790 597.676 360.538 851.182 1009.050 241.995 627.232 349.199 462.170 119.177 605.563 647.022 402.967 407.198 311.240 0.000 839.414 381.315 346.001 255.629 712.548 283.841 381.865 319.877 309.704 353.178 530.103 339.816 707.085 720.025 348.048 654.469 379.089 219.272 292.024 349.910 881.174 221.093 582.300 330.557 355.859 291.932 244.106 1031.561 262.566 872.461 351.377 974.655 858.205 341.872 366.888 658.453 364.177 255.078 341.054
773.045 1326.775 322.075 676.756 604.954 962.668 800.131 597.248 246.786 965.255 995.406 31.018 1090.073 681.607 272.860 900.348 599.513 1257.620 678.219 692.925 684.100 535.482 1090.086 642.169 1007.354 433.124 210.048 796.416 609.218 750.710 1098.672 823.044 710.206 1069.984 645.810 615.136 791.066 692.470 815.879 599.289 287.693 771.263 917.166 671.898 563.889 635.999 668.934 230.595 616.348 416.031 1052.442 588.943 600.948 558.453 736.057 509.173 312.723 627.192 801.166 577.805 623.860 1229.681 1113.696 930.612 628.152 932.784 630.779 794.580 683.683 1005.301 865.862 619.630 760.238 658.931 864.223 414.916 632.630 1071.916 764.109 767.589 622.116 325.929 461.095 660.359 230.776 637.462 496.931 787.989 282.955 356.930 596.929 715.920 641.214 909.392 0.000 549.938 586.496 617.679 733.467 815.557 1046.193 648.120 586.821 566.575 348.876 733.080 728.679 733.238 584.422 337.584 649.274 743.102 563.594 611.488 869.646 913.414 752.213 646.169 749.122 559.333 658.014 483.606 604.905 878.360 647.726 202.731 562.028 598.483 621.099 910.753 652.440 669.927 629.317
462.534 894.530 272.089 429.489 72.927 503.287 363.734 65.220 714.840 515.968 522.315 531.167 616.983 434.340 288.167 390.795 50.229 825.375 241.822 258.291 247.703 413.820 616.995 114.851 545.177 445.116 679.619 357.642 310.641 314.314 597.063 349.954 251.608 596.894 103.351 65.198 508.404 445.203 379.483 66.385 301.789 312.465 407.614 198.808 45.265 103.095 186.271 700.166 66.410 698.589 579.351 56.039 68.920 88.794 299.660 97.624 557.663 94.288 364.770 114.537 91.832 797.436 612.087 429.003 78.214 613.717 145.966 285.028 247.286 528.974 546.795 87.603 516.636 128.224 362.912 195.272 117.234 635.519 294.451 308.990 90.088 555.081 743.653 190.700 320.371 87.524 103.161 314.898 298.701 326.444 46.991 279.523 109.187 436.302 532.553 0.000 53.592 144.588 489.865 306.005 700.799 119.225 124.056 33.671 234.002 296.683 484.401 497.342 51.518 333.891 116.370 270.011 93.935 79.460 550.579 477.018 293.614 144.859 312.726 89.674 188.355 766.164 116.750 559.293 117.018 678.555 633.665 65.578 88.195 409.442 102.502 187.265 79.379
472.440 840.939 297.613 455.013 19.335 449.695 364.017 11.629 740.364 462.376 468.723 567.452 563.391 459.864 325.218 337.204 74.720 771.784 266.313 222.935 272.194 423.725 563.404 82.552 505.664 453.499 704.161 315.773 320.546 338.804 543.472 296.362 216.252 543.302 84.611 89.689 518.309 470.727 367.734 55.772 327.313 316.176 354.022 145.216 33.451 74.800 132.679 724.707 90.901 724.113 525.760 27.744 15.329 113.285 324.151 135.954 583.188 65.993 365.052 133.590 38.240 743.845 558.496 375.411 102.705 622.882 92.374 231.436 271.777 475.382 556.700 34.011 542.160 101.868 311.100 244.141 86.735 592.698 252.582 273.634 36.497 580.606 769.177 159.301 356.656 100.438 138.128 261.307 334.986 373.995 78.925 304.014 55.595 382.710 568.838 70.100 0.000 90.996 515.389 252.413 657.978 65.634 143.109 34.745 259.526 321.173 509.926 522.866 32.577 381.442 88.075 216.419 112.988 25.868 557.132 497.206 258.258 105.346 337.216 108.727 161.412 791.688 63.159 548.419 106.397 704.079 659.190 26.401 59.900 369.929 114.859 133.673 103.869
561.994 767.881 333.702 491.102 84.997 376.638 290.959 79.565 776.454 389.318 395.666 603.541 490.333 495.954 361.307 314.358 122.523 698.726 226.748 312.489 232.629 513.280 490.346 109.866 595.219 543.054 741.233 242.716 410.101 286.699 596.534 223.304 305.806 470.245 130.539 118.135 607.864 506.817 294.677 132.460 363.402 243.118 331.177 72.158 123.006 141.981 57.165 761.779 117.320 760.202 452.702 108.728 96.313 80.436 284.586 225.509 619.277 138.494 291.994 82.308 127.795 670.787 611.558 428.474 105.402 712.436 19.010 208.591 227.227 405.561 646.255 123.566 578.250 128.095 364.162 281.363 176.289 519.641 179.525 363.189 126.051 616.695 805.266 86.244 392.745 114.712 227.683 188.249 371.075 412.535 168.480 264.449 76.753 309.653 604.927 146.828 111.514 0.000 551.479 229.568 584.921 85.390 91.828 118.691 295.616 269.068 546.015 558.955 113.561 419.982 144.602 143.362 61.706 115.423 646.687 424.149 347.813 194.900 285.111 57.445 88.354 827.777 28.079 637.973 116.890 740.168 695.279 107.385 132.401 459.484 129.690 58.158 106.567
949.791 787.984 447.026 101.171 541.141 626.284 540.392 533.434 514.002 620.433 865.192 698.661 808.396 104.427 474.631 836.534 535.699 718.829 415.797 705.017 421.678 897.069 728.665 578.356 982.674 856.704 523.848 559.310 797.898 488.289 1034.859 692.831 698.333 803.093 581.997 552.456 995.661 89.497 556.140 535.476 476.726 534.157 853.353 557.518 500.075 572.186 584.411 498.127 553.668 352.856 701.864 525.129 537.134 494.640 385.212 580.407 426.982 563.378 541.427 513.992 560.046 690.890 1049.883 866.799 565.471 1100.975 558.106 730.767 455.036 875.088 1034.052 555.817 42.940 595.118 800.409 561.975 568.817 559.107 541.052 755.716 558.302 432.199 397.920 526.281 506.069 574.782 590.418 657.776 484.399 602.709 534.249 365.075 577.401 758.298 718.251 487.257 522.682 553.865 0.000 751.744 507.402 584.306 520.107 502.762 408.940 470.658 96.631 52.625 520.609 600.500 585.461 628.722 499.780 547.674 1037.837 631.920 740.340 582.356 486.701 495.519 528.392 420.431 541.092 1030.500 583.912 533.823 247.074 534.669 557.285 846.939 589.759 585.404 566.636
691.952 756.672 506.416 663.816 214.955 365.429 389.447 209.523 949.168 378.109 316.678 776.255 479.124 668.668 534.021 176.901 288.623 687.517 384.440 440.155 390.321 643.238 479.137 239.824 662.892 673.012 913.947 400.408 540.059 444.391 524.988 233.367 433.472 459.036 287.071 290.849 737.822 679.531 383.061 262.418 536.116 400.810 193.719 229.850 252.964 271.939 214.857 934.493 290.034 932.916 441.493 238.686 226.271 253.150 442.278 355.467 791.991 268.452 388.528 255.022 257.753 659.578 540.012 356.927 276.491 840.102 174.552 120.909 384.919 315.080 776.213 253.524 750.964 259.140 343.974 454.077 306.247 508.432 337.217 490.854 256.009 789.409 977.980 243.936 565.459 287.426 357.641 229.677 543.789 585.249 298.438 422.141 206.711 298.444 777.641 284.003 241.472 195.259 724.193 0.000 573.712 215.348 264.542 248.649 468.330 426.760 718.729 731.669 243.519 592.696 290.535 237.912 234.420 245.381 774.352 412.940 475.478 199.260 442.803 230.159 246.046 1000.491 184.591 765.639 263.669 912.882 867.993 237.343 262.359 527.157 302.404 215.850 270.205
1105.475 291.407 768.043 449.965 628.478 207.301 367.533 623.046 924.003 201.450 465.702 1037.882 311.818 454.816 795.648 661.375 666.004 222.252 511.323 855.970 518.848 1056.761 232.088 653.347 1103.182 1086.535 933.849 449.347 953.582 394.540 965.278 431.860 849.287 306.516 674.020 661.616 1151.345 465.679 401.619 675.941 797.743 501.285 694.444 535.998 666.487 685.462 574.131 908.128 660.801 762.857 205.287 652.209 639.794 623.917 544.544 768.990 836.983 681.975 371.074 614.316 671.276 194.313 980.302 797.218 648.883 1255.917 547.827 483.411 449.399 475.598 1189.736 667.047 538.190 671.576 784.265 789.941 719.770 62.530 520.151 906.670 669.532 842.200 807.921 550.989 827.086 658.193 771.164 428.170 805.416 921.112 711.961 540.539 620.234 362.479 1039.268 690.309 654.995 564.623 511.419 592.835 0.000 628.871 610.807 662.172 729.956 440.296 504.877 518.896 657.042 921.516 688.083 528.266 601.018 658.904 1190.168 212.937 891.294 639.551 456.339 600.926 553.100 830.432 571.560 1181.454 660.371 943.824 657.076 650.866 675.882 967.447 673.171 564.072 650.048
553.929 857.526 364.009 521.409 76.932 466.283 365.744 71.500 806.760 478.964 485.311 633.848 579.979 526.261 391.614 354.532 130.247 788.371 263.770 304.424 269.651 505.215 579.991 40.956 587.153 534.989 771.539 332.361 402.035 336.262 588.469 312.950 297.741 559.890 104.767 92.363 599.799 537.123 381.493 92.382 393.709 310.543 371.350 161.803 101.656 73.071 150.008 792.086 91.547 790.509 542.347 86.151 73.736 110.742 321.608 217.444 649.584 98.417 366.779 112.615 119.730 760.432 603.493 420.408 77.623 704.371 109.702 248.765 269.234 492.710 638.190 115.501 608.556 60.272 356.097 311.670 168.224 609.286 269.170 355.123 117.986 647.002 835.573 168.496 423.052 88.940 219.618 277.894 401.382 442.841 160.415 301.471 27.533 399.298 635.234 130.400 88.937 107.584 581.785 269.741 674.566 0.000 122.134 96.113 325.922 318.631 576.322 589.262 90.984 450.289 98.189 233.007 92.013 107.358 638.621 498.966 339.747 186.835 334.674 87.752 166.152 858.084 79.746 629.908 64.801 770.475 725.586 82.913 92.324 451.419 103.917 151.001 71.337
581.706 831.905 304.449 454.714 136.873 440.662 243.610 131.441 747.200 446.534 459.690 574.287 554.357 459.565 332.054 375.398 99.461 762.750 172.039 348.826 177.920 532.992 554.370 117.219 626.483 564.288 711.979 239.895 429.812 231.989 648.410 287.328 342.143 534.269 135.531 103.487 627.576 470.428 259.358 147.020 334.149 188.409 392.216 136.182 125.900 147.965 143.984 732.526 119.568 730.949 516.726 136.673 148.189 57.373 229.876 216.796 590.023 171.571 244.645 9.520 172.467 734.811 663.434 480.350 110.394 732.889 105.829 269.630 172.518 469.585 665.967 168.238 541.861 133.981 416.038 252.109 212.626 553.195 182.554 399.525 170.723 587.441 776.013 100.657 363.491 119.704 222.333 252.273 341.822 383.281 166.163 209.740 128.579 373.676 575.673 123.766 134.227 92.728 515.090 290.607 618.475 123.169 0.000 114.306 266.362 214.359 509.626 522.566 132.153 390.728 149.593 207.386 30.122 160.095 669.751 394.694 384.149 226.165 230.402 34.383 98.312 798.524 79.955 674.310 122.776 710.915 660.746 146.213 168.830 490.749 134.682 144.977 111.559
492.360 860.859 285.647 443.047 39.256 469.616 353.480 31.549 728.398 482.296 488.644 555.486 583.311 447.899 313.252 357.124 39.974 791.704 231.568 242.855 237.449 443.646 583.324 81.179 525.584 473.420 693.177 335.694 340.467 304.059 563.392 316.282 236.172 563.223 79.235 54.944 538.230 458.761 369.228 32.714 315.347 302.211 373.942 165.136 11.594 69.424 152.600 713.724 56.156 712.147 545.680 22.367 35.249 78.540 289.405 128.385 571.222 60.616 354.515 104.282 58.161 763.765 578.416 395.332 67.960 642.802 112.294 251.357 237.032 495.302 576.621 53.932 530.194 100.496 331.020 230.627 106.655 612.619 272.503 293.554 56.417 568.640 757.211 179.221 344.690 77.270 133.922 281.227 323.020 361.798 77.752 269.269 75.515 402.631 556.872 35.355 19.920 110.917 503.423 272.333 677.899 85.554 113.802 0.000 247.560 286.428 497.960 510.900 17.847 369.246 82.699 236.340 83.680 45.789 577.053 466.763 278.178 125.266 302.471 79.419 178.101 779.722 83.079 568.339 105.025 692.113 647.224 31.907 54.523 389.850 92.247 153.593 69.124
640.941 1000.833 61.020 350.813 279.012 636.725 474.189 271.306 547.419 639.313 669.463 330.859 764.131 355.665 124.450 574.406 273.571 931.678 352.277 442.888 358.158 528.197 764.143 316.227 720.545 487.832 510.842 470.474 489.047 424.768 772.730 497.102 436.205 744.042 319.868 290.327 686.810 366.528 489.937 273.347 134.368 445.320 591.224 345.956 237.947 310.057 342.992 531.389 291.539 531.168 726.499 263.000 275.006 232.511 410.114 316.751 390.243 301.249 475.224 251.863 297.917 903.739 787.754 604.670 303.343 792.124 304.837 468.638 357.741 679.359 725.202 293.688 437.961 332.989 538.280 231.321 306.688 745.974 438.167 493.587 296.174 387.661 576.232 334.417 120.063 312.653 313.337 462.047 98.393 233.837 272.120 389.978 315.272 583.450 332.245 225.129 260.554 291.736 411.190 489.615 720.251 322.177 260.879 240.633 0.000 407.137 405.726 418.666 258.480 231.628 323.332 417.159 237.651 285.545 728.986 587.472 478.211 320.227 423.180 233.390 332.072 598.743 278.963 737.699 321.783 503.525 466.244 272.540 295.157 584.811 327.630 343.985 304.508
743.974 705.498 421.686 376.789 315.830 305.878 146.024 308.124 839.846 308.466 470.825 691.525 565.492 381.640 449.291 543.529 261.729 636.343 90.729 511.094 98.254 695.260 520.820 304.386 788.752 683.680 804.625 164.942 592.081 93.921 832.157 298.463 504.411 545.404 322.698 290.017 789.844 392.503 161.772 309.288 451.386 139.789 560.347 247.592 288.168 335.132 274.485 825.172 291.228 688.603 476.330 298.942 311.823 220.670 151.952 379.064 682.670 337.191 147.059 219.701 334.735 608.404 847.181 664.097 297.560 895.157 248.180 352.247 60.668 480.720 828.235 330.506 463.936 321.148 603.204 369.347 374.894 415.126 146.685 561.793 332.991 680.088 733.667 216.355 480.729 306.870 384.601 263.408 459.059 500.518 328.432 131.815 315.745 363.930 692.911 286.034 296.495 264.976 437.165 458.738 480.406 310.336 210.181 276.574 383.599 0.000 431.702 444.642 294.421 507.966 336.760 243.130 225.810 322.363 832.020 256.625 546.417 388.433 16.844 221.549 218.466 756.178 267.122 836.578 309.942 803.561 582.822 308.481 331.098 653.017 321.848 275.478 298.725
928.023 765.758 425.258 52.798 519.372 604.059 518.623 511.666 510.355 598.207 843.424 695.014 786.170 56.054 452.863 814.766 513.931 696.603 394.029 683.248 399.910 875.300 706.439 556.587 960.906 834.935 520.201 537.542 776.129 466.520 1013.090 671.062 676.565 780.867 560.228 530.687 973.892 41.125 534.371 513.707 454.958 512.388 831.584 535.749 478.307 550.417 562.642 494.480 531.899 349.209 679.639 503.361 515.366 472.871 363.443 558.639 423.336 541.610 519.658 492.223 538.278 668.664 1028.114 845.030 543.703 1079.206 536.337 708.998 433.267 853.319 1012.284 534.048 124.542 573.349 778.641 540.207 547.048 536.881 519.284 733.947 536.534 428.552 394.273 504.513 484.300 553.013 568.650 636.007 462.631 580.940 512.480 343.306 555.632 736.529 696.482 465.489 500.914 532.097 97.771 729.975 485.176 562.537 498.339 480.993 387.171 448.889 0.000 61.667 498.840 578.731 563.692 606.953 478.012 525.906 1016.068 609.695 718.571 560.587 464.932 473.751 506.623 416.784 519.323 1008.732 562.144 530.176 243.428 512.900 535.517 825.171 567.991 563.635 544.868
977.248 815.440 474.483 128.627 568.597 653.741 567.848 560.891 541.459 647.890 892.649 726.117 835.852 131.883 502.088 863.991 563.156 746.285 443.254 732.473 449.135 924.525 756.122 605.812 1010.131 884.160 551.304 586.767 825.354 515.745 1062.315 720.287 725.790 830.549 609.453 579.912 1023.117 116.954 583.596 562.932 504.183 561.613 880.809 584.974 527.532 599.642 611.867 525.583 581.124 380.312 729.321 552.586 564.591 522.096 412.668 607.864 454.439 590.835 568.883 541.448 587.503 718.346 1077.339 894.255 592.928 1128.431 585.562 758.223 482.492 902.544 1061.509 583.273 70.396 622.574 827.866 589.432 596.273 586.564 568.509 783.172 585.759 459.655 425.376 553.738 533.525 602.238 617.875 685.232 511.856 630.165 561.705 392.531 604.857 785.754 745.707 514.714 550.139 581.322 41.947 779.200 534.858 611.762 547.564 530.218 436.396 498.114 99.493 0.000 548.065 627.956 612.917 656.178 527.237 575.131 1065.293 659.377 767.796 609.812 514.157 522.976 555.848 447.887 568.548 1057.957 611.369 561.279 274.531 562.125 584.742 874.396 617.216 612.860 594.093
494.639 863.138 314.712 472.113 41.534 471.895 382.855 33.828 757.464 484.575 490.923 584.551 585.590 476.964 342.318 359.403 69.350 793.983 260.943 245.134 266.824 445.925 585.603 67.122 527.863 475.698 722.243 337.972 342.745 333.435 565.671 318.561 238.451 565.502 65.177 84.319 540.508 487.827 389.933 36.338 344.413 331.586 376.221 167.415 34.918 55.366 154.879 742.789 85.531 741.213 547.959 8.310 37.528 107.915 318.781 157.760 600.287 46.559 383.890 133.658 60.440 766.044 580.695 397.611 97.335 645.081 114.573 253.635 266.407 497.581 578.900 56.210 559.260 86.438 333.299 260.002 108.934 614.897 274.782 295.833 58.696 597.705 786.277 181.500 373.755 81.005 160.327 283.506 352.086 391.174 101.125 298.644 70.413 404.909 585.937 64.730 22.199 113.196 532.489 274.612 680.177 80.271 143.177 29.375 276.626 315.804 527.025 539.965 0.000 398.621 68.642 238.619 113.056 48.068 579.331 496.139 280.457 127.545 331.847 108.795 183.611 808.787 85.358 570.618 90.967 721.178 676.289 14.060 40.466 392.128 95.425 155.872 97.503
477.193 1183.855 230.206 554.352 424.137 784.235 621.698 416.431 547.309 786.823 816.973 330.587 911.640 559.203 147.454 721.915 401.439 1114.700 499.786 439.512 505.667 321.618 911.653 463.737 753.941 281.252 510.571 617.983 304.810 572.278 856.518 644.611 456.793 891.552 454.562 416.409 523.062 570.066 637.447 417.595 231.612 592.830 738.733 493.465 385.753 454.306 490.501 531.117 417.621 687.719 874.009 407.249 420.131 380.021 557.624 268.419 546.794 445.498 622.734 399.372 443.043 1086.761 871.542 688.457 429.424 628.376 452.346 616.148 505.250 826.868 561.454 438.813 641.499 479.434 622.068 200.699 402.852 893.483 585.677 514.176 441.299 544.212 732.783 481.926 159.305 438.735 256.177 609.556 191.087 63.570 366.212 537.487 460.397 730.960 331.973 351.210 404.802 439.246 614.728 637.124 923.790 469.687 408.389 384.882 257.007 554.647 609.265 622.205 402.729 0.000 467.581 564.669 385.161 430.671 565.238 734.982 498.800 466.218 570.690 380.900 479.582 755.294 426.473 573.951 468.229 503.254 622.795 416.789 439.405 683.016 453.712 491.495 430.589
533.929 898.530 336.354 493.754 102.484 507.287 391.686 94.778 779.105 519.967 526.315 606.193 620.982 498.606 363.959 420.353 80.282 829.375 271.876 301.049 277.757 485.215 620.995 72.941 578.706 516.511 743.884 366.876 382.035 344.367 626.621 353.953 294.365 600.894 38.265 79.797 579.798 509.468 407.434 91.372 366.054 336.485 437.171 202.807 74.823 98.358 199.843 764.431 78.982 762.854 583.351 81.026 98.478 118.848 329.714 169.019 621.929 72.372 392.721 138.556 121.390 801.436 641.645 458.561 65.057 685.112 161.688 314.585 277.340 536.210 618.190 117.160 580.901 80.285 394.249 271.261 164.849 650.289 303.685 351.748 119.646 619.347 807.918 199.934 395.397 32.244 174.556 318.898 373.727 402.432 118.386 309.577 99.408 440.301 607.579 75.988 83.149 148.588 554.130 335.562 715.569 93.998 148.076 63.229 298.267 326.736 548.667 561.607 77.406 409.880 0.000 274.011 117.955 109.018 621.974 507.071 336.372 178.388 342.779 113.694 197.590 830.429 135.815 626.533 61.543 742.820 697.931 91.466 113.182 442.971 26.784 200.837 58.771
692.811 736.281 464.519 561.504 215.813 345.038 277.888 210.381 907.270 357.718 364.066 734.358 458.733 566.355 492.124 350.274 253.340 667.126 278.829 443.306 284.710 644.097 458.746 240.683 726.035 673.870 872.049 229.644 540.917 284.110 637.927 191.704 436.623 438.645 261.356 248.952 738.680 577.218 281.605 263.276 494.219 295.199 367.092 101.050 253.822 272.798 100.443 892.596 248.137 873.318 421.102 239.545 227.130 211.252 336.667 356.325 750.094 269.311 278.923 201.652 258.612 639.187 652.951 469.866 236.219 843.253 135.162 134.316 215.548 373.961 777.072 254.382 648.651 258.912 456.913 412.180 307.106 488.040 166.453 494.005 256.868 747.512 918.382 138.324 523.562 245.529 358.499 156.649 501.892 543.351 299.297 316.530 207.569 278.052 735.744 277.645 242.331 151.959 621.880 265.483 553.320 216.206 206.033 249.507 426.432 266.479 616.416 629.357 244.378 550.799 275.418 0.000 188.354 246.240 777.503 392.548 478.629 312.199 282.522 188.262 140.435 940.893 158.896 768.790 247.707 870.985 767.537 238.202 263.218 590.300 260.507 104.416 237.384
551.584 811.995 280.518 437.918 106.751 420.752 273.731 101.319 723.269 433.432 439.780 550.357 534.448 442.770 308.123 345.276 69.339 742.840 180.279 318.704 186.160 502.870 534.460 87.098 596.362 534.167 688.048 263.707 399.691 252.771 618.288 267.419 312.021 514.359 105.409 73.365 597.454 453.632 289.480 116.898 310.218 218.530 362.094 116.272 95.779 117.844 113.862 708.595 89.447 707.018 496.816 106.552 118.067 27.251 238.117 186.674 566.093 141.449 274.767 20.602 142.345 714.901 633.312 450.228 80.272 702.768 75.707 239.509 185.743 449.675 635.845 138.116 525.065 103.859 385.916 228.179 182.504 563.755 200.516 369.403 140.602 563.511 752.082 96.765 339.561 89.582 192.211 232.363 317.891 359.350 136.042 217.980 98.457 353.767 551.743 93.644 104.105 62.607 498.294 260.485 629.035 93.048 30.122 84.185 242.431 235.140 492.831 505.771 102.032 366.798 119.472 187.476 0.000 129.973 639.630 415.475 354.027 196.044 251.183 4.261 94.421 774.593 49.834 644.188 92.654 686.984 642.095 116.092 138.708 460.627 104.560 114.856 81.437
525.102 878.146 350.275 507.676 56.543 486.903 401.224 48.836 793.027 499.583 505.931 620.114 600.598 512.527 377.881 372.451 121.773 808.991 313.366 275.597 319.248 476.388 600.611 119.759 522.536 506.162 756.823 352.981 373.209 385.858 554.302 333.569 268.914 580.510 128.704 136.742 570.972 523.390 404.941 99.865 379.976 353.383 389.269 182.423 86.114 118.893 169.887 777.370 137.954 776.776 562.967 71.836 59.421 160.339 371.204 188.617 635.850 110.085 402.259 170.797 12.372 781.052 569.326 386.242 149.758 675.544 129.581 266.080 318.830 510.629 609.363 8.143 594.823 139.075 321.930 296.804 139.397 629.906 289.790 326.297 10.628 633.268 821.840 196.508 409.318 144.531 190.791 298.514 387.649 426.657 131.588 351.067 92.802 419.918 621.500 117.153 74.622 128.204 568.052 287.660 695.186 102.841 180.317 81.799 312.189 368.227 562.588 575.529 76.669 434.105 132.168 253.627 150.195 0.000 609.795 534.413 310.921 106.770 384.270 145.934 198.619 844.350 100.366 601.081 143.604 756.741 711.852 70.493 103.992 386.801 158.951 170.880 150.140
300.642 1380.239 729.407 963.555 558.635 988.995 893.207 550.929 893.744 1001.676 1008.023 836.404 1102.691 968.406 643.287 876.504 579.701 1311.084 771.295 336.885 777.176 372.337 1102.704 621.852 407.446 594.954 845.615 855.073 269.157 843.786 976.196 835.662 442.116 1082.602 623.911 594.671 318.732 979.269 907.034 595.072 730.813 841.937 893.322 684.516 574.031 614.100 671.979 866.162 595.882 1051.598 1065.060 567.044 554.629 618.267 829.132 474.491 963.670 605.293 894.242 644.009 577.540 1283.145 991.220 808.136 607.686 65.750 631.674 770.736 776.758 1014.682 3.784 573.311 1050.702 641.168 729.632 529.825 533.637 1131.998 791.882 350.739 575.797 976.876 1096.662 698.601 688.702 616.996 431.481 800.607 690.288 577.251 541.516 808.995 594.895 922.010 857.840 534.066 569.830 630.296 1023.931 791.713 1197.278 604.934 653.529 563.144 720.805 826.155 1018.467 1031.408 571.877 579.633 627.375 755.719 623.407 565.168 0.000 1006.490 359.114 585.896 842.198 619.146 700.712 1119.173 602.459 8.713 645.697 854.645 1121.996 565.701 599.200 587.007 631.974 672.973 608.851
951.631 448.873 629.343 576.430 478.869 52.738 154.596 473.437 1047.504 51.841 358.964 899.182 375.960 581.281 656.948 528.017 469.386 379.718 298.386 706.362 305.911 902.917 264.195 503.738 953.573 891.337 1012.283 236.411 799.738 181.603 815.669 282.251 699.679 338.875 524.412 497.674 997.501 592.144 188.683 516.945 659.043 288.348 544.835 386.389 495.826 535.854 424.523 1032.829 498.886 889.322 219.705 502.600 490.185 428.327 331.607 586.721 890.327 532.366 158.138 407.389 521.667 351.779 830.693 647.609 499.274 1102.815 398.218 333.802 236.462 368.859 1035.892 517.438 664.655 521.968 634.656 577.004 570.162 158.501 307.214 757.061 519.924 887.745 934.386 401.380 688.386 508.585 592.258 278.562 666.716 708.176 536.089 327.602 470.625 212.871 900.568 493.691 504.152 415.014 637.884 443.226 223.781 479.262 397.870 484.232 591.257 227.359 631.342 645.360 502.079 715.623 538.474 378.657 427.991 509.295 1039.677 0.000 741.685 489.942 243.402 429.206 403.491 956.896 421.952 1031.846 510.762 1011.218 783.540 501.257 526.274 817.838 523.562 414.464 500.439
534.889 1092.491 531.292 688.692 270.888 701.248 615.569 263.181 842.484 713.929 718.550 747.006 814.944 693.544 496.485 578.773 328.944 1023.336 520.538 69.886 526.419 486.175 814.956 334.105 380.150 543.694 794.356 567.326 382.996 593.029 671.059 547.915 83.002 794.855 336.164 343.914 580.759 704.406 619.287 307.325 560.992 567.728 595.591 396.768 286.283 326.353 384.232 814.902 345.126 957.792 777.312 279.296 266.881 367.510 578.375 327.690 816.867 317.545 616.605 385.142 289.793 995.397 686.083 502.999 356.929 421.866 343.927 472.402 526.001 716.951 359.901 285.564 775.839 353.421 436.610 383.024 245.890 844.251 504.135 22.034 288.049 814.285 1002.856 410.854 541.900 351.991 284.680 512.859 543.486 483.064 275.319 558.238 307.148 634.263 748.392 307.783 282.083 342.549 749.068 493.982 909.531 317.186 394.662 288.970 493.205 575.398 743.605 756.545 284.129 490.512 339.628 467.972 364.541 277.421 356.116 748.759 0.000 280.760 591.441 360.280 412.964 1025.367 314.711 347.403 357.950 803.385 892.869 277.953 311.453 410.255 366.412 385.225 358.094
522.662 841.650 373.165 530.566 119.864 450.407 464.545 112.157 802.512 463.087 452.035 643.004 564.102 535.417 400.770 312.257 170.818 772.495 362.411 252.834 368.292 473.948 564.115 183.081 475.570 503.722 754.383 416.302 370.768 434.902 494.109 318.344 246.151 544.014 185.140 185.787 568.532 546.280 468.039 156.301 402.865 416.704 329.076 245.744 124.070 175.329 233.208 774.930 186.999 799.665 526.471 128.272 115.857 209.383 420.249 216.815 658.740 166.521 465.581 234.118 101.855 744.556 509.133 326.049 198.803 652.781 192.903 205.887 367.875 450.436 590.816 97.626 617.713 202.397 277.662 319.694 167.596 593.409 353.111 303.533 100.112 656.158 844.730 259.830 432.208 200.967 218.989 314.655 410.539 443.092 159.786 400.112 156.124 383.421 644.390 166.198 131.059 191.525 590.942 227.467 658.689 166.162 243.638 130.843 335.079 417.272 585.478 598.418 133.105 450.539 188.604 316.948 213.517 126.397 587.031 497.917 288.157 0.000 433.315 209.256 261.940 867.240 163.687 578.318 206.926 763.413 734.742 126.929 160.428 339.835 215.388 234.201 199.968
760.017 706.278 437.729 392.832 331.873 306.659 146.804 324.166 855.889 309.246 486.868 707.568 581.535 397.683 465.334 559.571 277.772 637.123 106.772 527.137 114.297 711.303 521.600 320.429 804.795 699.723 820.668 180.985 608.124 94.701 848.200 314.506 520.454 561.447 338.740 306.059 805.887 408.546 162.553 325.331 467.429 155.832 576.390 263.635 304.211 351.175 290.528 841.215 307.271 704.646 477.111 314.985 327.866 236.713 167.995 395.107 698.713 353.233 147.840 235.744 350.778 609.184 863.224 680.140 313.603 911.200 264.223 368.290 76.711 496.763 844.278 346.549 479.979 337.190 619.247 385.390 390.937 415.907 162.728 577.836 349.034 696.131 749.710 232.398 496.772 322.913 400.644 279.451 475.102 516.561 344.475 147.858 331.788 379.973 708.954 302.077 312.538 281.019 453.208 474.781 481.187 326.379 226.224 292.617 399.642 16.844 447.744 460.685 310.464 524.009 352.803 259.173 241.853 338.406 848.062 257.406 562.460 404.476 0.000 237.592 234.509 772.221 283.165 852.621 325.985 819.604 598.865 324.524 347.141 669.060 337.891 291.521 314.768
547.323 808.288 276.257 433.657 102.490 417.045 277.992 97.058 719.008 429.725 436.073 546.096 530.740 438.509 303.862 341.015 65.078 739.133 176.018 314.443 181.899 498.609 530.753 82.837 592.101 529.906 683.788 267.968 395.430 248.510 614.027 263.711 307.760 510.652 101.149 69.104 593.193 449.371 293.741 112.637 305.957 222.791 357.833 112.565 91.518 113.583 109.601 704.334 85.186 702.757 493.109 102.291 113.806 22.990 233.856 182.413 561.832 137.188 279.027 24.863 138.085 711.194 629.051 445.967 76.011 698.507 71.446 235.248 181.482 445.968 631.584 133.855 520.805 99.599 381.655 223.918 178.243 560.048 204.777 365.142 136.341 559.250 747.821 101.026 335.300 85.321 187.950 228.656 313.630 355.089 131.781 213.719 94.196 350.060 547.482 89.383 99.844 58.346 494.034 256.224 625.328 88.787 34.383 79.924 238.171 230.879 488.570 501.510 97.771 362.537 115.211 183.769 4.261 125.712 635.369 411.214 349.766 191.783 246.922 0.000 98.682 770.332 45.573 639.927 88.393 682.723 637.834 111.831 134.447 456.366 100.299 110.595 77.176
622.836 760.322 359.782 442.237 145.838 369.079 228.387 140.406 802.534 381.759 388.107 629.621 482.774 447.088 387.388 360.536 148.604 691.167 159.562 373.331 165.443 574.122 482.787 146.080 656.060 603.895 767.313 180.144 470.942 219.513 649.164 215.745 366.648 462.686 165.286 152.629 668.705 457.951 232.104 193.301 389.483 175.932 377.354 64.599 175.043 176.826 91.492 787.859 152.067 754.051 445.143 169.570 157.154 106.516 217.400 265.939 645.357 199.335 229.422 92.563 188.637 663.228 664.188 481.104 140.149 773.278 65.187 254.768 160.041 398.002 707.097 184.407 529.384 162.842 425.003 307.443 237.131 512.082 116.953 424.030 186.893 642.775 799.115 2.344 418.825 149.459 271.476 180.690 397.156 438.615 215.306 197.263 137.594 302.094 631.007 172.908 172.356 81.984 502.613 275.745 577.362 146.231 86.766 163.449 321.696 201.882 497.149 510.090 174.403 446.062 179.348 135.803 79.264 176.264 707.528 382.217 408.654 255.742 217.925 83.525 0.000 821.626 88.921 698.815 151.637 766.248 648.269 168.226 193.243 520.325 164.437 92.485 141.314
1017.781 1107.280 596.816 418.126 815.038 945.581 859.688 807.331 262.724 939.729 1184.489 447.383 1127.692 421.382 625.883 1110.431 809.596 1038.125 735.093 978.913 740.975 780.218 1047.961 852.253 1256.571 677.860 272.570 878.606 853.954 807.585 1308.756 1012.127 972.230 1122.389 855.894 826.353 1035.802 406.453 875.436 809.373 527.861 853.453 1127.249 876.814 773.972 846.083 879.017 246.849 827.564 71.772 1021.161 799.026 811.031 768.537 704.508 852.776 223.474 837.275 860.723 787.889 833.943 1010.186 1323.780 1140.696 839.368 1177.520 840.862 1004.664 774.332 1194.384 1110.598 829.714 458.738 869.015 1074.306 763.777 842.713 878.404 860.349 1029.613 832.199 236.680 34.033 845.578 599.638 848.678 845.792 977.072 569.891 730.226 808.146 684.371 851.298 1077.594 468.819 761.154 796.579 827.762 431.967 1025.641 826.698 858.203 796.905 776.659 596.363 789.954 427.179 431.738 794.506 728.016 859.358 948.018 773.677 821.571 1114.382 951.217 1014.237 856.253 805.997 769.416 847.688 0.000 814.989 1123.096 857.809 282.545 270.931 808.566 831.182 1120.836 863.656 880.011 840.533
533.915 777.780 321.825 479.226 56.918 386.537 300.858 51.485 764.577 399.217 405.565 591.664 500.232 484.077 349.431 295.442 110.647 708.625 221.587 284.410 227.468 485.201 500.245 81.787 567.139 514.974 729.356 252.615 382.021 294.078 568.454 233.203 277.727 480.144 118.663 106.258 579.784 494.940 304.575 104.380 351.526 253.017 312.261 82.057 94.927 113.902 79.093 749.902 105.443 748.326 462.601 80.649 68.234 68.559 279.424 197.429 607.400 110.415 301.893 70.431 99.716 680.686 583.478 400.394 93.525 684.357 40.938 189.675 227.050 415.460 618.176 95.486 566.373 101.103 336.083 269.486 148.210 529.540 189.424 335.109 97.972 604.818 793.390 96.142 380.868 102.835 199.603 198.148 359.199 400.658 140.401 259.287 48.674 319.552 593.050 125.966 83.435 27.838 539.602 210.652 594.820 57.311 79.951 90.611 283.739 276.447 534.138 547.078 85.482 408.105 132.497 153.261 49.829 87.344 618.607 434.047 319.733 166.821 292.490 45.568 98.253 815.900 0.000 609.894 105.013 728.291 683.402 79.306 104.322 431.404 117.813 80.087 94.690
309.355 1388.915 738.121 972.268 567.311 997.671 901.920 559.605 902.457 1010.352 1014.973 845.117 1111.367 977.119 652.000 875.196 588.415 1319.760 780.008 328.171 785.889 381.050 1111.380 630.528 398.732 603.667 854.329 863.749 277.871 852.499 967.482 844.338 433.402 1091.278 632.587 603.384 327.445 987.982 915.710 603.748 739.526 850.651 892.015 693.192 582.707 622.776 680.655 874.875 604.596 1060.312 1073.736 575.720 563.305 626.980 837.846 483.205 972.384 613.969 902.955 652.722 586.216 1291.821 982.506 799.422 616.400 74.463 640.350 768.826 785.472 1013.375 12.498 581.987 1059.415 649.844 720.918 538.539 542.313 1140.674 800.558 342.026 584.473 985.589 1105.376 707.277 697.415 625.710 440.195 809.283 699.001 585.964 550.229 817.709 603.571 930.686 866.553 542.779 578.506 638.972 1032.644 790.406 1205.954 613.610 662.242 571.857 729.518 834.868 1027.181 1040.121 580.553 588.346 636.051 764.395 632.120 573.844 8.713 1015.203 350.401 577.183 850.911 627.859 709.388 1127.886 611.135 0.000 654.373 863.358 1130.710 574.377 607.876 578.293 640.687 681.649 617.564
563.723 872.140 363.876 521.276 116.320 480.897 365.611 110.888 806.627 493.577 499.925 633.715 594.593 526.127 391.481 389.010 91.606 802.985 263.637 330.842 269.518 515.008 594.605 40.455 608.500 546.305 771.406 340.486 411.829 336.128 627.857 327.564 324.159 574.504 66.126 53.722 609.592 536.990 381.359 121.166 393.576 310.410 405.828 176.417 104.616 44.402 173.454 791.953 52.907 790.376 556.961 110.819 123.648 110.609 321.475 198.812 649.451 74.464 366.646 112.481 151.183 775.046 642.881 459.797 38.982 714.906 135.298 283.243 269.101 509.820 647.983 146.954 608.423 26.330 395.485 301.055 194.642 623.900 277.296 381.541 149.440 646.869 835.440 173.545 422.918 50.299 204.349 292.508 401.249 432.226 148.180 301.338 66.922 413.912 635.100 105.782 112.943 122.198 581.652 304.219 689.180 61.512 122.001 93.022 325.789 318.497 576.188 589.129 107.200 439.674 58.137 247.621 91.880 138.811 651.768 498.832 366.165 208.182 334.540 87.619 171.200 857.951 109.425 656.326 0.000 770.342 725.452 121.260 72.551 472.765 65.277 174.447 32.696
767.504 1218.605 481.735 529.451 702.264 1056.906 897.440 694.557 55.094 1051.055 1092.715 183.647 1187.382 532.708 432.521 997.657 696.822 1149.450 775.528 791.939 781.409 529.940 1159.287 739.479 1106.369 427.583 19.874 893.725 603.677 848.020 1195.982 920.353 809.221 1167.294 743.120 713.579 785.525 517.778 913.189 696.598 415.087 868.572 1014.475 769.207 661.198 733.309 766.243 40.420 714.790 225.857 1132.486 686.252 698.257 655.763 751.094 668.834 110.700 724.501 898.476 675.114 721.169 1121.511 1211.006 1027.921 726.594 927.243 728.088 891.890 780.992 1102.610 860.321 716.940 570.063 756.241 961.532 574.576 729.939 989.729 861.419 866.603 719.425 123.905 270.921 757.668 390.437 735.904 656.592 885.298 442.616 516.591 695.372 730.957 738.524 1006.702 205.083 648.380 683.805 714.988 543.292 912.866 938.023 745.429 684.131 663.885 483.589 830.389 538.505 543.064 681.732 497.245 746.584 840.411 660.903 708.797 864.105 1010.724 851.227 743.479 846.432 656.642 755.324 293.431 702.215 872.818 745.035 0.000 360.004 695.792 718.408 1008.062 750.882 767.237 727.759
1069.098 922.520 492.517 233.365 675.677 760.820 674.927 667.970 361.703 754.969 999.728 533.414 942.931 236.622 521.584 971.070 670.235 853.365 550.333 839.552 556.214 879.196 863.201 712.892 1117.210 776.839 369.640 693.846 903.478 622.824 1169.395 827.367 832.869 937.629 716.533 686.992 1114.967 221.692 690.676 670.012 423.562 668.693 987.888 692.054 634.611 706.722 718.946 345.828 688.203 200.556 836.400 659.665 671.670 629.176 519.748 714.943 247.685 697.914 675.963 648.528 694.582 825.426 1184.419 1001.335 700.007 1220.281 692.642 865.303 589.571 1009.624 1153.358 690.353 273.977 729.654 934.945 659.478 703.352 693.643 675.588 890.252 692.838 252.901 245.620 660.817 495.338 709.317 724.954 792.312 465.592 625.926 668.785 499.611 711.937 892.834 554.850 621.793 657.218 688.401 247.206 886.279 641.937 718.842 654.643 637.298 492.064 605.194 242.419 246.978 655.145 623.717 719.997 763.257 634.316 682.210 1157.143 766.456 874.876 716.892 621.237 630.055 662.928 268.131 675.628 1165.036 718.448 368.576 0.000 669.205 691.821 981.475 724.295 719.940 701.172
528.328 875.208 333.220 490.621 54.280 483.965 390.654 45.898 775.972 496.645 502.993 603.059 597.661 495.472 360.825 371.473 77.149 806.053 268.742 278.823 274.623 479.614 597.673 61.435 561.552 509.387 740.751 350.043 376.434 341.234 578.417 330.631 272.140 577.572 59.490 92.118 574.197 506.335 402.004 34.837 362.920 339.385 388.291 179.485 71.689 49.679 166.949 761.297 93.330 759.720 560.029 41.637 45.103 115.714 326.580 165.885 618.795 40.871 391.689 141.457 94.129 778.114 593.441 410.356 98.101 678.770 126.644 265.706 274.206 509.652 612.589 89.899 577.768 80.751 346.045 268.127 142.623 626.968 286.852 329.522 92.385 616.213 804.785 193.571 392.263 75.317 171.422 295.576 370.594 399.299 115.253 306.443 64.725 416.980 604.445 72.855 60.305 125.266 550.997 286.682 692.248 74.583 150.976 60.095 295.134 323.603 545.533 558.473 62.352 406.746 62.954 250.689 120.855 81.757 613.020 503.938 314.146 161.234 339.646 116.594 195.681 827.295 97.428 604.307 85.280 739.686 694.797 0.000 34.779 425.817 89.738 167.942 91.815
534.321 859.940 358.812 516.212 60.274 468.696 383.018 51.892 801.563 481.377 487.725 628.651 582.392 521.063 386.417 356.945 112.056 790.785 284.249 284.817 290.130 485.607 582.405 26.656 567.546 515.381 766.043 334.774 382.428 356.741 584.410 315.363 278.134 562.303 90.467 78.063 580.191 531.926 386.735 69.744 388.512 331.022 373.764 164.217 79.018 58.771 152.421 786.589 77.247 785.312 544.761 63.512 51.097 131.221 342.087 197.836 644.387 75.778 384.053 133.094 100.122 762.846 599.434 416.350 63.323 684.764 112.116 251.178 289.713 495.124 618.582 95.893 603.359 45.972 352.038 303.034 148.617 611.699 271.583 335.516 98.378 641.805 830.376 178.302 417.855 74.640 200.010 280.308 396.185 434.206 140.807 321.950 29.947 401.711 630.037 107.762 66.299 109.998 576.588 272.155 676.979 39.805 142.613 73.475 320.725 339.110 571.125 584.065 68.345 441.653 83.889 235.421 112.492 87.750 619.014 516.207 320.140 167.228 355.153 108.231 180.413 852.887 82.160 610.301 50.501 765.278 720.388 60.275 0.000 431.811 89.617 153.415 57.037
756.193 1170.903 639.875 797.275 386.574 779.659 731.255 378.867 1036.043 792.340 781.287 909.714 893.355 802.127 667.480 641.510 437.528 1101.748 629.121 454.548 635.002 707.479 893.367 449.790 178.909 737.253 987.914 683.012 604.300 701.612 505.317 647.597 324.696 873.266 451.850 452.497 802.063 812.989 734.972 423.011 669.575 683.414 658.328 512.454 394.867 442.039 499.918 1008.461 453.709 1066.375 855.723 394.982 382.567 476.093 686.959 483.525 925.450 433.231 732.290 500.828 372.659 1073.808 520.341 337.256 465.513 651.511 459.612 535.140 634.585 779.688 589.546 368.430 884.423 469.107 234.738 576.583 434.306 922.662 619.821 419.680 370.915 922.868 1111.439 526.540 698.918 467.677 479.762 628.545 677.248 676.623 426.496 666.822 422.833 712.674 911.100 432.908 397.768 458.235 857.652 556.719 987.942 432.872 510.348 397.553 601.789 683.981 852.188 865.128 399.815 684.071 455.314 583.658 480.226 393.107 585.761 827.170 407.483 343.497 700.024 475.965 528.650 1133.950 430.397 577.048 473.636 996.944 1001.452 393.639 427.138 0.000 482.097 500.911 466.677
530.756 902.158 333.181 490.582 99.312 510.914 390.615 91.605 775.933 523.595 529.942 603.020 624.610 495.433 360.786 417.180 77.110 833.003 268.703 297.876 274.584 482.042 624.623 82.546 575.534 513.339 740.712 370.504 378.863 341.195 623.448 357.581 291.193 604.521 33.160 82.286 576.626 506.296 406.364 88.200 362.881 338.974 433.998 206.435 71.650 108.280 203.471 761.258 81.152 759.681 586.979 77.853 95.305 115.675 326.541 165.846 618.756 69.200 391.650 141.046 118.217 805.064 638.472 455.388 67.546 681.939 165.316 311.413 274.167 539.838 615.017 113.988 577.729 94.296 391.076 268.088 161.676 653.917 307.313 348.575 116.473 616.174 804.746 203.562 392.224 17.333 171.383 322.526 370.555 399.260 115.214 306.404 109.013 443.929 604.406 72.816 79.977 152.215 550.958 332.389 719.197 103.604 150.565 60.056 295.095 323.564 545.494 558.434 74.234 406.707 26.784 277.639 120.444 105.845 618.802 503.899 333.199 175.215 339.607 116.183 201.218 827.256 139.442 623.360 83.091 739.647 694.758 88.294 110.009 439.799 0.000 204.464 61.260
608.755 763.642 391.687 514.226 131.758 372.399 295.762 126.325 834.439 385.080 391.427 661.526 486.095 519.077 419.292 342.447 180.508 694.487 231.551 359.250 237.432 560.041 486.107 156.627 641.979 589.814 799.218 247.519 456.861 291.502 631.075 219.066 352.567 466.006 188.524 176.120 654.624 529.940 299.480 179.220 421.387 247.921 359.265 40.128 169.767 188.742 14.938 819.764 175.305 818.187 448.463 155.489 143.074 138.421 289.389 272.269 677.262 185.255 296.797 140.293 174.556 666.548 646.099 463.015 163.387 759.197 47.098 203.712 232.030 401.323 693.016 170.326 601.373 175.943 410.923 339.348 223.050 515.402 184.328 409.949 172.812 674.680 863.251 91.047 450.730 172.697 274.443 184.010 429.060 470.520 215.241 269.252 123.513 305.414 662.912 200.806 158.275 63.895 574.602 257.656 580.682 132.150 149.813 165.451 353.601 273.871 569.139 582.079 160.322 477.967 202.587 108.762 119.691 162.184 693.447 419.910 394.573 241.661 289.914 115.430 93.157 885.762 86.064 684.734 174.875 798.153 720.259 154.146 179.162 506.244 187.675 0.000 164.552
536.583 846.454 336.737 494.137 105.139 455.211 338.472 97.432 779.488 467.891 474.239 606.575 568.907 498.988 364.342 379.181 64.467 777.299 236.498 303.703 242.379 487.869 568.919 37.095 581.361 519.166 744.267 314.800 384.690 308.989 624.497 301.877 297.020 548.818 38.987 26.583 582.453 509.851 354.220 94.027 366.437 283.271 396.000 150.731 77.477 62.829 147.768 764.814 25.768 763.237 531.275 83.680 101.132 83.470 294.335 171.673 622.311 75.027 339.507 85.342 124.044 749.360 639.521 456.437 6.286 687.767 109.612 273.414 241.961 484.134 620.844 119.815 581.284 48.845 392.125 273.915 167.503 598.214 251.610 354.402 122.300 619.729 808.301 147.859 395.779 23.160 177.210 266.822 374.110 405.087 121.041 274.198 63.562 388.226 607.961 78.643 85.804 96.512 554.513 294.391 663.494 58.152 94.862 65.883 298.650 291.358 549.049 561.990 80.061 412.534 53.049 221.935 64.740 111.672 624.629 471.693 339.026 181.042 307.401 60.479 145.514 830.811 83.739 629.187 37.639 743.202 698.313 94.121 102.343 445.626 38.137 148.761 0.000
NODE_COORD_SECTION
1 -5405.118560 8004.859443
2 9136.219517 -8930.730125
3 2425.136267 3052.144185
4 8518.628665 696.580118
5 -1422.625555 -365.818331
6 3994.140307 -4886.185237
7 2922.042657 -2132.059045
8 -1348.839020 -251.602520
9 7288.349913 8113.877006
10 4151.698366 -5001.622041
11 915.321850 -6944.829419
12 4241.927228 6735.466224
13 3990.248174 -8213.026040
14 8454.376777 812.820636
15 1974.375026 3622.945947
16 -2090.589802 -6306.376300
17 -571.337054 231.950798
18 8009.201306 -9005.695720
19 2523.811288 65.257028
20 -4642.604555 2250.426096
21 2710.283072 212.917588
22 -2501.510205 7958.575271
23 3813.199356 -7031.831639
24 -875.138700 -309.888103
25 -8512.327728 -655.700330
26 243.624468 8513.490459
27 6896.243639 8321.387649
28 2339.863639 -1950.487141
29 -3172.777028 6545.121494
30 2995.762749 -1588.403271
31 -7456.921917 -8152.210024
32 1007.281702 -3664.549793
33 -4952.916075 1095.545483
34 3826.391193 -8063.464220
35 -736.348354 55.849210
36 -601.683020 -19.014143
37 -5513.980358 8667.920227
38 8556.980568 742.428627
39 2686.351258 -2220.301621
40 -1029.552725 -3.300484
41 3063.611623 3359.920748
42 2323.345795 -1453.669085
43 -2460.621086 -6744.643308
44 183.556151 -1668.209181
45 -1212.013350 222.124369
46 -923.417792 -180.976671
47 -224.666565 -1684.337740
48 7239.664216 8361.808243
49 -646.783690 47.342116
50 9661.882399 7101.950690
51 3882.554907 -6736.249832
52 -1147.356058 -11.369087
53 -1263.098853 -86.410334
54 55.583029 -67.174007
55 3231.165582 257.709192
56 -1228.705959 2146.399971
57 7268.669356 6237.066888
58 -892.782910 54.156879
59 2866.534819 -2165.663694
60 179.226341 -306.863991
61 -1880.176809 -255.888755
62 7929.290386 -8941.269269
63 -7550.961622 -8397.062619
64 -5987.794103 -5242.801311
65 -623.256257 -98.494887
66 -7631.589844 5932.077008
67 -360.162615 -1280.165594
68 -450.236271 -3411.887209
69 2281.030928 -827.065410
70 822.728724 -6937.809313
71 -7578.296281 5810.610422
72 -1824.730549 -236.496721
73 9681.491696 2.737291
74 -817.771230 -168.892599
75 -5973.047556 -3041.441696
76 -429.276519 3030.270453
77 -2017.086879 632.356303
78 5727.420832 -6564.531821
79 1418.776648 -1377.319286
80 -5276.112417 2037.148155
81 -1857.313180 -247.896675
82 7206.356744 6211.384798
83 10109.355891 7434.977317
84 461.691927 -1001.820798
85 2554.628322 3768.704927
86 -728.298483 12.624453
87 -1514.449934 2441.726574
88 972.570789 -3546.992200
89 2565.093588 3439.378806
90 1087.902082 5091.372475
91 -1337.687144 849.411203
92 3296.411371 392.910548
93 -981.207067 -449.265612
94 1873.147804 -4627.097696
95 4331.131314 6560.302407
96 -937.100481 615.285062
97 -1400.544428 -53.002289
98 -369.846526 -1071.933125
99 9727.868487 101.869684
100 -1743.120785 -3375.201767
101 6239.784729 -6634.095598
102 -901.396058 -398.332056
103 309.135408 -288.096844
104 -1110.716180 175.728589
105 2324.712882 2722.235755
106 2659.845896 -859.189832
107 9049.488834 773.737239
108 9646.492506 440.382404
109 -1216.259413 25.212476
110 1113.145618 5137.822274
111 -780.956539 -31.149145
112 248.653415 -2537.259064
113 -66.917648 -327.405940
114 -1717.977295 -199.154422
115 -7626.425923 5774.559749
116 3904.131337 -4401.423700
117 -5139.291379 1927.713132
118 -2700.985952 -486.655546
119 2761.687473 -809.738578
120 -90.999588 -273.361926
121 441.096969 -985.870091
122 10349.166526 7588.633815
123 -660.250766 -862.202041
124 -7680.431589 5615.741594
125 -819.162338 -153.106993
126 6781.018097 8133.856654
127 9589.456942 3290.725575
128 -1171.493638 -100.367842
129 -1001.495033 -214.769542
130 -9028.116742 -1931.067015
131 -712.308715 -30.689983
132 -178.023750 -1657.733861
133 -619.652057 -110.925830
DEMAND_SECTION
1 0
2 27
3 77
4 63
5 66
6 23
7 35
8 85
9 69
10 26
11 97
12 95
13 33
14 56
15 95
16 84
17 46
18 4
19 52
20 25
21 80
22 50
23 4
24 57
25 87
26 10
27 82
28 36
29 19
30 37
31 70
32 30
33 28
34 42
35 50
36 65
37 39
38 58
39 23
40 68
41 59
42 25
43 86
44 54
45 8
46 59
47 61
48 75
49 48
50 75
51 40
52 70
53 98
54 97
55 70
56 16
57 92
58 41
59 29
60 75
61 98
62 21
63 82
64 61
65 60
66 39
67 77
68 57
69 39
70 60
71 42
72 100
73 94
74 100
75 53
76 8
77 46
78 29
79 46
80 28
81 67
82 65
83 68
84 91
85 60
86 22
87 34
88 10
89 54
90 63
91 49
92 52
93 66
94 38
95 62
96 5
97 55
98 77
99 58
100 52
101 32
102 59
103 95
104 35
105 79
106 49
107 61
108 67
109 19
110 92
111 96
112 71
113 62
114 56
115 33
116 6
117 6
118 62
119 13
120 94
121 63
122 98
123 99
124 36
125 98
126 66
127 69
128 53
129 69
130 80
131 97
132 100
133 83
DEPOT_SECTION
1
-1
EOF
