NAME : mamut-montreal-n112-k9-par
COMMENT : Mamut2026 shortest metric; city montreal; No of trucks: 9 (lower bound, fleet not fixed); 3-decimal seconds/meters; ENU ref in mamut-montreal-n112-k9-par.vrp.json
TYPE : CVRP
DIMENSION : 113
EDGE_WEIGHT_TYPE : EXPLICIT
EDGE_WEIGHT_FORMAT : FULL_MATRIX
CAPACITY : 162
EDGE_WEIGHT_SECTION
0.000 24034.498 16573.859 16002.747 19937.166 28599.250 44623.790 15748.130 18728.273 28379.161 11746.565 19852.938 16604.575 42292.560 44637.096 3662.830 17140.234 44506.558 30373.856 36123.904 30372.685 27569.349 24134.794 12911.992 35180.423 17695.116 27636.322 16475.559 43281.838 27519.619 16613.593 51961.633 44799.899 32286.876 16635.657 41312.147 31139.571 10078.248 11430.639 38615.725 18984.706 28837.613 22394.387 33373.114 40561.395 32883.474 36484.153 41531.950 42341.972 24038.220 18345.318 29580.054 24887.067 12956.597 32889.244 45320.569 45409.555 15891.769 21378.846 13389.044 28012.165 27033.555 39420.171 19794.576 12326.940 20341.762 21270.733 40952.316 18433.685 39429.279 18443.009 43704.417 42348.993 28653.791 2926.246 31434.303 17926.816 13209.071 10866.141 12962.197 34607.399 3981.166 44602.323 25926.854 46005.658 44150.986 17811.624 21534.627 32360.185 32227.233 39821.440 18505.397 12337.240 32012.106 16990.395 14029.930 35850.629 23004.624 15148.565 30702.077 24883.847 40829.936 31636.328 37407.088 39559.372 16343.866 21225.851 28646.484 23225.142 42300.619 28356.838 8291.848 34284.094
24799.544 0.000 11583.201 12452.160 22279.392 7951.317 23464.546 12685.807 14848.293 36899.317 14676.833 5599.254 9525.439 37285.241 23477.852 23668.698 8918.130 22762.009 28522.141 14761.301 8954.328 6921.415 22410.443 22048.499 24621.850 11041.064 21215.666 9327.871 27044.480 19024.699 40268.168 30802.389 31454.428 21336.924 19573.957 28269.708 15386.819 19680.835 16446.949 41554.025 18801.978 23977.517 24736.614 13617.243 27518.956 11724.230 13412.611 22361.583 25997.274 17433.334 12452.580 27686.965 27229.293 36543.113 11987.976 33626.222 26672.589 12129.635 8377.816 37043.619 19213.718 6385.621 42358.470 19780.608 23233.516 6531.738 13141.811 26938.228 10113.504 42367.578 26617.270 42573.740 45287.293 8005.857 24605.320 27657.977 9161.428 15289.205 16830.517 18260.023 16896.666 22815.139 28957.207 14960.103 32402.375 27806.289 8210.846 13245.954 14350.983 10768.911 25533.297 17763.283 14449.880 21747.825 13317.075 15508.663 38788.928 25942.924 18763.670 10481.230 18620.187 24485.239 13925.596 40345.388 38428.695 9413.641 23568.077 14723.297 25708.579 45238.919 20575.894 17009.868 37222.394
16587.860 11622.025 0.000 12475.564 22053.550 16327.927 32352.467 12108.409 7562.324 26193.773 9096.519 7581.615 2705.858 41930.051 32365.773 13932.347 7423.374 31437.267 30012.655 23852.580 18101.362 15298.026 15124.473 11342.955 27459.156 11134.620 22789.608 7108.447 31806.892 20736.590 32056.484 39690.310 36099.238 24174.230 20007.095 33032.120 20013.588 8724.663 14387.635 41851.587 11516.008 25551.459 24510.771 21790.829 32281.368 20612.151 22585.437 28462.659 30759.686 19007.617 13596.786 29177.479 27003.451 28331.429 20617.921 38271.033 32773.666 12153.040 9777.604 28831.935 21229.137 14762.232 42656.032 21271.123 12527.972 8262.227 14632.325 31700.640 3397.016 42665.140 15911.726 44064.254 45584.854 16382.468 14868.968 29789.699 9031.269 4243.305 6053.329 16719.391 22997.742 13078.788 33719.619 16963.285 37047.185 32568.701 3912.908 14736.468 20777.899 19955.910 30178.108 10477.313 6645.181 24396.601 6031.105 14696.361 39086.490 26376.062 18520.003 18857.841 20110.702 29247.651 20026.672 40642.950 39919.209 2445.149 23342.235 17205.295 25482.736 45536.480 22238.415 9441.810 37655.532
15994.874 12682.199 12441.548 0.000 9827.232 15189.102 30206.728 825.421 19977.867 32402.183 6312.751 9430.605 9738.970 31807.860 30220.034 15689.366 5815.887 32248.102 19168.117 21982.260 16962.537 13653.284 27399.425 17522.251 19562.740 1839.964 12018.639 5901.647 27664.156 11901.936 31463.498 37544.570 29182.216 16669.193 7798.602 25694.464 27382.445 13444.779 5322.887 29625.269 22661.834 14780.490 12284.454 17715.481 24943.712 18088.523 25408.237 32034.007 26684.338 8420.537 2727.635 18332.941 14777.133 27738.444 18061.936 31828.930 35580.624 457.372 5554.012 28238.950 12394.482 13623.406 30429.714 9440.686 17940.273 6485.537 5653.050 25334.633 15697.485 30438.823 22120.136 33219.716 33358.537 14156.018 16625.988 19431.472 4125.422 11362.797 10876.875 6123.069 28892.292 14835.807 28984.640 10309.171 30387.976 28493.352 11256.577 5916.944 16702.551 18817.085 24203.757 20908.861 9394.356 16394.423 18446.648 3056.503 26860.173 14167.569 6311.510 15044.443 9266.164 25172.302 25921.222 28416.632 29074.671 10254.305 11115.917 13035.742 13256.419 33310.163 12739.156 9381.537 25447.039
20245.576 22430.428 22109.227 9895.824 0.000 23447.231 38435.558 10417.861 29253.345 41123.855 15034.423 19119.037 19406.650 30436.281 38448.864 19952.497 15504.318 40506.231 18632.845 30211.090 25220.666 21911.414 36121.097 25828.893 25114.295 11588.193 17570.194 15590.078 33215.711 17631.730 35714.200 45773.401 34733.771 22104.772 6344.667 31246.019 37130.674 22012.354 9821.637 20090.007 31383.506 17568.576 4949.749 25944.311 30495.267 26317.353 35156.466 40292.136 32458.723 13972.092 10183.535 18311.017 6775.830 31989.145 26290.767 33464.290 43838.753 10205.602 15302.242 32489.651 18124.277 21881.535 20894.452 8627.691 25243.841 16233.767 13071.794 30886.188 25365.164 20903.560 30841.808 31848.138 23823.274 22414.147 20889.118 20165.265 13873.652 20354.829 19104.506 10373.770 38640.521 19098.938 34536.195 16297.775 34584.361 34524.694 20924.256 13099.503 24313.372 27075.214 29933.552 29630.533 18417.479 21830.002 27515.466 10014.824 17324.910 5404.487 5830.771 23273.274 14308.245 32403.148 35669.451 18881.370 27703.093 19921.984 3354.855 19856.857 3557.883 23774.900 18174.735 15480.659 16091.582
29424.272 7714.815 16574.793 15546.190 23486.383 0.000 16670.449 15779.837 20879.691 42737.489 19301.561 9965.347 14179.194 34622.492 16683.755 28293.427 13284.223 17727.210 26793.992 8170.563 2441.645 1975.105 28441.841 27886.671 21959.101 13944.368 19337.013 13693.965 24381.731 16832.258 44892.896 24008.292 28791.679 18674.175 19847.971 25606.959 17148.132 24305.563 19566.019 42311.491 24833.376 22231.695 25943.604 10678.301 24856.207 4851.152 15181.247 17513.115 23334.525 15878.979 13357.986 25311.977 28436.284 41167.842 4824.565 30963.473 21059.732 15223.666 11121.442 41668.347 17021.277 1957.556 43115.936 19291.813 28801.057 9650.808 12653.016 24275.479 16898.801 43125.044 32455.443 40845.591 46044.758 2850.010 29230.048 24995.228 12280.498 20076.064 21455.245 21354.053 18657.979 27439.867 26294.458 12767.662 29739.625 23180.831 13202.438 12757.159 11412.040 4296.193 22870.548 23794.681 19074.609 19085.076 19348.473 18602.693 39546.394 26695.607 19826.567 6252.365 17881.929 18849.350 15686.909 41102.853 36700.547 14405.233 24775.068 12530.856 26915.570 45996.384 18237.430 21634.597 37979.859
45187.565 23478.109 32338.086 30323.607 38052.375 16397.172 0.000 30557.254 36642.984 58500.782 35064.854 25728.640 29942.487 28219.957 7100.136 44056.720 29047.516 26322.516 27467.061 11053.710 16006.419 17613.164 43350.224 43649.964 20275.099 28721.785 22827.919 29457.258 15033.060 21748.985 60656.189 14424.672 20845.535 18300.397 32897.181 17357.782 31787.748 40068.856 35054.720 54787.761 40596.669 25061.406 40682.818 15070.112 16607.030 12335.391 29820.864 26711.313 15085.349 25581.026 28097.199 25708.198 43175.497 56931.135 12601.211 23807.673 30617.828 30001.083 25898.859 57431.640 22231.434 17720.849 55592.206 32356.992 44564.350 25414.101 26479.128 16026.303 32005.965 55601.314 48218.736 43110.502 59023.976 16959.481 44993.341 25033.825 27856.897 35839.357 37218.538 36131.470 33297.595 43203.160 17204.931 22754.228 22051.294 11519.144 28965.731 26583.270 16028.520 18142.837 15258.874 39557.974 34837.902 18755.266 35111.766 33380.110 53002.302 38530.042 33889.624 15229.051 28126.361 7268.699 30326.525 53579.124 38965.458 30168.526 39514.281 19360.740 40694.402 59179.706 21644.945 37397.890 49683.138
15936.014 12849.027 12494.221 886.656 10340.285 15692.357 30709.983 0.000 20030.540 32157.884 6068.453 9504.031 9791.643 32320.912 30723.289 15445.068 5889.312 32751.357 19681.170 22485.515 17465.792 14156.540 27155.126 17277.952 20075.793 2498.299 12531.692 5975.072 28177.209 12414.989 31404.638 38047.826 29695.269 17182.246 8311.655 26207.517 27549.273 13200.480 5078.589 30138.322 22417.535 15293.543 12797.507 18218.736 25456.765 18591.779 25575.065 32537.263 27187.593 8933.590 3240.688 18845.994 15290.186 27679.583 18565.192 32341.983 36083.879 653.183 6212.348 28180.089 12907.535 14126.662 30942.767 9953.739 17695.975 6652.366 6166.103 25847.686 15750.158 30951.876 21875.838 33732.769 33871.590 14659.273 16381.689 19944.525 4292.251 11388.858 10632.577 6155.340 29059.120 14591.509 29497.693 10822.224 30901.029 28996.608 11309.250 6429.997 17205.806 19320.340 24716.810 20664.562 9451.508 16907.476 18499.322 3431.978 27373.226 14680.622 6824.563 15547.699 9779.217 25675.558 26088.050 28929.685 29587.724 10306.978 11628.970 13619.035 13769.472 33823.216 13252.209 9137.238 25960.092
17725.570 14032.811 6532.922 18982.482 28560.468 19719.586 35536.216 18615.327 0.000 24027.052 14030.683 10902.015 9212.776 45707.111 35549.522 14572.296 13930.292 28948.976 36197.152 26832.970 21025.998 18689.685 9292.099 9176.234 32968.901 17641.538 28974.105 13615.365 35466.351 26906.279 31952.309 42874.058 39876.298 29683.975 25690.284 36691.579 14668.274 9250.047 20042.899 47670.352 5717.317 31735.956 31017.689 25385.513 35940.826 23795.900 21626.626 26039.799 34419.145 25192.114 20103.704 35361.976 33510.369 29508.971 24009.580 42048.093 29779.293 18659.958 16259.505 28727.760 27110.926 18153.890 48474.797 27455.620 10361.251 13451.098 20816.822 35360.099 4845.556 48483.905 13745.005 50248.751 51403.619 19774.127 15482.558 35851.239 15538.187 8852.785 10035.706 22402.580 18523.502 13718.737 37379.078 22857.265 40824.245 36228.160 8964.930 20920.965 24496.805 22840.581 33955.168 4611.920 11031.009 30063.434 1501.899 20379.549 44905.255 32059.250 24203.191 22249.500 26295.199 32907.110 15328.385 46461.715 46103.706 8952.067 29849.153 22743.827 31989.654 51355.245 28408.104 13424.187 43338.721
27705.438 37043.190 26154.450 32377.239 40974.468 42456.373 58480.913 32056.750 25388.595 0.000 26897.938 33710.061 28834.304 63329.862 58494.219 25749.508 31192.560 46919.050 51171.753 49843.349 44036.377 41426.471 16007.993 16584.014 51566.375 33241.512 44022.274 30147.992 57876.130 43880.823 38489.271 65818.755 61185.852 48672.828 37672.960 57698.099 32638.348 20290.097 32302.641 59653.028 18803.176 46784.125 43431.690 47860.067 56947.347 46740.597 42551.714 44009.873 56828.924 40424.172 34731.270 50336.577 45924.369 38527.841 46746.366 63832.566 47749.367 32200.390 35865.799 35264.722 44373.369 40890.677 60457.473 40831.879 16190.852 34390.673 37465.246 57338.268 27855.935 60466.581 10847.855 64741.719 63386.295 42510.913 25399.662 51435.107 32413.769 22919.766 22902.961 34689.671 36194.112 25072.547 59788.857 41300.685 62391.611 58637.939 29879.658 37569.388 46847.137 45850.960 56182.644 22991.689 24386.310 48398.058 24218.743 33246.804 56887.931 44041.926 36185.867 44986.287 41269.799 55316.889 33298.458 58444.391 60596.674 28573.595 42263.154 43260.366 44262.444 63337.921 44742.791 25927.608 55321.397
11156.421 14592.324 9119.757 6279.923 15733.551 19157.077 35181.617 5959.435 15078.417 26948.927 0.000 10410.765 6480.766 37714.179 35194.923 10357.433 7407.513 36216.077 25074.437 26681.730 20930.512 18127.176 21946.169 12068.995 25469.059 7948.190 17924.958 6760.816 33570.475 17808.255 26625.045 42519.460 35088.536 22575.512 12460.223 31600.784 26624.785 7991.523 6812.839 34440.291 17208.578 20686.809 18190.773 23584.419 30850.031 23441.301 26661.629 33599.549 32553.276 14326.856 8633.955 24239.261 20683.452 22899.990 23447.071 37735.250 37910.555 6103.074 11590.151 23400.496 18300.802 17591.381 35244.736 15347.005 12487.018 10553.066 11559.370 31240.952 11919.799 35253.844 16666.881 39126.036 38173.559 19211.618 11294.054 25337.791 8138.121 6179.901 5423.620 9172.519 28134.632 9503.873 34890.960 16171.343 36294.295 34362.291 7998.373 11823.264 22571.489 22785.060 30110.077 15455.605 4242.551 22300.742 13340.539 7149.489 31675.194 18829.190 10973.130 20913.382 15172.483 31041.241 25163.562 33231.654 34980.991 6996.100 17022.237 18857.788 19049.708 38125.185 18645.475 3928.281 30108.660
19993.607 5702.340 7404.699 8497.273 18195.462 9762.789 25787.329 8250.321 12344.951 33306.825 9766.465 0.000 4702.121 35141.947 25800.635 18862.762 3318.876 26821.789 25631.988 17287.442 11536.224 8732.888 19907.101 18456.007 22403.736 7127.081 18408.940 3728.617 24901.187 16341.114 35462.231 33125.171 29311.134 19118.810 16166.833 26126.414 19799.973 14874.898 10922.244 37993.499 16298.636 21170.791 20652.684 14951.091 25375.662 14047.013 18428.378 26607.694 23853.981 14626.949 9405.211 24796.812 23145.363 31737.177 14052.782 31482.928 30154.311 8174.748 5357.490 32237.683 16545.761 8197.093 38797.945 16890.455 19370.393 2549.084 10251.658 24794.934 8364.061 38807.053 23024.778 39683.586 41726.767 9817.329 19799.383 25286.075 4926.771 10645.399 12024.581 13254.000 21309.820 18009.203 26813.914 12292.101 30259.081 25662.995 4719.839 10355.800 13931.640 13390.772 23390.003 15259.941 9643.944 19498.269 10813.733 11115.658 35228.403 22535.799 14679.740 12286.644 15730.034 22341.945 18338.750 36784.862 35538.542 5235.138 19484.147 12178.662 21624.649 41678.393 17842.939 12203.932 33815.269
16674.320 9057.316 2702.577 9769.706 19347.691 13622.069 29646.609 9402.550 10238.897 28870.346 6477.517 4875.757 0.000 39224.193 29659.915 15287.667 4717.516 30384.112 27306.797 21146.722 15395.504 12592.168 17801.047 14019.528 24753.298 8428.762 20083.750 4402.589 29101.034 18030.732 32142.944 36984.451 33393.380 21468.372 17301.237 30326.262 20434.740 11296.038 11681.777 39145.729 14192.581 22845.601 21804.913 19084.971 29575.510 17906.293 20471.584 27409.504 28053.828 16301.759 10890.928 26471.621 24297.593 28417.889 17912.062 35565.175 31720.510 9447.181 7071.746 28918.395 18523.279 12056.373 39950.174 18565.264 15204.546 5556.369 11926.467 28994.782 5958.515 39959.282 18588.300 41358.396 42878.996 13676.610 16224.288 27083.841 6325.411 6749.888 8129.070 14013.533 21944.587 14434.108 31013.761 14257.426 34341.327 29862.843 1808.328 12030.610 18072.041 17250.052 27472.250 13153.886 5748.433 21690.742 8707.678 11990.503 36380.632 23670.203 15814.144 16151.983 17404.843 26541.793 18973.517 37937.092 37213.351 533.017 20636.377 14499.437 22776.878 42830.622 19532.557 8628.837 34949.674
42681.855 37524.626 42632.844 31411.209 31015.190 35136.778 28225.628 31933.245 47515.870 63510.007 37420.575 36529.601 39930.266 0.000 31251.956 42388.777 36860.186 47013.864 15641.318 32098.289 36217.130 33638.000 55078.020 48265.172 17315.418 33103.578 21655.967 36945.946 14791.497 24278.955 58150.479 38576.492 9889.678 20304.796 26604.386 11090.649 51872.207 44448.634 32257.917 43774.489 51469.555 18293.070 35512.874 25445.203 11869.455 31875.245 49905.323 47324.419 14701.073 24293.898 31406.626 16442.082 36282.208 54425.425 32141.065 4878.231 50871.035 31720.986 34429.291 54925.931 24785.468 34904.795 44578.934 25963.093 47680.121 35218.239 28785.250 12851.799 43534.980 44588.042 53227.960 24732.100 48010.704 32620.312 43325.398 18150.118 35319.989 42407.096 41540.786 32810.050 53382.054 41535.218 15336.079 27053.400 7082.541 17679.158 39890.758 28317.699 24113.003 38353.548 13775.116 50430.860 40436.315 20059.273 45984.652 32451.104 41989.030 27516.770 28129.551 29103.686 25360.170 21379.580 50410.984 42565.852 20587.056 40463.284 34035.956 25560.369 32321.819 48166.434 22809.194 37916.939 38669.866
45256.275 23546.819 32406.796 30392.317 38294.306 16465.882 7253.787 30625.964 36711.694 58569.492 35133.564 25797.351 30011.197 31056.556 0.000 44125.430 29116.227 26391.226 29923.273 11122.420 16075.130 17681.874 43418.934 43718.674 22731.311 28790.495 23889.002 29525.968 19540.167 22761.938 60724.899 7419.007 25215.938 20756.608 33454.139 21728.186 31856.458 40137.566 35123.430 56331.420 40665.379 26901.016 40751.528 15138.822 20977.434 12404.101 29889.574 26780.023 19455.752 26273.010 28165.910 28164.410 43244.207 56999.845 12669.921 27397.538 30686.538 30069.793 25967.569 57500.351 23244.387 17789.559 57135.865 32913.950 44633.060 25482.811 26547.838 20396.706 32074.675 57144.973 48287.446 45566.714 60176.526 17028.191 45062.051 27490.036 27925.607 35908.067 37287.248 36200.180 33366.305 43271.871 21712.037 23324.816 26173.690 16026.250 29034.441 26651.980 16097.231 18211.547 19089.538 39626.684 34906.612 21211.477 35180.476 33448.820 53678.162 39164.091 33958.334 15297.762 28818.345 11694.769 30395.235 55122.783 41421.669 30237.236 39582.992 20214.236 41052.675 60128.152 22657.898 37466.600 51226.797
3726.213 23314.537 13904.425 15458.157 19449.767 27879.290 43903.830 15157.218 15613.522 26346.630 10274.860 19132.978 15132.871 41805.161 43917.136 0.000 16437.348 41391.808 29886.457 35403.943 29652.725 26849.388 22102.263 10879.461 34647.294 17126.424 27103.193 15499.993 42724.750 26986.489 19236.176 51241.672 44266.770 31753.747 16148.259 40779.018 28064.787 6963.497 10777.940 38128.326 16952.175 28350.214 21906.989 32708.687 40028.266 32163.514 33858.516 38417.200 41677.544 23505.090 17812.189 29092.655 24399.668 15836.279 32169.283 44833.170 42294.804 15281.308 20714.419 16011.627 27479.036 26313.594 38932.772 19307.178 10294.409 19650.514 20737.604 40419.187 15764.251 38941.880 16410.478 43217.018 41861.594 27933.830 1293.993 30946.904 17262.389 10669.741 9126.166 13164.970 31492.648 977.890 44069.194 25234.497 45472.529 43486.558 16339.920 21001.498 31695.757 31507.273 39288.311 15990.710 10865.536 31478.976 13875.644 13653.692 35363.230 22517.225 14661.166 30037.649 24350.717 40165.508 28521.577 36919.689 39071.973 14872.162 20738.452 27920.942 22737.743 41813.220 27823.709 6645.153 33796.695
18144.146 8382.391 6912.750 5760.072 15459.906 12442.840 28467.380 5514.765 14449.069 31687.148 7815.317 3702.344 4210.172 37151.346 28480.686 17101.862 0.000 29501.840 24511.603 19967.493 14216.275 11412.939 22011.219 16836.330 22692.103 4389.880 17288.556 1777.469 27054.006 15969.537 33612.771 35805.223 31332.185 19407.177 13431.276 28279.234 22480.024 12972.672 8971.096 35257.943 18402.754 20050.407 17917.128 17037.943 27528.482 16727.064 21108.429 29287.746 26006.800 13576.545 7695.764 23676.427 20409.807 29887.716 16732.834 33503.980 32834.362 5437.548 5043.675 30388.222 16462.084 10877.145 36062.388 15073.360 17468.166 3567.648 9865.272 26947.754 10168.687 36071.497 21405.102 38563.202 38991.211 12497.381 18038.484 24567.061 1847.017 9025.723 10404.768 11080.145 23989.871 16248.303 28966.733 12196.231 32280.132 27815.815 5675.591 9969.415 16025.013 16070.823 25411.055 17364.059 7952.780 19629.547 12917.851 8380.101 32492.847 19800.243 11944.184 14366.906 14609.650 24494.765 21018.801 34049.306 34418.158 4743.190 16748.591 12438.242 18889.093 38942.837 17347.856 10443.032 31079.713
44588.729 23281.601 31426.541 32329.818 40270.011 17575.568 27626.313 32563.465 28526.156 46887.038 36085.189 26748.975 30383.357 46478.923 27639.619 41435.456 30067.851 0.000 39042.616 15321.136 15540.161 19550.673 31093.895 36922.791 33265.723 30727.996 31489.206 30477.593 36238.163 30192.848 59698.866 34964.155 40648.110 30149.716 37101.666 37463.390 16927.574 36227.772 36349.647 59095.118 34081.838 34655.610 42727.232 22189.657 36712.638 18270.072 24218.370 3472.265 35190.957 31049.883 30141.614 37168.409 45219.912 56372.130 18107.030 42819.904 5556.745 32007.293 27905.070 56474.317 30492.685 18741.183 59899.564 36545.508 38107.808 26434.436 29906.710 36131.911 29739.175 59908.672 41491.562 53725.806 62828.386 20300.288 42372.077 36851.659 29064.126 33746.403 35269.374 38137.681 16133.903 40581.896 38150.890 27938.566 41596.057 34136.695 29068.763 30010.853 23268.472 13555.701 34726.979 32358.477 35486.974 30604.585 28640.819 35386.321 56330.022 42871.268 36610.194 20898.512 33254.876 29805.214 15466.351 57886.481 49580.761 30271.558 41558.696 26488.012 43699.197 62780.012 30093.861 38367.378 54763.487
30665.801 28052.951 29945.378 19368.881 18457.685 26810.650 27549.975 19890.918 37116.812 51467.679 25378.248 26130.542 27242.800 15588.341 30678.503 30372.722 23984.182 39052.196 0.000 24358.443 28403.936 25048.370 44678.962 36249.118 11662.493 21061.250 8779.963 24069.942 19763.908 11402.951 46134.425 38003.040 21281.969 9286.273 14588.331 17794.217 42753.196 32432.579 20241.862 31216.984 41070.497 5417.066 23073.346 17728.308 17043.465 24062.051 40778.989 39440.993 19283.659 11417.895 18530.622 2491.049 23724.704 42409.370 24327.871 18616.350 43057.841 19678.659 21741.825 42909.876 11909.464 26201.536 32021.430 13947.039 35664.066 23166.722 15909.246 17434.386 33135.922 32030.538 41185.633 17000.198 35453.199 24074.548 31309.343 2881.617 22443.986 29531.093 29524.731 20793.995 44263.043 29519.163 21084.393 14177.397 19736.421 22150.003 28708.219 15441.695 16729.781 30540.354 17558.861 39974.357 27560.312 9011.503 35585.593 20435.049 29431.525 14959.266 16113.496 21212.027 12484.166 20703.927 41291.973 30008.347 12855.153 27775.818 21478.451 15505.658 19764.314 35608.930 9933.190 25900.884 26112.362
36943.734 15234.278 24094.255 22367.994 30269.983 8311.403 12633.020 22601.641 28372.238 50256.951 26821.023 17484.810 21698.656 31590.906 12646.327 35812.889 20803.686 15498.814 24269.285 0.000 5932.783 9489.123 34981.709 35406.134 18494.380 20766.172 16715.875 21213.427 21350.146 15419.517 52412.358 19970.863 25760.093 15378.373 25429.816 22575.373 23419.233 31825.025 27085.482 48307.097 32325.923 19882.278 32727.205 7112.090 21824.621 4322.049 21452.348 15887.611 20302.940 18248.687 20141.587 22395.077 35219.885 48687.304 4587.869 27931.888 19812.682 22045.470 17943.246 49187.810 15862.582 9477.018 49111.542 24889.627 36320.520 17170.270 18523.515 21243.894 23637.449 49120.650 39974.905 38952.475 52152.203 8918.490 36749.510 22078.328 19799.961 27595.526 28974.708 28175.858 24929.080 34959.330 23262.873 15300.493 26708.040 19143.403 20721.900 18627.657 8070.499 8069.200 19838.962 31287.228 26594.071 15833.242 26841.020 25424.498 45653.839 31139.768 25934.012 7273.439 20794.022 14811.922 21958.010 47098.460 34807.430 21924.695 31558.669 12187.504 33028.352 52103.829 15320.530 29154.059 43202.475
31010.951 9301.495 18161.472 17132.870 25073.062 2378.620 16778.702 17366.516 22439.456 44324.169 20888.241 11552.027 15765.873 35870.611 16792.008 29880.106 14870.903 15568.475 28434.305 6150.185 0.000 4353.724 29048.926 29473.351 23207.221 15531.048 20880.894 15280.644 25629.851 18970.742 46479.575 24116.545 30039.798 19922.295 21904.717 26855.079 17486.450 25892.242 21152.699 43898.170 26393.140 24047.298 27530.284 11926.420 26104.326 5240.430 15519.566 15354.381 24582.645 18017.462 14944.666 26560.097 30022.963 42754.521 4972.161 32211.593 18900.997 16810.345 12708.121 43255.027 19159.761 3544.235 44702.615 21348.559 30387.737 11237.487 14709.762 25523.599 17704.667 44711.724 34042.122 42984.075 47631.438 5228.630 30816.727 26243.348 13867.178 21662.743 23041.925 22940.733 18996.297 29026.547 27542.578 14906.146 30987.745 23289.084 14789.118 14813.905 12660.160 2137.458 24118.668 25354.445 20661.288 20333.196 20908.237 20189.373 41133.074 28287.069 21413.246 7955.035 20025.945 18957.603 16025.227 42689.533 38839.030 15991.912 26361.748 14641.877 28502.249 47583.064 19485.549 23221.276 39566.539
28388.960 6679.503 15539.480 14012.197 21952.389 2055.775 17944.914 14245.843 19844.379 41702.177 18266.249 8930.035 13143.882 32985.664 17958.220 27258.114 12248.911 19782.985 24952.977 9636.006 4497.420 0.000 27406.529 26851.359 20322.274 12410.375 17495.997 12658.652 22744.904 14991.243 43857.584 25282.757 27154.851 17037.348 17935.968 23970.131 18734.537 23270.250 18530.707 40523.966 23798.063 20390.679 24409.611 9041.473 23219.379 5655.136 16767.653 19568.890 21697.698 14037.963 11823.993 23675.150 26902.291 40132.529 5628.549 29326.646 23115.507 13689.672 9587.448 40633.035 15180.261 1470.398 41328.411 17379.810 27765.745 8615.495 10741.013 22638.652 15863.489 41337.519 31420.130 39004.575 44257.233 1084.442 28194.736 23358.401 11245.186 19040.751 20419.933 19820.060 20244.384 26404.555 24657.631 10926.646 28102.798 23506.712 12167.126 10845.155 9775.213 6351.968 21233.720 22759.368 18039.296 17448.249 18313.160 17068.700 37758.869 24783.604 18039.042 4600.122 16008.330 20123.815 17273.314 39315.329 34859.531 13369.920 23241.075 10689.840 25133.382 44208.859 16542.437 20599.284 36192.334
24006.311 22588.520 15088.630 27426.022 36879.651 28150.526 43596.731 27105.534 10351.869 16029.199 21946.722 19457.723 17768.484 54262.820 43610.037 22050.381 22486.000 31147.115 44752.860 34893.486 29086.514 27245.393 0.000 12014.223 41524.609 26197.246 37529.813 22171.073 44022.059 35461.987 38170.286 50934.574 48432.006 38239.683 33606.322 45247.287 16866.412 15711.754 27958.938 55586.390 5236.671 40291.664 39336.872 33941.221 44496.535 31856.415 26779.778 28237.938 42974.853 33747.822 28659.412 43917.684 41829.552 35957.492 32120.161 50603.801 31977.432 27215.666 24815.213 34945.738 35666.634 26709.599 56390.836 36011.328 13066.620 22006.806 29372.531 43915.807 13401.264 56399.944 13669.763 58804.459 59319.658 28329.835 21700.536 44406.947 24093.895 17408.493 17951.745 30318.618 20422.176 21270.182 45934.786 31412.973 49379.953 44783.868 17520.638 29476.673 33052.513 30901.096 42510.876 8815.282 19435.094 38619.142 9151.022 28295.588 52821.294 39975.289 32119.230 30805.208 34850.907 41462.818 17526.523 54377.753 54659.414 17507.775 38168.336 31299.535 40195.807 59271.284 36963.812 21340.225 51254.759
12926.895 22203.534 11314.794 17537.582 26195.925 27616.717 43641.257 17217.094 10548.939 16614.551 12058.282 18870.405 13994.648 48551.319 43654.563 10970.964 16352.904 37088.731 36332.096 35003.693 29196.721 26586.815 12024.290 0.000 36726.719 18401.855 29182.618 15308.335 43036.474 29041.167 27090.870 50979.099 46346.195 33833.172 22894.416 42858.443 22808.028 4632.337 17524.098 44874.484 6874.202 31944.469 28653.146 33020.411 42107.691 31900.941 29797.349 34179.553 41989.268 25584.516 19891.614 35496.920 31145.826 24878.076 31906.710 48992.909 37919.048 17360.733 21026.143 23866.321 29533.713 26051.021 45678.930 26053.335 1821.194 19551.017 22625.590 42498.612 13016.279 45688.038 6332.505 49963.176 48607.752 27671.257 10621.119 36595.451 17574.113 8080.110 8063.305 19911.128 26663.256 10190.765 44949.201 26461.029 47551.955 43798.283 15040.002 22729.732 32007.481 31011.304 41342.988 10092.671 9546.654 33558.402 9814.477 18407.148 42109.388 29263.383 21407.324 30146.631 26430.143 40477.233 23468.139 43665.847 45818.131 13733.939 27484.610 28420.710 29483.901 48559.378 29903.135 11183.479 40542.853
35009.403 23165.138 26413.945 19317.914 24544.079 20777.289 19601.488 19839.950 32850.303 51058.886 25327.280 21864.033 23711.367 18638.860 22010.799 34703.895 21677.599 32050.732 11200.405 17329.165 21857.642 19278.511 40412.452 36131.773 0.000 21010.283 7353.821 22718.261 10815.066 8088.385 50478.027 29335.335 12333.127 3987.594 19388.885 8845.375 37512.719 32054.302 24337.416 39039.950 36803.987 9555.616 28457.286 10726.844 8094.623 17515.756 35545.834 32439.529 10334.817 11245.099 18007.373 9929.267 30691.023 46752.973 17781.576 14979.841 36503.165 19627.691 18210.392 47253.479 8570.834 20545.307 39844.395 18848.696 36549.796 19635.289 15349.912 8485.544 28869.413 39853.503 40776.840 27331.571 43276.165 18260.823 35640.516 8767.169 20167.216 29007.843 29486.398 25137.598 39022.566 33850.336 12135.551 11642.069 13538.886 13312.903 25176.786 14882.362 9780.102 23994.059 8650.762 35765.292 27037.062 3742.070 31319.084 22071.032 37254.491 22782.232 21073.963 14744.197 14024.002 12755.439 36051.496 37831.313 23186.526 24244.385 27288.749 9341.470 27186.106 43431.896 6701.578 28396.065 33935.328
17734.656 11197.204 11121.063 1739.782 11567.014 13380.223 28397.848 2496.396 18657.382 32480.274 7983.726 7996.593 8418.485 33547.641 28411.155 17360.341 4381.874 30439.223 20907.899 20173.381 15153.658 11844.405 26219.532 17553.161 21302.522 0.000 13758.421 4467.634 25922.665 13260.662 33203.280 35735.691 30120.806 18139.916 9538.384 27147.892 25897.449 13475.689 6993.862 31365.051 22611.067 16520.272 14024.235 15906.602 26397.140 16279.644 23923.242 30225.128 24875.459 10160.319 4467.417 20072.723 16516.915 29478.226 16253.057 32292.601 33771.745 1846.744 3745.133 29978.732 13753.209 11814.527 32169.496 11180.468 17971.184 5011.149 6845.085 25816.413 14377.000 32178.604 22198.228 34959.498 35098.318 12347.139 18296.963 21171.254 2651.034 10425.218 10907.786 7862.851 27407.297 16506.782 27835.392 10680.524 31068.753 26684.473 9936.092 6949.228 14893.672 17008.206 24199.676 20986.952 8456.778 17865.145 17126.163 4796.285 28599.954 15907.351 8051.292 13235.564 11005.946 23363.423 24436.226 30156.414 30814.453 8933.820 12855.699 11226.863 14996.200 35049.945 14276.935 11002.446 27186.821
27764.608 20513.928 22655.168 12073.118 17307.468 19196.064 22802.381 12595.155 29706.750 44171.916 18082.485 18720.481 19952.590 21250.962 24216.094 27459.100 16688.419 31597.986 8612.213 16890.472 20801.252 17433.785 37268.900 29291.984 8086.751 13765.487 0.000 16774.179 16188.166 3640.819 43233.232 31540.630 17706.227 4720.694 12152.274 14218.475 35214.174 25214.512 17092.621 32923.319 33660.435 3592.623 21220.674 10650.266 13467.723 16459.367 33239.966 31908.540 15336.438 4000.304 11234.859 7266.758 23454.411 39508.178 16725.187 20352.941 35455.157 12382.896 14451.615 40008.683 4147.332 18662.514 33727.764 11612.085 29710.007 15876.512 8619.036 13858.644 25725.860 33736.872 33889.870 22662.819 37159.534 16459.962 28395.721 7456.165 15148.223 22235.330 22646.609 17892.802 36724.021 26605.541 17508.651 6562.811 18911.986 17402.409 21418.008 8151.485 9318.065 22937.670 12811.267 32621.740 20264.549 4445.924 28175.531 14826.237 31137.859 16665.600 13837.351 13585.807 6779.207 15956.333 33752.951 31714.682 18517.774 20485.607 20052.138 7786.322 19949.495 37315.264 1701.499 21151.270 27818.696
17061.627 9568.449 7105.166 5852.101 15550.290 13628.897 29653.437 5605.149 14641.486 30187.436 6775.437 4888.401 4402.589 37241.730 29666.743 15674.974 1540.539 30687.897 24601.988 21153.551 15402.332 12598.996 22203.636 15336.618 23862.206 4481.909 17378.940 0.000 28224.109 16421.967 32530.251 36991.280 32502.288 20577.280 13521.661 29449.337 23520.702 11759.690 8258.071 35348.327 18595.170 20140.791 18007.512 18208.046 28698.585 17913.121 22294.486 30473.803 27176.903 13666.929 7786.148 23766.812 20500.191 28805.196 17918.891 34674.083 34020.420 5529.576 6213.778 29305.702 16914.514 12063.202 36152.773 15163.744 16255.185 4753.706 10006.390 28117.857 10361.104 36161.881 19905.389 38653.586 39081.595 13683.438 16611.596 24657.445 2761.748 7526.010 8905.192 10589.827 25030.549 14821.415 30136.836 13366.335 33450.235 28985.918 5920.196 10110.533 17195.116 17256.880 26581.158 17556.475 6524.555 20799.651 13110.267 8470.485 32583.231 19890.627 12034.568 15537.009 14700.034 25664.868 22059.479 34139.690 34508.542 4917.923 16838.975 13608.345 18979.477 39033.221 17438.240 9016.144 31170.097
43029.081 26554.293 31931.624 27337.592 32563.758 24166.444 15094.960 27859.629 36545.537 57833.750 33346.958 25559.267 29229.047 14895.274 19428.153 42723.574 27196.492 36043.530 19220.084 21127.955 25246.797 22667.666 44107.686 42982.933 9017.894 26550.998 15373.499 28235.941 0.000 15878.071 58497.705 26752.690 7483.759 11891.802 27408.563 3854.937 40901.874 38977.351 32357.094 47059.628 40499.221 17575.294 36476.964 14474.870 3394.819 20904.911 38934.989 36354.085 1146.286 19264.777 25926.412 17948.946 38710.701 54772.651 21170.731 10445.897 39900.702 27647.370 23728.071 55273.157 16360.520 23934.462 47864.074 26868.375 43472.846 24247.905 23369.591 2814.092 32564.647 47873.182 47551.704 35351.249 51295.844 21649.978 43660.195 16786.847 25686.109 35172.325 36409.448 33157.276 42411.721 41870.014 2396.217 18949.944 8689.519 3547.387 28920.424 22902.040 13142.670 27383.214 4363.768 39460.526 33957.460 11761.749 35014.318 30090.710 45274.169 30801.910 29093.641 18133.352 22043.680 8159.884 39440.651 45850.991 31206.205 29762.064 35308.428 15861.283 35205.785 51451.574 14721.257 36415.744 41955.006
27669.259 18459.757 20658.841 11977.769 17367.193 16825.109 21952.995 12499.806 27652.579 43470.543 17987.136 16666.309 17956.263 24191.950 22980.289 27363.751 15872.590 30362.181 11552.207 15654.667 18739.085 15062.829 35214.729 28543.430 8495.231 13463.053 3837.913 15958.350 16035.972 0.000 43137.883 30304.825 18114.708 5041.027 12211.998 14626.955 33160.003 24465.958 16997.272 35089.279 31606.263 6888.584 21280.399 9414.460 13876.203 14519.830 31185.795 30672.735 14988.766 4340.876 10419.029 10330.634 23514.136 39412.828 14785.650 20556.520 34219.352 12287.547 12455.288 39913.334 957.237 16353.528 35893.725 11671.810 28961.453 13880.185 7761.569 14267.124 23671.689 35902.833 33188.497 25603.806 39133.071 14089.007 28300.372 10316.415 14332.393 21419.500 21898.055 17797.453 34669.850 26510.192 17917.132 4191.856 19320.467 17054.737 19421.682 7294.018 8082.260 20876.543 12463.595 30567.568 19448.719 4766.257 26121.360 14730.887 32634.707 17921.951 13897.076 11214.852 6941.610 15543.785 31698.779 33880.642 21458.761 18489.281 20111.863 5289.482 20009.220 39084.697 2260.337 21055.921 29984.657
16094.865 39010.257 31549.619 30978.507 34912.926 43575.010 59599.550 30723.890 33165.626 38561.808 26722.324 34828.698 31580.335 57268.320 59612.856 19054.344 32115.994 59546.547 45349.616 51099.663 45348.445 42545.109 38419.939 27197.136 50156.182 32670.876 42612.081 31451.319 58257.598 42495.378 0.000 66937.392 59775.659 47262.635 31611.417 56287.907 45424.715 25118.237 26406.399 53591.485 33269.851 43813.373 37370.147 48348.874 55537.154 47859.234 51459.913 56571.939 57317.731 39013.979 33321.078 44555.814 39862.827 9105.973 47865.003 60296.329 60449.544 30867.529 36354.606 3224.548 42987.925 42009.314 54395.930 34770.336 26612.084 35317.521 36246.493 55928.075 33409.445 54405.038 32728.153 58680.176 57324.752 43629.551 17966.235 46410.062 32902.576 28184.830 25841.901 27937.957 49279.943 19021.155 59578.083 40902.614 60981.418 59126.746 32787.384 36510.387 47335.944 47202.993 54797.200 32790.542 27313.000 46987.865 32030.384 29005.690 50826.388 37980.384 30124.324 45677.837 39859.606 55805.696 46084.826 52382.848 54535.132 31319.626 36201.611 43622.243 38200.902 57276.379 43332.598 23267.608 49259.854
52567.889 30858.433 39718.410 37703.931 45605.920 23777.496 14565.401 37937.578 44023.308 65881.106 42445.178 33108.965 37322.811 38368.170 7406.085 51437.044 36427.840 33702.840 37234.887 18434.034 23386.744 24993.488 50730.548 51030.288 30042.925 36102.109 31200.616 36837.582 26851.781 30073.552 68036.513 0.000 32527.552 28068.222 40765.753 29039.800 39168.072 47449.180 42435.044 63643.034 47976.993 34212.630 48063.142 22450.436 28289.047 19715.715 37201.188 34091.637 26767.366 33584.624 35477.524 35476.024 50555.821 64311.459 19981.535 34709.152 37998.152 37381.407 33279.183 64811.965 30556.001 25101.173 64447.479 40225.564 51944.674 32794.425 33859.452 27708.320 39386.289 64456.587 55599.060 52878.328 67488.140 24339.805 52373.665 34801.650 35237.221 43219.681 44598.862 43511.794 40677.919 50583.484 29023.651 30636.429 33485.304 23337.864 36346.055 33963.594 23408.845 25523.161 26401.152 46938.298 42218.226 28523.091 42492.090 40760.434 60989.776 46475.705 41269.948 22609.376 36129.959 19006.383 37706.849 62434.397 48733.283 37548.850 46894.606 27525.850 48364.289 67439.766 29969.512 44778.214 58538.411
45331.360 31481.750 36641.962 29639.871 34866.036 29093.901 21216.329 30161.907 41472.994 61380.843 35649.237 30486.724 33939.385 9880.228 25148.915 45025.852 31905.617 40970.988 21522.362 26055.412 30174.254 27595.124 49035.144 46453.730 11320.173 31261.336 17675.778 32946.279 7262.348 18410.342 60799.984 32473.452 0.000 14309.551 29710.842 3561.500 45829.331 42376.258 34659.373 49361.907 45426.678 19877.573 38779.243 19402.327 4340.305 25832.369 43862.447 41281.542 7171.923 21567.056 28329.330 20251.224 41012.980 57074.930 26098.189 5430.852 44828.159 29949.648 28438.409 57575.436 18892.791 28861.919 50166.352 29170.653 46871.753 29175.362 25671.869 5322.650 37492.104 50175.460 51098.797 31966.746 53598.122 26577.435 45962.473 19089.126 30395.234 39329.800 39808.355 35459.555 47339.178 44172.293 6603.169 22009.117 3674.473 10150.008 33847.881 25204.318 18070.127 32310.672 7491.251 44387.983 37359.019 14064.027 39941.775 32392.989 47576.448 33104.188 31395.919 23060.810 24345.959 14370.280 44368.108 48153.270 27821.702 34472.402 37610.706 19569.487 37508.063 53753.853 17023.535 38718.022 44257.284
32451.469 21073.267 24285.954 16759.979 21856.768 18685.418 18466.739 17282.016 30758.432 48371.575 22769.345 19772.162 21583.377 20227.569 21595.268 32145.961 19549.609 30117.581 9540.537 15423.828 19765.771 17186.640 38320.582 33444.462 4626.426 18364.085 4912.935 20590.271 12048.002 5276.996 47920.093 28919.804 14245.902 0.000 16701.573 10758.150 35420.848 29366.990 21779.481 36857.240 34712.116 7146.422 25769.974 8793.693 10007.398 15423.886 33453.964 30506.378 11000.796 8635.687 15320.061 7777.677 28003.711 44195.038 15689.706 16568.550 34419.676 17069.757 16082.401 44695.544 5759.445 18453.436 37661.685 16161.385 33862.484 17507.299 12662.601 10398.319 26777.542 37670.793 38089.528 25179.981 41093.455 16168.952 33082.582 7197.811 18039.226 26320.532 26799.087 22579.663 36930.695 31292.401 13960.729 9266.129 15344.702 13066.767 23048.795 12195.050 7846.951 21902.189 8475.625 33673.421 24349.751 660.898 29227.213 19513.097 35071.781 20599.521 18386.651 12652.327 11369.727 11620.691 33959.625 35648.603 21034.937 22116.394 24601.438 7213.479 24498.795 41249.185 4003.225 25838.131 31752.617
17360.226 19309.872 19638.939 8024.691 5167.143 20191.845 34605.218 8546.727 26367.995 38238.505 12149.073 17099.926 16936.362 27972.245 34618.524 17067.147 13633.185 37250.845 16053.541 26380.750 21965.280 18487.485 33235.747 22943.543 21305.043 9717.060 13760.941 13552.138 29406.458 13816.660 32828.850 41943.061 30924.519 18289.702 0.000 27436.767 34010.117 19127.004 6936.287 23199.754 28498.156 14517.298 9439.708 22113.971 26686.015 22487.013 32035.910 37036.750 28643.653 10162.839 8312.401 15259.739 11314.087 29103.795 22460.427 31000.255 40583.367 8334.468 12726.268 29604.301 14309.207 18626.149 24004.199 4675.710 22358.491 14151.166 8622.828 27076.936 22894.876 24013.307 27956.458 29384.102 26933.022 18910.110 18003.768 17113.988 12002.518 17469.479 16219.156 7488.420 35519.965 16213.588 30726.943 12482.705 32120.325 30709.624 18453.968 8886.722 20498.301 23819.828 26118.481 26745.183 15532.129 18014.932 24630.117 7129.474 20434.657 7600.743 1829.689 19442.934 10493.175 28588.078 32548.894 21991.117 25239.057 17451.696 8187.910 16041.787 7809.171 26884.648 14359.665 12595.309 18880.213
41769.860 27920.250 33297.582 26078.371 31304.536 25532.402 17654.829 26600.407 37911.494 57819.344 32087.737 26925.224 30595.004 11057.586 21587.416 41464.352 28562.449 37409.488 17960.862 22493.913 26612.754 24033.624 45473.644 42892.230 7758.673 27770.740 14114.278 29601.899 3724.616 14848.842 57238.484 28911.952 3646.072 10748.051 26149.342 0.000 42267.831 38814.759 31097.873 45800.407 41865.179 16316.073 35217.743 15840.827 778.806 22270.869 40300.947 37720.042 3610.423 18005.556 24767.830 16689.724 37451.480 53513.430 22536.689 6608.209 41266.659 26388.148 25094.029 54013.936 15331.291 25300.419 46604.853 25609.153 43310.253 25613.863 22110.370 1761.150 33930.604 46613.961 47537.297 33144.104 50036.622 23015.935 42400.974 15527.626 27052.067 35768.300 36246.855 31898.055 43777.678 40610.793 4723.602 18650.001 4851.831 6588.509 30286.382 21642.819 14508.627 28749.172 3929.752 40826.484 33797.519 10502.528 36380.275 28831.489 44014.948 29542.689 27834.420 19499.310 20784.459 10808.781 40806.608 44591.770 28999.059 31128.022 34049.206 16304.845 33946.563 50192.353 13462.035 35156.523 40695.785
31238.868 15329.990 20763.055 27095.577 36922.809 17163.920 32610.125 27329.223 14230.133 32577.625 26421.267 19955.350 20234.470 51655.790 32623.431 28675.643 23274.226 17370.106 43165.558 23906.880 18099.908 19023.701 16784.482 22626.768 38992.400 25684.481 35859.083 23683.967 41415.030 33668.116 45402.843 39947.968 45824.977 35707.474 34217.374 42640.257 0.000 22700.581 30877.594 56197.442 19772.425 38620.934 39380.030 27711.599 41889.505 20869.809 14223.882 14460.929 40367.824 32076.751 27095.997 42330.382 41872.710 43190.049 21133.555 47996.772 18200.423 26773.052 23021.233 42178.294 33857.135 17873.120 57001.887 34424.025 23811.785 21175.155 27785.228 41308.778 19075.689 57010.995 27195.539 57217.157 59930.709 20013.929 28933.092 42028.526 23804.845 23082.917 24139.052 32903.440 4797.210 27822.083 43327.757 29603.520 46772.924 39120.507 18919.877 27889.371 28445.339 19914.490 39903.846 18062.454 25261.142 36118.375 15732.032 30152.080 53432.345 40586.341 33407.087 23364.418 33263.604 34789.026 1602.093 54988.805 53072.112 20122.671 38211.494 29366.714 40351.996 59882.336 35219.311 27527.533 51865.811
10121.715 19743.823 8696.741 14186.931 22677.325 24998.664 41023.204 13866.443 10112.259 20049.645 8707.630 16252.352 11376.595 45032.719 41036.510 6968.442 13734.852 36184.124 32981.445 32523.318 26737.010 23968.763 15709.314 4486.512 33376.067 14712.052 25831.966 12690.283 40261.478 25351.363 25628.892 48361.047 42995.544 30230.617 19375.816 39507.791 22371.348 0.000 14005.498 41355.884 10559.226 28593.817 25134.546 30245.415 38757.039 29282.888 28650.832 33209.516 39214.272 22233.864 16540.963 32146.269 27627.226 21905.116 29288.658 45642.258 37087.120 14010.082 18251.147 22404.344 25843.910 23432.969 42160.330 22534.735 4992.920 16932.964 18935.786 39147.960 10556.568 42169.438 10017.529 46444.576 45089.152 25053.205 7905.063 33244.799 14799.117 5462.058 5114.405 16392.528 26226.576 6114.883 42174.205 22771.225 44201.303 41023.287 12421.949 19039.929 29232.485 28551.592 37653.185 9737.175 6928.601 29955.847 8667.960 15056.497 38590.788 25744.783 17888.724 27528.578 23079.491 37702.237 23031.459 40147.247 42299.531 11115.886 23966.010 25457.670 25965.301 45040.778 26367.636 7366.475 37024.253
11184.397 17021.363 14924.272 5856.339 9903.720 19828.742 35736.290 5574.733 21653.329 33523.838 7434.407 12385.260 12221.695 32259.115 35749.596 12492.263 9037.398 36887.742 20340.411 27353.395 21602.177 18798.840 28521.080 18368.659 25045.476 7524.606 17501.375 8837.472 33146.891 17384.672 26653.021 43074.133 34664.952 22151.929 6602.212 31177.200 31162.940 14550.324 0.000 28582.280 23783.490 18804.168 12360.942 23245.043 30426.448 23618.086 29747.400 36673.647 32211.664 13903.273 8210.371 19546.609 14853.622 22927.967 23591.499 35287.124 40220.264 5679.490 11238.655 23428.473 17877.218 18263.046 29386.725 9761.131 17783.607 10582.066 11135.786 30817.369 18180.210 29395.833 23241.792 33670.971 32315.547 19685.580 12535.516 21400.857 8167.121 12754.812 11642.476 3111.120 32672.787 11638.704 34467.376 15791.907 35870.712 34022.915 13739.302 11399.680 22232.113 23456.725 29686.493 22030.517 10817.463 21877.159 19915.450 3996.485 25817.183 12971.179 5115.119 20574.006 14748.900 30701.865 29701.717 27373.643 29525.927 12737.029 11192.406 18645.342 13191.696 32267.173 18221.892 8018.628 24250.649
38993.969 40943.615 41272.682 29430.795 19834.263 41825.588 54593.951 29952.832 48001.738 59872.248 33782.816 38654.008 38570.104 42848.520 56252.267 38700.890 35039.289 58884.588 31045.083 48014.493 43599.023 40121.227 54869.490 44577.286 38954.787 31123.164 33320.227 35125.050 47056.203 34748.062 54462.593 63576.803 48574.264 36512.264 23529.445 45086.511 55643.860 40760.747 28570.030 0.000 50131.899 29980.814 20652.922 43128.721 44335.759 44120.756 53669.652 58670.493 46575.953 31114.704 29718.506 30723.255 17006.507 50737.538 44094.170 45876.529 62217.110 29740.573 34360.011 51238.044 35240.609 40259.892 1830.933 25388.067 43992.234 35768.738 30256.571 44726.680 44528.619 1788.797 49590.201 44260.376 8550.090 40543.853 39637.511 32577.504 33408.623 39103.222 37852.899 29122.163 57153.707 37847.331 48376.688 33414.107 46996.599 49193.979 40087.711 30284.280 41429.703 45453.571 44602.837 48378.926 37165.872 36237.494 46263.859 28763.217 5053.727 17351.162 23434.399 41076.677 31424.577 47747.903 54182.637 1295.444 40115.331 39085.439 20204.734 36973.189 16655.447 8705.821 34473.454 34229.052 6083.342
18877.086 18960.510 11460.620 22669.670 32123.299 24647.284 40463.914 22349.182 6723.859 18808.727 17190.369 15829.713 14140.474 50634.810 40477.220 16921.155 18857.990 34078.829 41124.850 31760.668 25953.696 23617.383 5257.533 6884.998 37896.599 22569.236 33901.803 18543.063 40394.049 31833.977 33041.061 47801.757 44803.996 34611.673 28844.607 41619.277 19861.656 10582.528 23202.586 50824.675 0.000 36663.654 34580.520 30313.211 40868.525 28723.598 26554.324 31104.221 39346.843 30119.812 25023.702 40289.674 37073.200 30828.267 28937.278 46975.791 34972.675 22492.821 21187.203 29816.512 32038.624 23081.589 51629.121 31736.753 7937.394 18378.796 25744.521 40287.797 9773.254 51638.229 8540.538 55176.449 54557.943 24701.825 16571.310 40778.937 20465.885 13212.198 13195.392 25562.266 23417.420 16140.956 42306.776 27784.963 45751.943 41155.858 13892.628 25848.663 29424.503 27768.279 38882.866 5187.272 14678.742 34991.132 5523.012 23539.236 48059.579 35213.574 27357.515 27177.198 31222.897 37834.808 20521.766 49616.038 51031.404 13879.765 33411.984 27671.525 35434.092 54509.569 33335.802 16583.873 46493.044
28779.815 23464.432 25441.815 14859.766 17258.108 22160.871 24890.355 15381.802 32613.249 46958.564 20869.132 21626.980 22739.238 17848.172 27013.357 28486.737 19475.067 34679.916 5406.844 19972.402 23883.182 20398.591 40175.399 32078.632 10174.725 16552.135 3676.698 19560.827 18276.141 6640.899 44248.439 34337.894 19794.201 6808.669 12702.346 16306.449 38164.678 28001.160 18355.877 30017.407 36566.934 0.000 21610.833 13575.137 15555.697 19541.297 36190.470 34990.470 17424.413 6786.951 14021.506 3952.890 22525.126 40523.385 19807.117 20876.181 38537.087 15169.543 17238.262 41023.891 7147.412 21613.017 30821.852 12061.053 32496.654 18663.159 11405.683 15946.618 28632.359 30830.960 36676.517 19260.029 34253.622 19424.769 29423.358 6071.016 17934.870 25021.977 25433.256 18908.010 39674.525 27633.177 19596.625 9527.618 20999.961 19490.383 24204.656 10938.133 12276.423 26019.600 14899.241 35465.242 23051.196 6533.899 31082.031 17612.884 28231.948 13759.689 14227.510 16562.248 8364.545 18044.307 36703.454 28808.770 15114.984 23272.255 20278.874 10786.402 18564.737 34409.353 4829.925 23937.918 24912.785
22655.207 24840.059 24518.858 12305.455 4860.889 25856.862 40845.189 12827.492 31662.976 43533.486 17444.054 21528.668 21816.281 35214.105 40858.495 22362.128 17913.950 42915.862 23410.669 32620.722 27630.297 24321.045 38530.728 28238.524 28845.093 13997.824 21300.992 17999.710 36946.508 21362.528 38123.831 48183.032 38464.569 25835.570 9727.495 34976.817 39540.305 24421.985 12231.269 21048.312 33793.137 21936.992 0.000 28353.942 34226.065 28726.985 37566.097 42701.768 36189.521 17702.889 12593.166 22679.433 3963.498 34398.776 28700.398 38242.115 46248.384 12615.233 17711.873 34899.282 21855.075 24291.167 21852.758 12893.955 27653.472 18643.398 15518.581 34616.986 27774.796 21861.866 33251.440 36625.962 24781.580 24823.778 23298.749 24533.681 16283.283 22764.460 21514.137 12783.401 41050.152 21508.569 38266.993 20028.573 39362.185 38255.492 23333.888 15782.475 27341.012 29484.845 33664.349 32040.164 20827.110 25560.800 29925.098 12424.455 17410.843 10182.312 8240.402 25682.905 18039.043 35810.764 38079.082 19839.675 32480.917 22331.615 1847.291 23078.426 5456.144 24733.206 21905.533 17890.290 16987.515
33608.402 13264.529 21798.669 18019.864 25387.730 10620.304 15239.018 18253.511 26429.405 47700.795 23638.050 15457.637 19096.092 24939.651 15252.324 33029.002 17063.537 22186.141 17816.864 7106.240 11700.657 9121.526 33991.555 32849.977 12002.396 16418.042 10466.013 18102.986 14698.891 9338.948 49077.026 22576.861 19108.838 8886.389 20232.536 15924.119 27355.734 28844.396 22750.977 43098.942 30383.090 13478.027 28379.075 0.000 15173.366 7358.772 25388.850 22574.938 13651.685 12916.381 15793.457 15942.656 30871.755 45351.971 7624.592 21280.633 26354.562 17697.340 13595.116 45852.477 9821.397 10388.322 43903.388 19692.347 33339.890 14146.276 14175.385 14592.639 22448.515 43912.496 37418.749 32548.223 47153.608 8103.838 33965.624 15625.907 15553.154 25039.370 26276.492 23827.728 28865.581 32175.443 16611.618 10089.583 20056.785 15460.700 18752.152 14279.527 1838.760 13837.074 13187.708 29344.395 23824.504 9341.257 24898.187 21076.368 40655.244 25942.488 21585.882 4587.212 15461.716 12139.650 25894.511 41890.305 28403.179 19629.109 27210.539 6512.402 28029.757 47105.234 9234.908 26370.172 37994.320
41491.144 27641.533 33018.865 25799.654 31025.820 25253.685 17376.112 26321.691 37632.777 57540.627 31809.020 26646.508 30316.288 11778.010 21308.699 41185.636 28283.733 37130.771 17682.146 22215.196 26334.038 23754.907 45194.927 42613.514 7479.956 27492.023 13835.562 29323.182 3451.673 14570.125 56959.768 28633.235 4366.496 10469.334 25870.626 878.744 41989.115 38536.042 30819.156 45521.690 41586.462 16037.356 34939.026 15562.111 0.000 21992.152 40022.230 37441.326 3331.707 17726.839 24489.113 16411.008 37172.763 53234.713 22257.972 7328.634 40987.943 26109.432 24815.312 53735.219 15052.575 25021.703 46326.136 25330.437 43031.536 25335.146 21831.653 1482.433 33651.887 46335.244 47258.580 33813.312 49757.906 22737.219 42122.257 15248.910 26773.350 35489.584 35968.139 31619.338 43498.962 40332.076 4667.288 18371.284 5572.255 6309.792 30007.665 21364.102 14229.910 28470.455 3651.035 40547.767 33518.803 10223.811 36101.559 28552.772 43736.231 29263.972 27555.703 19220.593 20505.742 10530.064 40527.891 44313.053 29668.267 30849.305 33770.490 16026.129 33667.847 49913.636 13183.319 34877.806 40417.068
33599.207 11889.751 20749.728 18499.618 26401.607 4808.814 12692.449 18733.265 25054.627 46912.425 23476.497 14140.283 18354.129 31353.698 12705.755 32468.362 17459.159 18153.282 23917.392 4369.625 5286.220 5571.877 32373.449 32061.607 18690.308 16897.796 16363.981 17868.900 21112.938 14414.110 49067.831 20030.291 25522.885 15405.382 21561.440 22338.165 20810.973 28480.498 23230.730 44438.720 29008.311 19530.385 28858.829 7409.507 21587.413 0.000 18844.089 17372.383 20065.732 14382.629 16273.210 22043.184 31351.508 45342.777 311.011 27694.680 20919.000 18177.093 14074.870 45843.283 14420.445 6132.491 45243.166 21021.251 32975.993 13825.743 14655.138 21006.686 21029.190 45252.274 36630.378 38536.418 48283.827 5002.369 33404.983 21726.435 16032.907 24250.999 25630.181 24307.481 22320.820 31614.803 23025.665 11432.116 26470.832 19202.831 17377.373 14759.281 8143.247 7422.638 19601.755 27969.616 23249.544 15816.283 23523.408 21556.121 41785.463 27271.392 22065.635 3407.380 16927.964 14871.350 19349.750 43230.083 34391.373 18580.168 27690.292 9749.168 29159.976 48235.453 14968.636 25809.532 39334.098
36527.901 13412.611 22556.159 25178.198 35005.430 14703.010 30149.215 25411.844 22607.955 42447.424 26685.194 18325.291 20498.397 49194.880 30162.522 33871.373 21644.167 24226.961 41248.179 21445.970 15638.998 16562.791 26654.282 29808.160 36531.490 23767.102 33941.704 22053.909 38954.120 31535.268 51996.525 37487.058 43364.067 33246.564 32299.995 40179.347 14277.589 28663.689 29172.987 54280.063 26561.639 36703.555 37462.651 25250.689 39428.595 18408.900 0.000 21252.353 37906.914 30159.372 25178.618 39884.366 39955.331 48271.471 18672.645 45535.862 25563.359 24855.673 21103.854 48771.977 31724.287 15412.210 55084.508 32506.646 30993.177 19257.776 25867.849 38847.868 20880.103 55093.616 34376.931 55299.777 58013.330 17553.019 34807.994 39567.617 21887.466 25187.752 26710.723 30986.061 15787.436 33017.814 40866.847 27470.672 44312.014 36659.597 19183.804 25971.991 25984.429 17453.580 37442.937 25522.945 25602.015 33657.465 21076.736 28234.701 51514.966 38668.961 31489.708 20903.508 31346.225 32328.117 12816.366 53071.426 51154.733 20386.599 36294.115 27233.865 38434.616 57964.956 32809.818 28482.419 49948.432
41592.844 22328.593 28430.655 32684.147 40624.339 17929.897 28095.931 32917.793 25875.072 44235.954 33574.268 27103.304 27387.471 46948.541 28109.237 38439.570 30422.180 3633.425 39512.235 15790.755 15894.490 19905.002 28442.812 34271.707 33735.341 31082.325 31958.824 30831.922 36707.781 30662.467 56982.379 35433.774 41117.728 30619.334 37455.994 37933.008 14276.490 33231.886 36703.976 59449.447 31129.837 35125.228 43081.561 22659.275 37182.256 18739.690 21222.484 0.000 35660.575 31427.987 30495.943 37638.027 45574.241 53376.244 18485.134 43289.523 5184.629 32361.622 28259.398 53757.830 30962.304 19095.512 60253.893 36899.836 35456.724 26788.765 30261.039 36601.529 26743.289 60263.001 38840.478 54195.424 63182.715 20678.392 39376.191 37321.278 29418.455 30750.518 32273.488 38492.010 13482.820 37586.011 38620.508 28316.671 42065.675 34606.313 26072.878 30365.182 23738.090 13910.029 35196.598 29707.393 32491.088 31074.203 25644.933 35740.650 56684.351 43249.373 36964.523 21276.617 33632.980 30274.832 12815.267 58240.810 50050.379 27275.672 41913.025 26957.631 44053.526 63134.341 30563.479 35371.492 55117.816
42560.134 25769.820 31147.151 26868.644 32252.025 23381.971 15097.713 27390.681 35761.063 57049.277 32878.010 24774.794 28444.574 14733.106 19430.905 42254.626 26412.019 35259.057 18908.351 20343.482 24462.324 21883.193 43323.213 42198.459 8706.162 25766.525 15061.767 27451.468 1195.404 15093.598 58028.758 26755.442 7321.591 11107.329 27096.831 3833.839 40117.401 38192.878 31888.146 46747.896 39714.748 17263.562 36165.232 13690.397 3083.087 20120.438 38150.516 35569.612 0.000 18953.045 25141.939 17637.213 38398.969 54303.703 20386.258 10283.729 39116.229 27045.822 22943.598 54804.209 15576.047 23149.989 47552.342 26556.642 42688.373 23463.432 22652.444 2502.359 31780.174 47561.450 46767.231 35039.517 50984.111 20865.505 43191.247 16475.115 24901.636 34387.852 35624.975 32688.328 41627.248 41401.066 3108.131 18165.471 8527.351 3550.140 28135.951 22184.893 12358.196 26598.741 3579.295 38676.053 33172.987 11450.017 34229.845 29621.762 44962.437 30490.178 28781.909 17348.879 21731.948 8162.636 38656.178 45539.259 30894.473 28977.591 34996.696 15076.810 34894.052 51139.842 14409.524 35718.655 41643.274
24198.441 16999.621 19017.285 8506.951 13741.301 15933.479 25744.652 9028.988 26188.719 40605.749 14516.317 15202.450 16314.708 24164.504 26443.390 23892.933 13092.174 31077.200 11524.761 18225.389 17847.455 14171.199 33750.869 25725.817 11753.664 10199.320 4209.563 13177.934 19855.079 4307.829 39667.065 33767.926 21373.140 8634.346 8586.106 17885.388 31699.866 21648.345 13526.453 31463.387 30142.404 6965.848 17654.507 12944.683 17134.636 14552.359 29725.658 30294.633 19134.821 0.000 7638.614 10689.585 19888.244 35942.010 14529.843 24019.854 33841.249 8816.729 10813.732 36442.516 4814.341 15148.206 32267.833 8045.918 26143.840 12238.630 4981.154 17525.557 22207.829 32276.941 30323.702 25576.360 35507.179 13197.377 24829.554 11622.396 11551.977 18639.084 19080.442 14326.635 33209.713 23039.373 21175.564 3300.226 22578.900 21200.792 17780.126 4513.603 11245.665 19984.913 16609.650 29103.709 16668.303 8359.576 24657.501 11260.069 29008.814 14296.059 10271.184 11148.264 3213.039 19335.442 30238.643 30254.750 21431.316 16847.725 16485.971 6810.411 16383.328 35458.805 4704.309 17585.103 26358.765
18249.323 12381.723 13501.402 2557.833 10128.397 13263.696 28252.023 3079.870 21037.722 34473.695 8567.199 10321.587 10798.825 31178.552 28265.330 17943.815 6875.741 30322.696 18538.810 20027.556 15037.131 11727.879 28599.872 19546.582 18671.156 4250.202 11315.763 6961.501 25776.840 10358.790 33717.947 35589.866 28290.633 15238.043 8099.767 24802.880 27081.969 15469.110 7577.336 29926.434 24733.346 14077.614 12585.618 15760.776 24052.128 16133.819 25107.761 30108.602 24729.634 7603.752 0.000 17703.634 15078.298 29992.892 16107.232 30753.537 33655.219 2867.611 5462.338 30493.398 10851.337 11698.001 30730.879 9522.092 19964.605 6887.235 4099.064 24443.049 16757.340 30739.987 24191.649 32590.409 33659.702 12230.612 18880.436 18594.268 5335.545 12422.652 12901.207 8377.517 28591.816 17090.256 27689.567 8067.526 29496.392 26538.648 12316.432 4362.958 14747.847 16891.679 22660.611 22980.373 10451.871 14963.273 19506.503 5310.951 27161.337 14468.734 6612.675 13089.739 8636.857 23217.598 25620.746 28717.797 28445.364 11314.160 11417.082 10504.067 13557.584 33611.328 11375.063 11635.985 25748.204
29814.422 27157.966 29050.394 18473.897 18292.715 25339.623 25968.929 18995.934 36221.828 50572.695 24483.263 25235.558 26347.816 16134.571 29097.458 29521.344 23089.198 37163.081 2456.302 22469.329 26419.976 23840.846 43783.977 35397.739 10463.752 20166.266 7578.224 23174.958 18565.168 10507.967 45283.046 36421.994 20083.229 7887.242 13736.953 16595.476 41858.212 31581.201 19390.484 31052.014 40175.512 4349.419 22645.440 15839.193 15844.724 22078.091 39884.004 37527.264 18084.918 10522.910 17635.638 0.000 23559.733 41557.992 22343.911 19162.581 41073.881 18783.675 20846.841 42058.498 11014.480 25107.641 31856.459 13095.660 34812.688 22271.738 15014.262 16235.645 32240.938 31865.567 40290.648 17546.428 35288.229 22823.157 30457.965 2861.040 21549.001 28636.108 28673.353 19942.617 43368.059 28667.784 19885.653 13282.412 20282.651 20568.957 27813.234 14546.711 14745.821 28556.394 15977.815 39079.373 26665.327 7612.472 34690.609 19583.671 29266.555 14794.295 15262.117 19306.532 11589.182 19122.881 40396.989 29843.377 13401.383 26880.833 21313.481 13731.130 19599.344 35443.960 8392.728 25049.505 25947.391
25144.373 27329.226 27008.025 14794.622 6775.285 28346.029 43334.356 15316.659 34152.143 46022.653 19933.221 24017.835 24305.447 35700.212 43347.662 24851.295 20403.116 45405.029 23896.776 35109.888 30119.464 26810.212 41019.895 30727.690 31334.259 16486.991 23790.158 20488.876 39435.675 23851.695 40612.997 50672.199 40953.736 28324.736 12216.662 37465.983 42029.472 26911.152 14720.435 17397.004 36282.304 22832.507 3963.498 30843.109 36715.231 31216.151 40055.264 45190.934 38678.687 20192.056 15082.333 23574.948 0.000 36887.943 31189.565 38728.222 48737.551 15104.400 20201.039 37388.449 24344.241 26780.333 18201.450 15014.587 30142.639 21132.565 18007.748 37106.152 30263.962 18210.558 35740.606 37112.069 21130.272 27312.945 25787.916 25429.196 18772.449 25253.627 24003.304 15272.568 43539.319 23997.735 40756.160 22517.740 39848.292 40744.658 25823.054 18271.642 29830.179 31974.012 36153.516 34529.331 23316.277 28049.966 32414.264 14913.622 13577.443 9100.016 10729.569 28172.072 20528.209 38299.931 40568.249 16188.367 32967.024 24820.782 3842.795 25567.593 3940.147 21081.898 24394.699 20379.457 13398.632
12956.597 35788.931 28328.293 27757.181 31691.599 40353.684 56378.224 27502.564 30183.708 38630.325 23500.998 31607.372 28359.009 54046.994 56391.530 15833.018 28894.667 56325.221 42128.290 47878.337 42127.119 39323.782 35438.021 24215.218 46934.856 29449.550 39390.755 28229.993 55036.272 39274.052 9105.973 63716.066 56554.333 44041.309 28390.091 53066.580 42442.797 21896.911 23185.073 50370.159 30287.933 40592.047 34148.821 45127.548 52315.828 44637.908 48238.587 53350.613 54096.405 35792.653 30099.752 41334.488 36641.500 0.000 44643.677 57075.003 57228.217 27646.203 33133.280 5881.425 39766.599 38787.988 51174.604 31549.010 23630.166 32096.195 33025.167 52706.749 30188.119 51183.712 29746.235 55458.850 54103.426 40408.224 14744.909 43188.736 29681.250 24963.504 22620.575 24716.631 46298.025 15799.829 56356.757 37681.288 57760.092 55905.420 29566.058 33289.061 44114.618 43981.667 51575.874 29808.624 24091.674 43766.539 28809.058 25784.364 47605.062 34759.057 26902.998 42456.511 36638.280 52584.370 43102.908 49161.522 51313.805 28098.300 32980.285 40400.917 34979.575 54055.052 40111.272 20046.282 46038.528
33592.594 11883.137 20743.115 18493.004 26394.994 4802.201 12479.776 18726.651 25048.013 46905.811 23469.883 14133.669 18347.516 31571.686 12493.083 32461.749 17452.545 18135.612 24135.379 4151.964 5279.607 5565.263 32366.836 32054.993 18908.296 16891.182 16581.969 17862.287 21330.926 14645.563 49061.218 19817.619 25740.873 15623.369 21554.826 22556.153 20804.360 28473.885 23224.117 44432.107 29001.698 19748.372 28852.215 7627.495 21805.401 330.985 18837.476 17365.769 20283.720 14536.819 16266.597 22261.171 31344.895 45336.164 0.000 27912.667 20912.386 18170.480 14068.256 45836.669 14651.898 6125.878 45236.552 21014.637 32969.379 13819.130 14648.525 21224.673 21022.577 45245.660 36623.765 38767.871 48277.213 4995.755 33398.370 21944.422 16026.294 24244.386 25623.567 24300.868 22314.207 31608.189 23243.653 11425.503 26688.820 18990.158 17370.760 14752.667 8361.235 7416.025 19819.742 27963.003 23242.931 16034.270 23516.795 21549.508 41778.849 27264.778 22059.022 3638.833 17082.154 14658.677 19343.137 43223.470 34622.826 18573.555 27683.679 9980.620 29153.362 48228.839 15186.624 25802.919 39327.485
45229.890 33457.854 38566.071 31568.344 33563.224 31070.005 24158.856 32090.380 43449.098 63309.317 37577.710 32462.828 35863.494 4555.666 27185.184 44936.811 33829.726 42947.092 18189.352 28031.517 32150.358 29571.228 51011.248 48382.203 13248.646 33185.445 19604.251 34870.388 10474.952 20338.815 60698.514 34509.720 5573.133 16238.024 29152.421 6774.104 47805.435 44304.732 34805.952 46322.523 47402.782 20841.104 38060.908 21378.431 7552.910 27808.473 45838.551 43257.646 10384.527 23495.529 30257.803 18990.117 38830.243 56973.460 28074.293 0.000 46804.263 31878.121 30362.518 57473.966 20821.264 30838.023 47126.969 28511.128 48800.226 31151.467 27600.343 8535.254 39468.208 47136.077 53027.270 27280.135 50558.739 28553.539 45873.433 20698.153 32319.343 41258.273 41736.828 35358.085 49315.282 44083.252 11019.534 23933.226 3015.769 13362.613 35823.986 27132.792 20046.231 34286.776 9708.344 46364.088 39287.492 15992.501 41917.879 34321.462 44537.064 30064.805 30677.585 25036.914 26274.432 17312.808 46344.212 45113.886 23135.090 36396.511 36583.991 21493.596 34869.854 50714.469 18952.008 40464.973 41217.901
45273.570 26398.773 32500.836 35130.974 43071.166 20376.724 31934.968 35364.620 28521.294 46882.177 37644.448 29550.131 31457.651 50787.578 31948.274 42120.297 32869.007 5530.555 43351.272 19824.799 18341.317 22351.828 31089.034 36917.929 37769.386 33529.152 35797.861 33278.748 40546.818 34501.503 59694.004 39272.810 44956.765 34653.379 39902.821 41772.045 16922.713 36912.613 39150.803 61896.274 34076.977 38964.265 45528.388 26693.320 41021.293 21200.229 25292.665 5029.590 39499.612 33874.814 32942.769 41477.064 48021.067 57056.971 20931.961 47128.560 0.000 34808.449 30706.225 56469.456 34801.340 21542.339 62700.719 39346.663 38102.947 29235.591 32707.866 40440.566 30813.469 62709.827 41486.701 58034.461 65629.542 23125.219 43056.918 41160.314 31865.282 34820.698 36343.669 40938.837 16129.042 41266.738 42459.545 30763.497 45904.712 38445.350 30143.058 32812.008 27577.127 16356.856 39035.634 32353.615 36561.268 35108.248 29325.660 38187.477 59131.177 45696.199 39411.350 23723.443 36079.807 34113.869 15461.490 60687.637 53889.416 31345.853 44359.851 30426.976 46500.353 65581.168 34402.516 39441.672 57564.643
16040.869 12266.627 12025.976 357.190 10184.422 15109.957 30127.583 685.978 19562.295 32262.739 6173.308 9015.033 9323.398 32165.050 30140.889 15549.923 5400.315 32168.958 19525.308 21903.116 16883.392 13574.140 27124.445 17382.807 19919.930 1846.744 12375.829 5486.075 27652.400 12259.126 31509.493 37465.426 29539.407 17026.383 8155.793 26051.654 26966.873 13305.336 5183.444 29982.459 22522.391 15137.680 12641.644 17636.336 25300.902 18009.379 24992.665 31954.863 26605.194 8777.727 3084.826 18690.132 15134.323 27784.439 17982.792 32186.121 35501.480 0.000 5560.792 28284.944 12751.673 13544.262 30786.905 9797.876 17800.830 6069.966 6010.241 25691.823 15281.913 30796.013 21980.693 33576.906 33715.727 14076.873 16486.544 19788.662 3709.851 10947.225 10737.432 6260.195 28476.720 14696.364 29341.831 10666.362 30745.166 28414.208 10841.005 6274.135 16623.407 18737.940 24560.947 20769.418 8978.785 16751.613 18031.077 3413.693 27217.363 14524.759 6668.700 14965.299 9623.354 25093.158 25505.650 28773.822 29431.862 9838.733 11473.107 13036.635 13613.609 33667.353 13096.346 9242.093 25804.229
21448.705 8374.277 9767.668 5453.830 15281.062 11289.173 26306.799 6210.445 17303.987 35669.794 11607.049 6244.362 7065.090 33860.570 26320.105 20998.001 5032.535 28348.173 21943.174 18082.331 13062.608 9753.356 24866.137 20818.976 19389.674 3745.133 14720.126 6071.984 23831.615 12667.109 36917.329 33644.642 28029.757 16104.748 12822.500 25056.843 23074.523 16813.395 10707.911 34802.568 21257.672 17481.977 17738.284 13815.552 24306.091 14188.594 21100.315 28134.078 22784.409 10938.136 5527.304 21107.998 20230.963 33192.274 14162.008 30201.551 31680.695 5560.792 0.000 33692.780 13159.655 9723.477 35607.014 13201.641 21308.889 2810.010 6562.844 23725.363 13023.605 35616.122 25387.747 35994.772 38535.836 10256.089 21934.623 21720.217 3522.153 13008.369 14245.491 11576.899 24584.370 20144.442 25744.342 8893.803 28977.704 24593.424 8530.509 6666.986 12802.622 14917.156 22108.626 20218.977 11793.503 16327.119 15772.769 8510.333 32037.472 19191.467 11765.340 11144.515 12041.220 21272.374 21613.300 33593.931 31849.728 7598.108 16569.747 9135.813 18710.249 38487.462 14168.934 14339.171 30470.937
12870.316 35785.709 28325.070 27753.958 31688.377 40350.462 56375.001 27499.341 29941.078 35337.260 23497.776 31604.149 28355.786 54043.771 56388.307 15829.796 28891.445 56321.999 42125.067 47875.115 42123.897 39320.560 35195.390 23972.587 46931.634 29446.327 39387.533 28226.771 55033.050 39270.830 3224.548 63712.844 56551.110 44038.087 28386.869 53063.358 42200.167 21893.689 23181.850 50366.936 30045.302 40588.824 34145.599 45124.326 52312.606 44634.685 48235.365 53347.391 54093.183 35789.431 30096.529 41331.265 36638.278 5881.425 44640.455 57071.780 57224.995 27642.981 33130.058 0.000 39763.376 38784.766 51171.382 31545.788 23387.536 32092.973 33021.944 52703.527 30184.897 51180.490 29503.605 55455.628 54100.204 40405.002 14741.687 43185.514 29678.027 24960.282 22617.352 24713.409 46055.394 15796.606 56353.534 37678.065 57756.870 55902.197 29562.836 33285.838 44111.396 43978.444 51572.651 29565.993 24088.451 43763.317 28805.835 25781.141 47601.840 34755.835 26899.776 42453.288 36635.058 52581.147 42860.277 49158.299 51310.583 28095.077 32977.062 40397.695 34976.353 54051.830 40108.050 20043.059 46035.305
28137.699 18719.180 21033.205 12446.209 17835.633 16881.914 22468.572 12968.246 27970.915 43938.983 18455.575 16984.645 18330.627 24660.390 23495.866 27832.191 16296.859 30410.650 12020.647 15784.834 18795.889 15119.634 35533.065 29011.870 9010.808 13931.493 4306.353 16426.790 16551.549 959.823 43606.323 30820.402 18630.285 5556.604 12680.438 15142.532 33419.426 24934.398 17465.712 35557.719 31924.600 7357.024 21748.839 9930.038 14391.780 14463.172 31445.218 30721.204 15504.343 4809.316 10887.469 10846.211 23982.576 39881.268 14728.992 21072.097 34267.821 12755.987 12829.652 40381.774 0.000 16410.332 36362.165 12140.250 29429.893 14254.549 8230.009 14782.701 23990.025 36371.273 33656.937 26072.246 39601.511 14145.811 28768.812 10831.992 14786.476 21887.940 22366.495 18265.893 34929.273 26978.632 18432.709 4248.660 19836.044 17570.314 19796.046 7762.458 8402.821 20933.347 12979.172 30885.905 19917.159 5281.834 26439.696 15199.327 33103.147 18390.391 14365.516 11222.639 7410.050 16059.362 31958.203 34349.082 21927.201 18863.645 20580.303 4906.575 20477.660 39553.137 2775.914 21524.361 30453.097
27760.019 6050.562 14910.539 13881.937 21822.129 1702.284 17726.824 14115.583 19215.438 41073.236 17637.308 8301.094 12514.941 34394.090 17740.130 26629.173 11619.970 18761.284 26361.403 9226.937 3475.719 1408.426 26777.588 26222.418 21730.700 12280.115 18904.423 12029.712 24153.330 16399.669 43228.643 25064.666 28563.277 18445.774 18481.878 25378.557 17402.532 22641.309 17901.766 40647.237 23169.122 21799.105 24279.351 10449.899 24627.805 5986.508 15435.647 18547.189 23106.124 15274.226 11693.733 25083.576 26772.030 39503.588 5992.277 30735.072 22093.806 13559.412 9457.188 40004.094 16588.687 0.000 41451.683 17925.719 27136.804 7986.555 11286.922 24047.078 15234.548 41460.791 30791.189 40413.002 44380.505 2492.868 27565.795 24766.827 10616.245 18411.810 19790.992 19689.800 18912.379 25775.614 26066.057 12335.072 29511.224 24237.206 11538.185 11391.065 11183.639 5330.267 22642.147 22130.427 17410.355 18856.675 17684.219 16938.440 37882.141 25036.136 18162.313 6008.548 16625.504 19905.725 15941.309 39438.600 36267.957 12740.979 23110.815 12098.266 25251.316 44332.131 17950.863 19970.343 36315.606
39876.808 41826.454 42155.521 30313.634 20717.102 42708.427 55476.790 30835.671 48884.577 60755.087 34665.655 39536.847 39452.943 43731.359 57135.106 39583.729 35922.129 59767.427 31927.923 48897.332 44481.862 41004.067 55752.329 45460.125 39837.626 32006.003 34203.066 36007.889 47939.042 35630.901 55345.432 64459.643 49457.103 37395.104 24412.284 45969.350 56526.699 41643.586 29452.869 1834.481 51014.738 30863.653 21535.761 44011.560 45218.598 45003.595 54552.492 59553.332 47458.793 31997.543 30601.345 31606.094 17889.346 51620.377 44977.009 46759.368 63099.949 30623.412 35242.850 52120.883 36123.448 41142.731 0.000 26270.906 44875.073 36651.577 31139.410 45609.519 45411.458 63.092 50473.040 45143.215 7957.771 41426.692 40520.350 33460.343 34291.462 39986.061 38735.738 30005.002 58036.546 38730.170 49259.527 34296.946 47879.439 50076.818 40970.550 31167.120 42312.542 46336.410 45485.676 49261.765 38048.711 37120.334 47146.699 29646.056 5936.567 18234.001 24317.238 41959.516 32307.416 48630.742 55065.476 2178.283 40998.171 39968.278 21087.573 37856.028 17538.286 8113.501 35356.293 35111.891 6966.181
20790.352 19551.114 21345.964 9493.395 9053.617 19316.955 32591.063 10015.432 28517.398 41592.193 15502.761 17531.128 18643.386 26189.316 33069.093 20497.273 15021.711 36546.910 14270.613 24831.319 21404.932 17391.416 36079.548 26373.669 18898.817 11185.764 11354.716 15107.471 27000.233 11410.435 36258.976 40393.630 28518.294 15883.476 4552.969 25030.541 34251.360 22557.130 10366.414 25951.734 31851.844 12339.859 13326.181 19791.093 24279.789 20937.582 32277.152 35764.342 26237.428 7756.614 9564.780 13476.810 15200.561 32533.921 20910.996 29217.326 39310.959 9803.173 13142.411 33034.427 11902.981 17934.304 26756.179 0.000 25788.617 14567.308 7309.832 24670.710 24536.508 26765.287 31310.146 27601.173 30187.949 17814.041 21433.894 15331.059 13471.223 20568.622 19649.282 10918.546 35761.207 19643.714 28320.718 10076.480 29724.053 28303.398 20108.804 6842.281 18092.076 23259.480 23712.256 30098.871 18597.841 15608.706 26986.179 10559.600 24052.182 8351.959 5393.503 17741.571 8086.950 26181.853 32790.137 24743.097 23456.128 19176.403 12074.384 13635.562 11695.644 30343.679 11953.439 16025.435 20847.111
12276.086 23397.029 12508.288 17465.784 25545.116 28694.871 44719.411 17145.296 11742.434 16100.617 11986.483 19948.559 15188.142 47900.511 44732.717 10320.156 17375.629 38282.225 35981.807 36197.188 30390.216 27664.970 13148.917 1814.210 36654.921 17990.905 29110.820 16501.830 43540.331 28630.217 26440.061 52057.254 46274.397 33509.470 22243.608 42786.645 24001.523 5729.912 16873.290 44223.676 7998.829 31872.671 28002.338 33524.268 42035.893 32979.095 30990.844 35373.048 42493.125 25512.718 19819.816 35188.005 30495.018 24227.267 32984.865 48921.111 39112.542 17288.935 21530.000 23215.513 29122.763 27129.176 45028.121 25402.527 0.000 20492.915 22214.640 42426.814 14209.773 45037.229 6339.244 49312.367 47956.943 28749.412 9970.311 36523.653 18077.970 9273.605 8393.258 19260.319 27856.750 9513.032 45453.058 26050.079 47480.156 44302.140 16233.497 22318.782 32511.338 32204.798 40932.038 11217.298 10740.149 33234.700 11007.971 18335.350 41458.579 28612.575 20756.515 30853.231 26358.345 40981.090 24661.634 43015.039 45167.323 14927.433 26833.802 28736.523 28833.093 47908.570 29646.490 10645.328 39892.045
20619.927 6502.995 8260.462 6446.076 16273.308 9310.375 25334.914 6434.549 14680.307 34162.588 10602.303 3434.352 5557.885 34245.309 25348.221 19718.525 3886.050 26369.375 23289.190 16835.028 11083.810 8280.473 22242.456 19311.770 20735.691 5034.980 16066.143 4564.779 24004.549 14013.125 36088.551 32672.757 28414.496 17450.765 14168.517 25229.776 21203.241 15730.662 10052.322 36071.345 18633.991 18827.994 18730.530 14054.454 24479.024 13594.599 19229.033 26155.280 22957.343 12284.152 6873.321 22454.014 21223.209 32363.496 13600.368 30586.291 29701.897 6123.552 2815.780 32864.002 14505.672 7744.679 36875.791 14547.658 20226.156 0.000 7908.860 23898.297 10699.417 36884.899 23880.541 37340.789 39804.613 9364.915 20655.147 23066.234 2766.801 11501.163 12880.344 11999.930 22713.088 18864.966 25917.276 10239.820 29362.443 24766.358 7023.303 8013.003 13035.003 12938.358 22493.366 17595.296 10499.707 17673.136 13149.088 9299.885 33306.249 20537.483 12757.586 11390.007 13387.237 21445.308 19742.018 34862.708 33195.744 6090.902 17561.993 10481.830 19702.495 39756.239 15514.950 13059.695 31816.954
21361.431 12921.712 14716.561 5669.941 12613.895 12687.553 26819.516 6191.978 21887.995 37148.635 11679.307 10901.726 12013.984 28646.406 26832.822 21055.923 9550.681 30061.095 16006.664 18595.048 14775.530 10762.014 29450.145 22221.522 16069.030 7141.145 8783.616 9636.441 23630.863 7756.664 36830.055 34157.359 25688.507 12635.917 7727.621 22200.754 27621.957 18144.050 10689.444 30646.505 25841.680 11545.467 15589.380 14328.269 21450.002 14701.312 25647.750 29528.071 22583.657 5001.626 4097.121 15171.488 18082.060 33105.000 14674.725 28151.411 33074.688 5979.719 6513.008 33605.506 8249.211 11304.902 31450.950 7265.131 22639.544 7937.906 0.000 21840.923 17907.105 31460.058 26866.588 30058.262 34379.773 11184.639 21992.544 15992.142 8010.485 15097.592 15576.147 11489.625 29131.805 20202.363 25490.931 5056.937 26894.266 24483.360 13479.402 607.948 13072.533 16630.077 20058.485 24802.985 13126.811 12361.147 20356.777 8423.059 27881.409 14668.925 8161.581 11657.232 6104.710 21162.310 26160.734 29437.868 25913.218 12547.001 14420.844 8396.972 15255.922 34331.399 8772.937 14748.093 26314.874
40900.262 26767.152 32144.484 25208.773 30434.938 24379.304 16501.731 25730.809 36758.396 56949.746 31218.139 25772.127 29441.907 12797.502 20434.318 40594.754 27409.352 36256.390 17091.265 21340.815 25459.656 22880.526 44320.546 42022.633 6889.075 26763.857 13244.680 28448.801 3035.177 13979.244 56368.886 27758.854 5385.987 9878.453 25279.744 1898.235 41114.733 37945.161 30228.275 44930.809 40712.081 15446.475 34348.145 14687.730 1147.483 21117.771 39147.849 36566.945 2554.928 17135.958 23898.232 15820.126 36581.882 52643.832 21383.591 8348.125 40113.561 25518.550 23940.931 53144.338 14461.693 24147.321 45735.255 24739.556 42440.655 24460.765 21240.772 0.000 32777.506 45744.363 46667.699 33222.430 49167.024 21862.838 41531.376 14658.028 25898.969 34898.703 35377.257 31028.457 42624.581 39741.195 4716.142 17591.377 6591.747 5533.014 29133.284 20773.221 13355.529 27596.074 2683.523 39673.386 32927.921 9632.930 35227.178 27961.891 43145.350 28673.091 26964.822 18346.212 19914.861 9655.683 39653.510 43722.172 29077.386 29974.924 33179.609 15151.748 33076.966 49322.755 12592.437 34286.925 39826.187
19396.085 10050.036 4367.646 14609.962 24308.151 14930.261 30954.800 14363.010 6191.808 28242.831 11676.995 6112.689 5490.198 40917.786 30968.107 16740.572 9431.565 30066.751 31407.827 22454.914 16703.696 13900.359 13753.957 13392.013 28179.575 13239.770 24184.780 9602.066 30677.026 22116.954 34864.709 38292.643 35086.973 24894.649 22279.522 31902.253 18643.072 11532.888 16881.254 44106.188 10145.492 26946.630 26765.373 20596.187 31151.501 19214.485 21013.448 27092.143 29629.820 20402.789 15486.206 30572.651 29258.052 31139.654 19220.254 37258.768 31403.150 14287.438 11470.179 31640.160 22321.601 13364.565 44910.634 22666.294 14577.030 8661.773 16027.497 30570.774 0.000 44919.742 17960.784 45459.426 47839.456 14984.801 17677.193 31061.914 11039.460 7051.530 8861.555 19213.010 21627.226 15887.013 32589.753 18067.940 36034.920 31438.834 4175.605 16131.640 19707.480 18558.244 29165.842 9106.797 9516.809 25274.109 4660.589 17189.980 41341.092 28648.488 20792.429 17460.175 21505.873 28117.784 18656.156 42897.551 41314.381 5378.399 25596.837 17954.501 27737.338 47791.082 23618.778 12250.035 39927.959
39885.916 41835.562 42164.629 30322.743 20726.210 42717.535 55485.898 30844.779 48893.685 60764.195 34674.763 39545.955 39462.052 43740.467 57144.214 39592.837 35931.237 59776.535 31937.031 48906.440 44490.970 41013.175 55761.437 45469.233 39846.734 32015.112 34212.174 36016.997 47948.150 35640.009 55354.540 64468.751 49466.211 37404.212 24421.392 45978.458 56535.807 41652.694 29461.978 1792.345 51023.846 30872.761 21544.869 44020.668 45227.706 45012.704 54561.600 59562.440 47467.901 32006.651 30610.453 31615.202 17898.454 51629.485 44986.117 46768.476 63109.057 30632.520 35251.958 52129.991 36132.556 41151.839 63.092 26280.014 44884.181 36660.685 31148.518 45618.627 45420.566 0.000 50482.149 45152.323 7966.879 41435.800 40529.458 33469.451 34300.570 39995.169 38744.846 30014.110 58045.655 38739.278 49268.635 34306.054 47888.547 50085.926 40979.659 31176.228 42321.650 46345.518 45494.784 49270.873 38057.819 37129.442 47155.807 29655.164 5945.675 18243.109 24326.346 41968.624 32316.524 48639.850 55074.584 2187.391 41007.279 39977.386 21096.681 37865.136 17547.394 8122.609 35365.401 35120.999 6975.290
18121.590 26801.064 15912.323 22135.112 31390.620 32214.246 48238.786 21814.624 15146.469 10865.067 16655.811 23467.934 18592.177 53569.368 48252.092 16165.660 20950.434 41686.260 40929.626 39601.223 33794.251 31184.345 13711.137 6341.887 41324.249 22999.385 33780.148 19905.865 47634.004 33638.696 32285.565 55576.629 50943.725 38430.702 28089.112 47455.973 27405.558 10047.970 22668.028 50069.180 8561.049 36541.999 33847.842 37617.940 46705.221 36498.470 34394.879 38777.083 46586.798 30182.045 24489.144 40094.450 36340.521 30072.771 36504.240 53590.439 42516.577 21958.263 25623.673 29061.017 34131.243 30648.551 50873.625 31202.195 6494.764 24148.546 27223.119 47096.142 17613.808 50882.733 0.000 54981.225 53802.447 32268.787 15815.814 41192.981 22171.642 12677.640 12660.834 25027.708 31260.785 15488.699 49546.731 31058.558 52149.484 48395.812 19637.532 27327.262 36605.011 35608.833 45940.518 12749.562 14144.184 38155.931 13976.616 23004.678 47304.083 34458.078 26602.019 34744.160 31027.672 45074.762 28065.669 48860.543 50836.180 18331.468 32679.306 33018.239 34678.596 53754.073 34500.664 16049.315 45737.549
44277.879 42524.978 44417.405 33007.232 32611.213 41282.677 43683.830 33529.269 51588.839 65106.030 39016.599 40602.570 41714.828 24694.025 46498.447 43984.800 38456.210 54277.865 17237.341 39570.351 43196.653 39520.397 59150.989 49861.196 28178.653 34699.601 23251.991 38541.970 36280.069 25874.979 59746.503 53822.983 32018.944 25602.144 28200.410 33219.915 57225.224 46044.658 33853.941 45370.512 55365.681 19889.093 37108.897 33060.227 33559.625 39082.149 55251.016 54588.419 35799.820 25889.922 33002.649 18038.106 37878.232 56021.449 39347.969 27722.034 58135.036 33317.010 36213.852 56521.955 26381.492 40673.564 46174.958 27559.117 49276.144 37638.750 30381.274 33950.546 47607.949 46184.066 54823.984 0.000 49606.728 38546.575 44921.422 19746.142 36916.013 44003.120 43136.810 34406.074 58735.071 43131.241 37465.345 28649.424 28842.105 38283.858 43180.246 29913.723 31766.486 45334.111 33692.716 53612.708 42032.339 25327.373 50057.621 34047.128 43585.053 29112.794 29725.574 35684.055 26956.194 36837.782 55764.001 44161.875 5339.491 42247.845 35631.980 29977.685 33917.843 49762.458 24405.217 39512.962 40265.890
42391.658 44341.304 44670.371 32896.294 23405.033 45223.277 59242.106 33418.331 51399.427 63269.937 37180.505 42119.507 41967.793 47496.675 59649.956 42098.579 38504.789 62282.277 35693.239 51412.182 46996.712 43518.916 58267.179 47974.975 43602.942 34588.663 37968.382 38583.570 51704.358 38214.197 57860.282 66974.492 53222.419 41160.420 26927.134 49734.666 59041.549 44158.436 31967.719 8283.216 53529.588 34628.969 24293.951 46594.855 48983.914 47518.445 57067.341 62068.182 51224.109 34554.558 33184.005 35371.410 20723.200 54135.227 47491.859 50524.684 65614.799 33206.072 37757.700 54635.733 38706.743 43657.581 8001.536 29210.158 47389.923 39182.597 33654.260 49374.835 47926.308 8010.644 52987.890 48908.531 0.000 43941.542 43035.200 37225.659 36874.122 42500.911 41250.588 32519.852 60551.396 41245.020 53024.843 36880.242 51644.755 53842.134 43485.400 33681.969 44895.838 48851.260 49250.992 51776.615 40563.561 40885.650 49661.548 32160.906 9701.883 21999.317 26832.088 44474.366 34890.712 52396.058 57580.326 7074.579 44763.487 42483.128 23845.764 40439.324 20226.217 379.658 38757.201 37626.741 10731.497
29406.743 7697.286 16557.263 14427.138 22367.330 2852.191 17166.410 14660.784 20862.162 42719.960 19284.032 9947.818 14161.665 32086.388 17179.717 28275.897 13266.694 20486.881 24089.521 8893.492 5107.224 1221.386 28424.312 27869.142 19422.998 12825.316 16632.541 13676.436 21845.628 14127.787 44875.367 24504.253 26255.575 16138.072 18350.909 23070.855 19752.320 24288.033 19158.250 40938.907 24815.846 19527.224 24824.552 8142.197 22320.103 4876.632 17785.436 19704.313 20798.422 13174.507 12238.934 22775.874 27317.232 41150.312 4850.046 28427.370 23250.930 14104.613 10002.389 41650.818 14316.806 2488.181 41743.352 17794.751 28783.528 9633.279 11155.954 21739.376 16881.272 41752.460 32437.913 38141.120 44672.174 0.000 29212.519 22459.125 11960.427 20058.535 21437.716 20235.001 21262.167 27422.338 23758.355 10063.191 27203.522 22607.436 13184.909 11260.096 8875.937 7148.384 20334.444 23777.151 19057.079 16548.973 19330.943 17483.641 38173.810 24761.267 18453.983 3700.846 15144.874 19286.386 18291.097 39730.270 33996.075 14387.703 23656.016 9826.385 25548.323 44623.800 15678.982 21617.067 36607.275
2964.769 24380.563 14841.046 16524.183 20515.793 28945.316 44969.856 16223.244 16550.144 26119.860 11340.887 20199.004 16198.897 42871.187 44983.162 1293.993 17503.374 42328.429 30952.484 36469.969 30718.751 27915.415 21875.494 10652.691 35713.320 18192.450 28169.219 16566.019 43790.776 28052.516 18473.224 52307.699 45332.796 32819.773 17214.285 41845.044 28880.270 7900.119 11843.966 39194.353 16725.406 29416.240 22973.015 33774.713 41094.292 33229.540 34795.137 39353.821 42743.570 24571.117 18878.215 30158.682 25465.694 14748.170 33235.310 45899.197 43231.425 16347.334 21780.445 15248.675 28545.062 27379.621 39998.798 20373.204 10067.639 20716.540 21803.630 41485.213 16700.872 40007.906 16183.708 44283.044 42927.620 28999.857 0.000 32012.930 18328.415 11606.362 10192.192 14230.996 32429.269 1803.036 45135.220 26300.524 46538.556 44552.585 17405.946 22067.524 32761.783 32573.299 40354.337 16246.097 11931.562 32545.003 14812.265 14719.718 36429.256 23583.251 15727.192 31103.676 25416.744 41231.535 29458.199 37985.716 40137.999 15938.188 21804.479 28986.968 23803.769 42879.246 28889.736 7711.180 34862.722
31669.356 27472.082 29671.165 19529.350 20147.648 25104.046 25176.110 20051.386 36664.903 51628.148 25538.716 25678.634 26968.588 17969.811 28304.639 31376.277 24129.040 36832.658 2874.844 22138.905 26184.398 23605.268 44227.053 36748.216 9301.821 21221.719 7499.564 24214.800 17403.237 10395.294 47137.980 35629.175 18921.297 7066.735 15591.887 15433.545 41839.475 32670.744 21245.418 32906.948 40618.588 6257.611 24500.374 15508.770 14682.793 21842.513 39872.591 37221.455 16922.987 11456.535 18675.479 2802.026 25414.667 43412.926 22108.333 20997.820 40838.303 19839.127 21467.612 43913.432 10877.743 24872.063 33711.393 14950.594 36667.621 22892.510 16018.019 15073.714 32684.013 33720.501 41346.101 19381.668 37143.163 22587.580 32312.899 0.000 22588.843 29675.950 30102.840 21797.551 43349.322 30522.718 18723.721 13469.292 20127.057 19776.138 28434.006 15550.468 14510.243 28320.816 15184.996 39579.893 27705.169 6791.965 35133.685 21438.605 31121.489 16649.229 17117.051 19070.954 13444.116 18330.062 40378.252 31698.311 15236.623 27501.605 23168.415 13495.552 21454.278 37298.893 8218.710 26904.439 27802.325
18182.718 9161.062 8759.767 4035.363 13862.595 11968.441 27992.981 3997.341 16296.086 32376.026 8165.095 5549.360 6057.189 35633.922 28006.287 17556.048 1847.017 29027.441 22994.180 19493.095 13741.876 10938.540 23858.236 17448.913 21182.300 2624.267 15771.132 2727.883 25544.204 14459.735 33651.342 35330.824 29822.383 17897.374 11833.965 26769.431 23861.308 13371.441 7615.114 33660.632 20249.770 18532.983 16319.816 15528.140 26018.679 15901.183 21887.100 28813.347 24496.998 12059.121 6178.340 22159.004 18812.496 29926.288 15874.596 31994.177 32359.964 3712.838 3533.873 30426.794 14952.281 10402.746 34465.077 13476.049 17866.936 2721.766 8355.470 25437.952 12015.704 34474.185 22093.980 37045.778 37393.899 11968.677 18492.669 23049.637 0.000 9794.577 10803.538 9562.722 25371.155 16702.489 27456.931 10686.429 30770.329 26306.012 7522.607 8459.612 14515.211 15596.424 23901.252 19211.075 8351.550 18119.745 14764.867 6862.677 30895.535 18202.932 10346.872 12857.103 13092.226 22984.962 22400.084 32451.995 32900.734 6590.206 15151.280 10928.439 17291.781 37345.525 15830.433 10897.218 29482.402
13213.135 15271.398 4224.317 11390.621 20968.606 19957.881 35982.421 11023.465 9882.618 22988.733 6174.159 11211.569 6769.171 42683.277 35995.727 10727.307 8553.025 33757.562 30043.534 27482.534 21731.316 18927.980 17444.768 8137.915 30175.881 11224.203 22820.487 7508.456 35236.595 21863.514 28681.759 43320.264 39514.774 26742.768 17833.760 36307.605 22333.883 5519.623 12186.376 39813.828 13248.384 25582.338 23425.828 25220.532 35556.853 24242.105 25190.320 30782.954 34189.389 19108.476 13227.695 29208.358 25918.508 24956.704 24247.875 41686.568 35093.960 11068.096 13226.264 25457.210 22356.061 18392.186 40618.274 20582.061 9322.932 11766.191 15447.937 35130.343 6084.143 40627.382 12706.686 44095.133 43547.096 20012.422 11663.928 30098.992 9774.233 0.000 2734.015 14546.056 25318.037 9873.748 37149.322 19283.376 40462.721 35998.403 7949.525 15552.080 24207.602 23585.864 33593.643 11495.411 2635.664 26467.998 8351.400 12523.026 37048.732 24202.727 16346.668 22487.795 20141.581 32677.353 22346.967 38605.191 39950.089 6508.462 22257.292 20620.830 24397.793 43498.722 22879.787 6067.085 35482.197
10863.621 16757.198 6036.809 10785.824 19713.767 21321.951 37346.491 10465.335 11055.254 22925.764 5306.523 12575.639 8133.241 42069.161 37359.797 9430.464 9917.095 35280.483 29580.338 28846.604 23095.386 20292.050 17923.006 7953.156 29974.960 11310.945 22430.859 8872.526 36600.665 21950.256 26332.245 44684.333 39594.437 26829.510 16412.258 36106.684 23506.519 3875.684 11040.550 38392.326 13185.415 25192.710 22170.988 26584.601 35355.932 25606.175 26713.241 32305.875 35553.459 18832.757 13139.856 28745.162 24663.668 22607.191 25611.944 42241.151 36616.881 10608.975 14590.333 23107.697 22442.803 19756.255 39196.771 19571.177 8371.178 13130.261 15534.679 35746.853 7896.636 39205.879 12643.717 43481.017 42125.594 21376.492 10367.085 29843.692 11138.303 2742.156 0.000 13427.580 26840.958 8576.905 38513.392 19370.118 40800.196 37362.473 9340.290 15638.822 25571.672 24949.934 34252.078 11432.442 3110.845 26554.740 9317.375 11655.390 35627.229 22781.225 14925.166 23851.865 19678.384 34041.423 23869.888 37183.689 39335.973 7872.532 21002.452 21984.900 23001.743 42077.220 22966.529 3717.572 34060.695
12996.480 18339.243 16635.032 6098.385 10032.803 21139.892 36157.517 6101.998 23364.089 35234.598 9145.167 14096.020 13932.455 32388.198 36170.824 14366.483 10748.158 38198.892 20469.494 27933.050 22913.327 19604.074 30231.840 20242.879 25276.060 7790.754 17731.959 10548.232 33377.476 17615.256 28465.104 43495.360 34895.537 22382.513 6731.295 31407.784 32873.700 16277.195 2750.951 28711.363 25494.250 18933.251 12490.025 23666.271 30657.032 24039.313 31065.281 37984.797 32442.249 14133.857 8440.956 19675.692 14982.705 24740.050 24012.726 35416.207 41531.414 6143.399 11504.802 25240.555 18107.803 19574.196 29515.808 9890.214 19657.827 11933.438 11366.371 31047.953 19890.970 29524.916 24952.552 33800.054 32444.630 20106.808 14347.598 21529.940 9518.492 14465.572 13517.692 0.000 34383.547 13512.924 34697.961 16022.492 36101.296 34444.142 15450.062 11630.265 22653.341 24767.875 29917.078 23741.277 12528.223 22107.743 21626.210 4125.568 25946.266 13100.262 5244.202 20995.233 14979.484 31123.092 31412.477 27502.726 29655.010 14447.789 11321.489 18926.216 13320.779 32396.256 18452.476 9893.844 24379.732
34366.883 16593.005 22695.068 28358.592 38185.824 18426.935 33873.141 28592.239 18115.019 36221.426 27838.681 21505.686 21651.884 52918.806 33886.447 31213.609 24824.562 16477.887 44428.573 25169.895 19362.923 20286.716 20428.284 26511.654 40255.415 26947.496 37122.099 25234.304 42678.045 34931.132 49287.729 41210.983 47087.992 36970.489 35480.390 43903.273 4826.869 26005.926 32353.382 57460.457 23416.227 39883.949 40643.046 28974.615 43152.521 22132.825 15486.897 13568.709 41630.839 33339.767 28359.012 43593.397 43135.725 46150.284 22396.571 49259.787 17308.203 28036.068 24284.248 46063.180 35120.151 19136.135 58264.903 35687.041 27696.671 22438.170 29048.244 42571.793 21007.702 58274.011 31080.425 58480.172 61193.725 21276.945 32150.231 43291.542 25067.861 25014.931 26537.901 34166.456 0.000 30360.050 44590.772 30866.536 48035.939 40383.523 20337.291 29152.386 29708.354 21177.506 41166.862 21947.340 26755.501 37381.390 18418.973 31415.095 54695.361 41849.356 34670.102 24627.433 34526.620 36052.042 3365.646 56251.820 54335.127 21540.085 39474.510 30629.729 41615.011 61145.351 36482.327 29635.905 53128.826
4019.688 22590.383 13050.866 14734.003 18725.613 27155.136 43179.675 14433.064 14759.963 25493.071 9550.706 18408.823 14408.716 41081.007 43192.982 977.890 15713.194 40538.248 29162.303 34679.789 28928.571 26125.234 21248.704 10025.901 33923.139 16402.270 26379.038 14775.838 42000.596 26262.335 19528.144 50517.518 43542.616 31029.592 15424.104 40054.864 27211.228 6109.938 10053.786 37404.172 16098.616 27626.060 21182.834 31984.532 39304.111 31439.360 33004.957 37563.640 40953.390 22780.936 17088.035 28368.501 23675.514 15803.089 31445.129 44109.016 41441.244 14557.154 19990.265 16303.595 26754.882 25589.440 38208.618 18583.023 9440.850 18926.360 20013.450 39695.032 14910.692 38217.726 15556.918 42492.864 41137.440 27209.676 1803.036 30222.750 16538.234 9816.182 8402.011 12440.816 30639.088 0.000 43345.040 24510.343 44748.375 42762.404 15615.766 20277.344 30971.603 30783.119 38564.157 15137.151 10141.382 30754.822 13022.085 12929.537 34639.076 21793.071 13937.012 29313.495 23626.563 39441.354 27668.018 36195.535 38347.819 14148.007 20014.298 27196.788 22013.589 41089.066 27099.555 5920.999 33072.541
44355.377 28658.378 34035.710 28663.888 33890.053 26270.530 17218.038 29185.924 38649.622 59937.836 34673.254 27663.353 31333.132 15272.980 21551.230 44049.869 29300.577 38147.616 20546.379 23232.041 27350.882 24771.752 46211.772 45087.018 10344.190 28655.083 16699.795 30340.027 2206.573 17434.359 59824.001 28875.767 6562.322 13333.568 28734.859 4705.318 43005.959 41081.437 33683.390 48385.924 42603.307 18901.590 37803.260 16578.955 4666.816 23008.997 41039.075 38458.170 3250.372 20591.073 27353.347 19275.241 40036.997 56098.947 23274.817 10823.604 42004.787 28973.665 25832.157 56599.453 17916.808 26038.547 49190.369 28194.670 45576.931 26351.991 24695.886 4547.270 34668.732 49199.477 49655.789 36677.545 52622.139 23754.063 44986.490 18113.143 27790.195 37276.411 38513.533 34483.572 44515.806 43196.310 0.000 21054.030 9067.225 5670.464 31024.510 24228.336 15246.755 29487.300 6425.519 41564.612 36061.545 13088.044 37118.403 31417.006 46600.465 32128.206 30419.936 20237.438 23369.976 10282.961 41544.736 47177.287 32532.500 31866.150 36634.723 17965.369 36532.080 52777.870 16047.552 37742.039 43281.302
26281.419 14654.737 17148.144 10589.929 15979.353 12817.470 22722.015 11111.966 23906.471 40995.989 16599.295 12920.202 14445.566 26893.559 23399.494 25975.911 12411.798 27961.191 14253.817 15181.493 14731.445 11055.190 31468.621 26068.876 12625.540 10988.499 6796.837 13452.460 18872.047 4292.082 41750.043 30724.030 21295.438 9171.336 10824.158 18630.237 29354.982 21991.404 15609.431 33701.439 27860.156 9691.519 19892.559 9922.046 17879.485 11436.350 27380.775 27178.623 17824.841 3338.803 8228.184 13418.641 22126.296 38024.988 11413.833 23467.232 30725.240 10899.707 8944.591 38525.494 4612.126 12345.889 34505.885 10283.970 26486.898 10369.488 5974.458 17311.119 19925.581 34514.993 30713.942 28305.415 37745.231 10081.368 26912.532 13628.242 10901.415 18944.946 19423.500 16409.613 30864.830 25122.351 20784.774 0.000 22243.385 19633.855 15910.985 5906.178 8223.029 16868.903 15374.307 26821.461 16974.164 8896.566 22375.253 13343.047 31246.866 16534.111 12509.236 8032.255 5884.138 16312.805 27893.759 32492.802 24160.371 14978.584 18724.023 3766.514 18621.380 37696.857 6076.958 19519.832 28596.817
45904.695 32102.716 37210.933 30213.205 35068.284 29714.867 22500.931 30735.242 42093.960 61954.178 36222.572 31107.690 34508.356 7075.293 25830.045 45599.187 32474.588 41591.953 19694.412 26676.378 30795.220 28216.089 49656.109 47027.065 11893.508 31830.307 18249.113 33515.250 8546.950 18983.677 61373.319 33154.582 3645.131 14882.886 30284.177 4846.102 46450.297 42949.593 35232.708 47827.583 46047.644 20450.908 39352.578 20023.293 5624.908 26453.334 44483.412 41902.508 8456.525 22140.391 28902.664 20495.177 40335.303 57648.265 26719.155 2861.192 45449.125 30522.983 29007.380 58148.770 19466.126 29482.885 48632.028 29743.988 47445.088 29796.328 26245.204 6607.252 38113.070 48641.137 51672.132 28785.194 52063.798 27198.401 46535.808 19662.461 30964.205 39903.135 40381.690 36032.889 47960.144 44745.628 9091.532 22578.088 0.000 11434.611 34468.847 25777.653 18691.093 32931.637 8353.206 45008.949 37932.354 14637.362 40562.741 32966.324 46042.124 31569.865 31969.254 23681.775 24919.294 15654.883 44989.074 46618.946 24640.150 35041.373 38089.050 20138.458 36374.913 52219.529 17596.870 39291.357 42722.961
44498.816 27311.752 32689.084 28878.952 34268.375 23668.911 11561.402 29143.926 37302.996 58591.210 34528.465 26316.726 29986.506 17718.327 15894.595 43919.417 27953.951 33594.255 21893.573 18325.449 23278.158 23425.126 44865.146 43740.392 11691.384 27308.457 17645.158 28993.400 3531.701 17103.905 59967.440 23219.131 10306.813 13117.637 29113.181 6819.061 39059.487 39734.811 33641.391 49605.001 41256.681 19878.645 38181.582 15232.329 6068.309 19607.130 37092.603 33983.052 3692.470 21242.059 26683.871 20525.438 40415.319 56242.386 19872.950 13268.951 37889.567 28587.755 24485.531 56742.892 17586.354 24691.921 50409.446 28572.992 44230.305 25005.365 24640.189 5487.581 33322.106 50418.554 48309.163 37927.742 53841.216 22407.437 44856.038 19460.337 26443.569 35929.784 37166.907 34698.636 40569.334 43065.858 5703.571 20012.230 11512.572 0.000 29677.884 24195.201 13900.129 25414.576 6909.952 40217.986 34714.919 13572.506 35771.777 31632.070 47819.542 33347.282 30798.259 18890.812 23842.792 4626.325 37598.264 48396.364 33782.698 30519.524 37013.045 16618.743 36910.402 53996.946 16735.448 37260.587 44500.378
17508.386 8269.516 3536.643 10957.867 20535.853 13149.741 29174.280 10590.712 10065.204 29704.412 7665.679 4295.244 1478.882 39100.341 29187.587 16121.733 5861.782 29145.456 28451.063 20674.394 14923.176 12119.839 17627.354 14853.594 25897.564 9616.923 21228.016 5590.750 28859.581 19174.998 32977.010 36512.123 33269.528 22612.638 18489.398 30084.808 19196.083 12130.104 12869.938 40333.890 14018.889 23989.867 22993.074 18815.667 29334.056 17433.965 19232.928 26170.848 27812.375 17446.025 12035.194 27615.887 25485.754 29251.955 17439.734 35441.322 30481.854 10635.343 8216.012 29752.461 19667.545 11584.045 41138.335 19709.530 16038.612 6700.635 13070.733 28753.328 5963.215 41147.443 19422.366 42502.662 44067.158 13204.281 17058.354 28228.107 7469.677 7583.954 8963.136 15201.694 20705.931 15268.174 30772.308 15401.692 34217.475 29621.389 0.000 13174.876 17890.034 16777.724 27348.397 12980.194 6582.499 22835.008 8533.986 13178.664 37568.793 24858.365 17002.306 15679.654 18549.109 26300.339 17734.860 39125.253 38357.617 1367.083 21824.538 15643.703 23965.039 44018.784 20676.823 9462.903 36137.835
21625.325 13206.486 15001.336 5933.835 12402.348 12972.327 27104.290 6455.872 22172.770 37412.529 11943.202 11186.500 12298.758 28072.270 27117.597 21319.817 9814.575 30345.869 15432.528 18879.823 15060.304 11046.788 29734.920 22485.416 15494.895 7405.039 8209.481 9900.336 23056.727 7182.528 37093.949 34442.133 25114.371 12061.782 7247.154 21626.619 27906.732 18407.944 10953.338 30434.958 26126.454 10971.332 15853.274 14613.044 20875.867 14986.086 25932.524 29812.845 22009.521 4427.490 4361.015 14597.352 18345.954 33368.895 14959.499 27577.275 33359.462 6243.613 6797.783 33869.400 7675.075 11589.676 31239.404 6690.996 22903.439 8222.680 607.948 21266.788 18191.880 31248.512 27130.483 29484.127 34168.226 11469.413 22256.438 15418.006 8274.379 15361.486 15840.041 11753.519 29416.579 20466.258 24916.795 5341.711 26320.130 24075.492 13764.176 0.000 13357.307 16914.852 19484.350 25087.759 13390.705 11787.012 20641.551 8686.954 27669.862 14094.789 8425.475 11942.006 5530.575 21447.084 26445.509 29226.321 25339.082 12831.776 14684.738 8681.746 15044.375 34119.852 8198.802 15011.987 25860.608
32524.341 14039.444 20714.608 16935.804 23665.998 11395.219 16208.799 17169.450 25345.855 46616.734 22553.989 14359.585 18012.031 23681.312 16222.106 31944.942 15979.476 23272.305 16559.407 8076.022 12475.571 9896.441 32908.005 31765.917 11137.479 15333.982 9207.673 17018.925 13440.552 7930.598 47992.965 23546.642 17850.499 7991.922 18510.803 14665.779 28130.648 27760.335 21666.916 41388.084 29299.540 12219.688 27295.014 1843.202 13915.027 8133.686 26163.764 23582.860 12393.346 11194.648 14709.396 14685.199 29787.694 44267.911 8399.506 20022.294 27129.476 16613.279 12511.055 44768.417 8384.191 11163.236 42192.530 17970.615 32255.830 13048.224 12928.628 13334.300 21364.965 42201.638 36334.688 31289.884 45431.876 8878.753 32881.563 14368.450 14469.093 23955.309 25192.432 22743.667 29640.495 31091.382 15353.279 8367.850 18798.446 14202.360 17720.743 13032.770 0.000 14611.989 11929.368 28260.845 22740.444 8435.715 23814.636 19992.307 38933.512 24220.756 20195.881 5362.127 13739.983 10881.310 26669.425 40179.447 27144.839 18545.048 26126.478 4908.523 26308.025 45383.502 7831.611 25286.112 36283.462
32960.268 11250.811 20110.788 19082.186 27022.378 4327.936 18455.008 19315.832 24388.772 46273.485 22837.557 13501.343 17715.190 37570.193 18468.314 31829.422 16820.219 13710.342 30133.887 7425.140 2292.529 6303.041 30998.242 31422.667 24906.803 17480.364 22580.476 17229.961 27329.433 20810.128 48428.892 25792.850 31739.380 21621.877 23854.033 28554.660 19435.766 27841.558 23102.015 45847.486 28342.456 25746.880 29479.600 13626.002 27803.908 7180.434 17468.882 13496.248 26282.227 19856.848 16893.982 28259.679 31972.279 44703.837 6912.165 33911.175 17042.864 18759.661 14657.437 45204.343 20999.146 5493.551 46651.932 23297.875 32337.053 13186.804 16659.078 27223.181 19653.983 46661.040 35991.438 44817.076 49580.754 7177.946 32766.044 27942.930 15816.494 23612.059 24991.241 24890.049 20945.613 30975.863 29242.160 16745.531 32687.327 24965.390 16738.434 16763.221 14359.742 0.000 25818.250 27303.761 22610.604 22032.778 22857.553 22138.689 43082.390 30236.385 23362.562 9705.477 21975.261 20633.909 17974.543 44638.849 40672.031 17941.228 28311.064 16409.010 30451.565 49532.380 21185.131 25170.592 41515.855
39971.689 25101.655 30209.872 24280.200 29669.623 22713.806 15501.270 24802.236 35092.898 55519.368 30289.566 24106.629 27507.295 14558.668 19076.164 39666.181 25473.526 34590.892 17685.549 19675.317 23794.159 21215.028 42655.048 40592.255 8216.523 24829.245 13046.406 26514.189 4573.895 12505.153 55440.313 26400.700 7513.197 8518.885 24514.429 4025.445 39449.236 36514.783 29299.702 45006.248 39046.583 15279.893 33582.829 13022.232 3274.693 19452.273 37482.351 34901.447 3526.689 16643.306 22721.460 15926.686 35816.566 51715.259 19718.093 10434.524 38448.064 24589.977 22006.319 52215.765 12987.602 22481.824 45810.694 23974.240 41010.278 22795.267 20063.999 2596.339 31112.009 45819.802 45237.322 33328.990 49242.464 20197.340 40602.802 15252.313 23963.144 33450.573 33946.880 30099.884 40959.083 38812.622 6445.283 15577.027 8678.145 6928.631 27467.786 19596.449 11690.032 25930.576 0.000 38007.888 31497.544 8973.753 33561.680 27033.318 43220.789 28748.530 26199.506 16680.714 19244.040 8655.221 37988.013 43797.611 29183.945 28040.312 32414.293 13137.397 32311.650 49398.194 12136.696 33358.351 39901.626
18541.477 17958.305 10458.416 20910.486 30364.114 23645.080 39461.709 20589.997 5780.879 23043.914 15431.185 14827.508 13138.270 49632.605 39475.016 15972.798 17855.786 32502.721 39705.000 30758.464 24951.492 22615.178 8833.319 9929.377 36894.394 21567.031 32555.521 17540.859 39391.845 30831.773 32705.452 46799.552 43801.792 33609.468 27090.786 40617.072 18222.018 10003.190 21443.401 49070.854 5224.854 35317.372 32821.336 29311.006 39866.320 27721.394 25552.120 29593.543 38344.639 28957.419 23264.517 38869.824 35314.015 30492.658 27935.073 45973.587 33333.037 20733.637 20184.998 29480.903 31036.420 22079.384 49875.299 29977.568 11114.394 17376.592 24742.316 39285.593 8771.050 49884.407 12775.725 53756.598 52804.121 23699.620 16235.701 39776.733 19463.681 11453.013 11436.208 23803.082 22077.246 15119.239 41304.572 26782.759 44749.739 40153.653 12890.424 24846.459 28422.299 26766.074 37880.661 0.000 12919.557 33988.928 4580.032 21780.051 46305.757 33459.752 25603.693 26174.994 29803.046 36832.603 18882.129 47862.217 49611.554 12877.561 31652.799 26669.320 33680.270 52755.747 32333.597 14824.689 44739.223
12403.690 14376.561 6670.825 9696.555 19150.183 18941.314 34965.854 9205.042 12060.430 24393.088 4250.245 10195.002 5752.604 41006.973 34979.160 11017.038 7536.458 35544.710 28367.231 26465.967 20714.749 17911.413 19390.330 9542.270 28499.577 9547.899 21144.184 6491.889 33994.599 20187.211 27872.314 42303.697 38119.054 25066.464 15909.846 34631.301 24511.694 6277.812 10262.461 37889.914 14652.739 23906.035 21607.405 23978.536 33880.549 23225.538 25632.182 32570.102 32947.393 17432.172 11551.392 27532.055 24100.084 24147.260 23231.308 40444.573 36881.108 9463.082 11984.268 24647.766 20679.757 17375.619 38694.359 18763.637 10727.288 10749.624 13771.634 33888.347 8551.526 38703.467 14111.042 42418.830 41623.181 18995.855 11953.659 28422.688 8532.238 2635.301 3110.845 12622.142 27105.185 10163.478 35907.326 17607.073 39220.725 34756.408 6959.653 13875.776 22965.606 22569.297 32351.648 12899.766 0.000 24791.694 10529.211 10599.111 35124.817 22278.812 14422.753 21307.499 18465.277 31435.358 24134.115 36681.277 38273.785 5491.895 20438.869 19378.835 22499.330 41574.807 21203.484 4358.207 33558.282
32497.783 21393.595 24606.283 16806.294 21903.082 19005.746 18786.410 17328.330 31078.760 48417.890 22815.660 20092.491 21903.705 20540.516 21914.938 32192.275 19869.937 30437.909 9529.418 15744.157 20086.099 17506.969 38640.910 33490.777 4615.307 18410.400 4959.250 20905.696 12367.673 5436.347 47966.407 29239.475 14234.783 399.555 16747.888 10747.031 35741.176 29413.305 21825.796 36903.555 35032.445 7192.737 25816.289 9114.021 9996.279 15744.214 33774.292 30826.706 11320.467 8682.002 15366.376 7823.992 28050.026 44241.353 16010.034 16881.497 34740.004 17116.071 16402.730 44741.859 5918.796 18773.764 37708.000 16207.700 33908.799 17827.627 12708.916 10387.200 27097.870 37717.108 38135.843 25226.296 41139.770 16489.280 33128.897 7186.692 18359.554 26366.847 26845.401 22625.978 37251.023 31338.716 14037.207 9425.480 15440.543 13386.438 23369.123 12241.365 8167.280 22222.517 8795.296 33993.750 24396.066 0.000 29547.541 19559.412 35118.095 20645.836 18432.966 12972.655 11416.042 11940.362 34279.953 35694.918 21081.251 22436.722 24647.753 7533.807 24545.110 41295.500 4049.540 25884.446 31798.932
17029.560 13494.396 5994.507 18444.067 28022.052 19181.171 34997.800 18076.911 2834.430 24243.084 13334.673 10363.599 8674.361 45168.696 35011.106 13876.286 13391.877 28612.715 35658.737 26294.555 20487.583 18151.269 9150.267 9813.073 32430.485 17103.122 28435.690 13076.950 34927.936 26367.864 32419.095 42335.643 39337.883 29145.559 24994.274 36153.163 15285.695 8668.603 19346.889 46974.342 5541.801 31197.540 30479.274 24847.097 35402.411 23257.484 21088.211 25638.107 33880.730 24653.699 19565.289 34823.561 32971.953 28812.961 23471.164 41509.677 29515.711 18121.542 15721.089 29194.546 26572.511 17615.475 47778.787 26917.204 10998.091 12912.683 20278.407 34821.684 4307.140 47787.895 13974.894 49710.335 50707.609 19235.711 14812.908 35312.824 14999.772 8314.369 9339.696 21706.570 18713.555 13022.727 36840.663 22318.850 40285.830 35689.744 8426.515 20382.550 23958.390 22302.165 33416.752 4503.106 10492.594 29525.019 0.000 19683.540 44209.245 31363.240 23507.181 21711.084 25756.783 32368.694 15742.485 45765.705 45565.291 8413.652 29310.737 22205.411 31451.239 50659.235 27869.688 12728.177 42642.711
14144.704 15691.971 14728.946 3157.367 10862.112 18198.873 33216.499 3499.068 21458.002 33328.512 7239.080 12081.734 12026.368 33217.506 33229.805 13960.716 8467.016 35257.874 21298.802 24992.032 19972.308 16663.056 28325.754 18448.580 22335.042 4849.736 14790.941 8552.776 30436.458 14674.238 29613.329 40554.342 31954.519 19441.495 7560.603 28466.766 30392.216 14371.108 3605.373 29540.671 23588.163 17552.792 13319.333 20725.252 27716.014 21098.295 28418.009 35043.779 29501.231 11192.839 5499.937 20505.000 15812.013 25888.274 21071.708 34601.233 38590.396 3467.144 8563.784 26388.780 15166.785 16633.178 30345.116 10719.522 18866.602 9341.765 8425.352 28106.935 17984.883 30354.224 23046.465 34629.362 33273.939 17165.789 14897.337 22203.774 6926.819 12559.486 11803.205 4272.899 31902.063 13107.157 31756.943 13081.473 33160.278 31503.124 13543.975 8689.247 19712.323 21826.856 26976.059 21835.190 10622.136 19166.725 19720.123 0.000 26775.574 13929.570 6073.511 18054.215 12038.466 28182.074 28930.993 28332.034 30484.318 12541.703 12150.797 15985.198 14150.088 33225.565 15511.458 9488.077 25209.040
36559.946 38509.592 38838.659 26996.773 17400.240 39391.565 53204.687 27518.809 45567.715 57438.225 31348.794 36219.985 36136.082 41459.256 53818.244 36266.867 32605.267 56450.565 29655.820 45580.470 41165.000 37687.205 52435.467 42143.263 37565.523 28689.142 31930.963 32691.027 45666.939 32382.485 52028.570 61142.781 47185.000 35123.001 21095.422 43697.247 53209.837 38326.724 26136.008 5355.362 47697.876 28591.550 17410.843 40763.144 42946.495 41686.734 51235.630 56236.471 45186.690 28722.846 27284.483 29333.991 13577.443 48303.515 41660.147 44487.265 59783.087 27306.550 31925.988 48804.021 32875.032 37825.869 6159.807 23378.446 41558.211 33334.715 27822.548 43337.416 42094.596 6168.915 47156.179 42871.112 9591.577 38109.830 37203.488 31188.240 30974.600 36669.199 35418.876 26688.140 54719.685 35413.308 46987.424 31048.530 45607.336 47804.715 37653.689 27850.258 39064.126 43019.548 43213.573 45944.903 34731.849 34848.231 43829.837 26329.194 0.000 15961.898 21000.376 38642.654 29059.000 46358.639 51748.614 4146.725 38726.068 36651.416 17144.437 34607.612 14221.424 9747.308 32925.490 31795.029 4694.078
23791.887 25741.533 26070.600 14456.352 5614.345 26135.636 38445.677 14978.389 32799.656 44670.166 18580.735 23531.587 23368.023 26700.246 39418.328 23498.808 20064.846 42896.144 14896.809 31180.554 28223.612 24210.097 39667.408 29375.204 22806.513 16148.721 17171.953 19983.800 30907.929 17692.129 39260.511 46742.864 32425.990 20363.990 8324.590 28938.237 40441.779 25558.666 13367.949 17699.824 34929.817 13832.540 10230.006 26072.788 28187.485 27286.817 38467.571 42113.576 30427.679 14058.771 14744.063 14574.981 9064.790 35535.457 27260.230 29728.255 45660.193 14766.130 19157.930 36035.963 18184.676 24752.985 18504.270 8363.825 28790.152 20582.827 14128.513 28578.406 29326.538 18513.378 34388.120 28112.102 21936.039 24632.722 24435.430 16429.230 18434.180 23901.140 22650.817 13920.082 41951.626 22645.249 32228.414 16358.174 30848.325 33045.705 24885.630 13660.962 24373.770 30078.160 28454.563 33176.844 21963.790 20089.220 31061.778 13561.135 15914.365 0.000 8232.317 24023.265 14368.644 31599.629 38980.556 16491.187 23967.057 23883.357 8635.111 19917.256 5104.401 22091.770 18235.134 19026.970 12595.202
17210.555 19160.201 19489.268 7875.020 5764.878 20042.174 34455.547 8397.056 26218.324 38088.834 11999.402 16950.255 16786.690 27708.072 34468.853 16917.476 13483.514 37101.174 15789.368 26231.079 21815.609 18337.814 33086.076 22793.872 21161.226 9567.389 13617.125 13402.467 29262.642 13678.661 32679.179 41793.390 30780.702 18151.703 1817.421 27292.950 33860.446 18977.333 6786.616 23797.488 28348.485 14253.125 10037.442 21964.300 26542.198 22337.342 31886.239 36887.079 28505.654 10019.023 8162.730 14995.566 11911.822 28954.124 22310.756 30736.081 40433.696 8184.797 12576.597 29454.630 14171.208 18476.478 24601.934 5210.089 22208.820 14001.495 8473.157 26933.119 22745.205 24611.042 27806.787 29119.929 27530.756 18760.439 17854.097 16849.815 11852.847 17319.808 16069.485 7338.749 35370.293 16063.917 30583.126 12344.706 31856.152 30571.625 18304.297 8737.051 20360.303 23670.157 25980.483 26595.512 15382.458 17876.933 24480.446 6979.803 21032.392 8186.387 0.000 19293.263 10355.176 28450.079 32399.223 22588.851 24974.884 17302.025 8785.645 15903.788 8406.905 27482.382 14221.666 12445.638 19465.857
30938.010 10152.729 19012.706 15349.473 23251.462 6238.506 15501.275 15583.120 23317.605 45030.404 20967.659 12403.261 16425.700 28553.378 15514.581 30358.611 14393.145 20713.475 21117.071 7276.807 7713.847 4652.929 30879.755 30179.586 15889.987 13747.651 13563.660 15432.594 18312.617 11368.475 46406.634 22839.118 22722.564 12605.061 18169.704 19537.845 23045.028 26174.005 20080.585 41046.985 27271.289 16730.064 25708.684 4609.186 18787.093 3414.975 21078.144 19930.908 17265.411 11151.697 13123.065 19242.863 28201.363 42681.580 3680.795 24894.359 23477.525 15026.949 10924.725 43182.086 11374.810 5919.724 41851.430 17629.515 30669.499 11478.218 11504.993 18206.365 19336.715 41860.538 34748.357 35490.782 45090.776 3635.240 31295.232 18926.114 12882.763 22368.978 23606.101 21157.336 24554.875 29505.052 20225.344 8040.380 23670.511 19074.426 15640.352 11609.136 5342.926 9851.305 16801.434 26232.594 21154.113 13015.962 21786.386 18405.976 38592.412 23879.656 18915.490 0.000 13697.032 15753.376 21583.805 39838.348 31345.738 16843.146 24540.147 6703.532 25966.925 45042.402 12168.315 23699.781 35942.362
25188.771 18507.272 20399.699 10092.479 14106.582 17913.234 28284.296 10614.516 27571.133 42072.542 16101.846 16584.864 17697.122 25382.636 28983.034 24895.692 14474.588 33245.006 12742.894 20765.033 19827.209 16112.970 35133.283 27145.429 14348.226 11784.848 6804.125 14560.348 22449.642 6910.860 40657.395 36307.571 23967.703 11383.902 8951.388 20479.950 33207.518 23067.957 14764.832 31828.669 31524.818 8687.092 18019.789 15484.327 19729.198 17092.003 31233.310 32462.438 21737.853 3218.399 9021.028 11907.718 20253.526 36932.340 17069.487 26614.416 36009.055 10402.257 12196.146 37432.846 7403.407 16655.858 32633.115 8411.200 27563.451 13621.044 6363.568 20120.119 23590.243 32642.223 31790.495 26794.493 35872.460 15177.132 25832.313 13761.967 12934.392 20021.498 20500.053 15316.965 34717.365 24042.133 23770.127 5839.870 25173.462 23803.824 19162.540 5896.017 13785.309 21964.667 19212.682 30486.123 18050.717 11109.132 26039.915 12845.598 29374.096 14661.341 10636.466 13687.909 0.000 21875.086 31746.295 30620.032 22649.448 18230.139 16851.253 9350.055 16748.610 35824.087 7453.865 19170.631 26724.047
41188.668 24001.604 29378.935 25600.131 32000.229 19337.916 7328.130 25833.777 33992.847 55281.061 31218.316 23006.578 26676.358 21520.986 11563.600 40609.269 24643.803 29263.260 20768.091 13994.455 18947.164 20114.977 41554.997 40430.243 13576.129 23998.309 16128.948 25683.252 8138.777 15587.695 56657.292 18888.136 14146.564 11601.426 26845.035 10658.812 34728.492 36424.662 30331.243 48088.790 37946.532 18362.435 35913.435 11922.181 9908.059 15276.135 32761.608 29652.057 8299.546 19528.880 23373.723 19009.228 38147.172 52932.238 15541.955 17108.702 33558.572 25277.606 21175.382 53432.744 16070.144 20661.593 48893.235 26304.846 40920.157 21695.216 21330.041 9327.332 30011.958 48902.343 44999.015 36411.532 52325.005 19097.289 41545.890 18334.854 23133.420 32619.636 33856.759 31407.994 36238.340 39755.709 10310.647 16702.082 15352.323 4624.860 26367.735 21434.183 10589.980 21083.581 8559.903 36907.837 31404.771 12056.295 32461.629 28656.634 46303.331 31831.072 28530.112 15580.663 22074.215 0.000 33267.269 46880.153 32266.487 27209.375 34744.899 13308.594 34642.256 52480.736 15219.237 33950.439 42984.168
31606.518 13832.641 19934.703 25598.228 35425.460 15666.570 31112.776 25831.874 14901.649 33249.141 25078.316 18745.321 18891.519 50158.441 31126.082 28453.245 22064.197 15920.289 41668.209 22409.531 16602.559 17526.352 17455.999 23298.284 37495.050 24187.132 34361.734 22473.939 39917.681 32170.767 46074.359 38450.619 44327.628 34210.124 32720.025 41142.908 1613.499 23245.561 29593.017 54700.093 20443.942 37123.585 37882.681 26214.250 40392.156 19372.460 12726.533 13011.111 38870.475 30579.402 25598.648 40833.033 40375.361 43389.919 19636.206 46499.422 16750.606 25275.703 21523.884 42849.811 32359.786 16375.770 55504.538 32926.676 24483.301 19677.806 26287.879 39811.428 18247.337 55513.646 27867.055 55719.807 58433.360 18516.580 29389.866 40531.177 22307.496 22254.566 23777.536 31406.091 3347.393 27599.685 41830.408 28106.171 45275.575 37623.158 17576.926 26392.021 26947.990 18417.141 38406.497 18733.970 23995.136 34621.025 15658.608 28654.731 51934.996 39088.991 31909.738 21867.069 31766.255 33291.677 0.000 53491.456 51574.763 18779.720 36714.145 27869.365 38854.646 58384.986 33721.962 26875.540 50368.461
37785.332 39734.978 40064.045 28222.158 18625.626 40616.951 53385.314 28744.195 46793.101 58663.611 32574.179 37445.371 37361.467 41639.883 55043.630 37492.253 33830.652 57675.951 29836.446 46805.856 42390.386 38912.590 53660.853 43368.649 37746.150 29914.527 32111.590 33916.413 45847.566 33539.425 53253.956 62368.166 47365.627 35303.627 22320.808 43877.874 54435.223 39552.110 27361.393 1295.444 48923.262 28772.177 19444.285 41920.084 43127.122 42912.119 52461.015 57461.856 45367.316 29906.067 28509.869 29514.618 15797.870 49528.901 42885.532 44667.892 61008.473 28531.936 33151.374 50029.407 34031.972 39051.255 2205.756 24179.430 42783.597 34560.101 29047.934 43518.043 43319.982 2214.864 48381.564 43051.739 7341.453 39335.216 38428.874 31368.867 32199.986 37894.585 36644.262 27913.526 55945.070 36638.694 47168.051 32205.470 45787.962 47985.342 38879.074 29075.643 40221.066 44244.934 43394.200 47170.289 35957.235 35028.857 45055.222 27554.580 3845.090 16142.525 22225.762 39868.040 30215.940 46539.266 52974.000 0.000 38906.694 37876.802 18996.097 35764.552 15446.810 7497.184 33264.817 33020.415 4874.705
40125.819 38372.918 40265.345 28855.172 28459.153 37130.617 39531.770 29377.209 47436.779 60953.970 34864.539 36450.510 37562.768 20541.965 42346.386 39832.740 34304.149 50125.805 13085.281 35418.291 39044.593 35368.337 54998.929 45709.136 24026.593 30547.541 19099.930 34389.910 32128.009 21722.919 55594.443 49670.923 27866.884 21450.083 24048.350 29067.855 53073.164 41892.598 29701.881 41218.452 51213.621 15737.033 32956.837 28908.167 29407.565 34930.089 51098.956 50436.359 31647.759 21737.862 28850.589 13886.046 33726.172 51869.389 35195.909 23569.974 53982.976 29164.950 32061.792 52369.895 22229.431 36521.504 42022.898 23407.057 45124.084 33486.690 26229.214 29798.486 43455.889 42032.006 50671.924 5649.026 45454.668 34394.515 40769.362 15594.082 32763.953 39851.060 38984.750 30254.014 54583.011 38979.181 33313.285 24497.364 24690.045 34131.798 39028.186 25761.663 27614.426 41182.051 29540.656 49460.648 37880.279 21175.313 45905.561 29895.068 39432.993 24960.734 25573.514 31531.995 22804.134 32685.722 51611.941 40009.815 0.000 38095.785 31479.920 25825.625 29765.783 45610.398 20253.157 35360.902 36113.830
16303.842 9339.415 2332.100 10156.929 19734.915 14045.318 30069.857 9789.774 9868.419 28499.868 6864.741 5299.005 423.248 39647.442 30083.163 14917.189 5140.764 30215.355 27730.045 21569.971 15818.753 13015.416 17430.569 13649.050 25176.546 8815.985 20506.998 4789.812 29524.283 18453.981 31772.466 37407.700 33816.629 21891.620 17688.460 30749.510 20265.983 10925.560 12069.000 39532.952 13822.103 23268.849 22192.136 19508.220 29998.758 18329.541 20302.827 27240.747 28477.077 16725.007 11314.176 26894.869 24684.816 28047.411 18335.311 35988.423 31551.753 9834.405 7494.994 28547.917 18946.527 12479.622 40337.397 18988.513 14834.068 5979.618 12349.716 29418.031 5588.037 40346.505 18217.822 41781.644 43266.219 14099.858 15853.811 27507.089 6748.659 6379.410 7758.592 14400.756 21775.830 14063.630 31437.010 14680.675 34764.575 30286.091 1630.298 12453.858 18495.290 17673.300 27895.498 12783.408 5377.955 22113.991 8337.200 12377.726 36767.855 24057.427 16201.368 16575.231 17828.092 26965.041 18804.760 38324.315 37636.600 0.000 21023.600 14922.685 23164.101 43217.846 19955.805 8258.359 35336.897
21490.715 23675.568 23354.367 11140.964 3253.668 24692.371 39680.698 11663.001 30498.485 42368.995 16279.563 20364.177 20651.789 33606.885 39694.004 21197.637 16749.458 41751.371 21803.449 31456.230 26465.806 23156.554 37366.237 27074.032 27680.601 12833.333 20136.500 16835.218 35782.017 20198.037 36959.339 47018.541 37300.078 24671.078 8563.004 33812.325 38375.814 23257.494 11066.777 20593.061 32628.646 20739.179 1825.185 27189.451 33061.573 27562.493 36401.606 41537.276 35025.029 16538.398 11428.675 21481.620 3832.347 33234.285 27535.907 36634.894 45083.893 11450.742 16547.381 33734.791 20690.583 23126.675 21397.506 11729.464 26488.981 17478.907 14354.090 33452.494 26610.304 21406.614 32086.948 35018.741 24326.328 23659.287 22134.258 23335.869 15118.791 21599.969 20349.646 11618.910 39885.661 20344.078 37102.502 18864.082 37754.965 37091.000 22169.396 14617.984 26176.521 28320.354 32499.858 30875.673 19662.619 24396.308 28760.606 11259.964 17133.989 8575.091 7075.911 24518.414 16874.551 34646.273 36914.591 19384.424 30873.697 21167.124 0.000 21913.935 4658.024 24277.955 20741.041 16725.799 16532.264
28703.644 14596.336 17454.442 13012.154 19293.705 12745.274 19448.773 13534.191 23952.210 43356.568 19021.521 12965.941 14751.865 25176.489 20312.253 28398.136 12718.097 26507.058 15751.896 12166.169 14587.710 10982.994 31514.360 28438.930 10733.298 12073.815 8023.433 13758.759 15598.805 5628.971 44172.268 27636.789 19345.675 7448.372 14138.511 16692.837 29296.581 24361.458 18031.657 37015.792 27905.895 11214.903 23039.940 6484.341 15942.085 9912.218 27322.373 26804.771 14551.599 6900.786 10454.321 13877.688 25440.649 40447.213 10178.038 21517.470 30351.388 13321.932 9250.889 40947.719 5231.096 12273.693 37820.238 13598.323 28856.952 10675.786 8366.841 15361.357 19971.320 37829.346 33074.522 29867.982 41059.583 10009.172 29334.757 13560.939 11207.714 20695.143 21793.555 18831.838 30806.428 27544.577 17511.532 3995.558 20293.622 16360.613 16217.283 8470.983 4949.787 16725.168 13424.545 26867.200 19344.219 7773.134 22420.992 15765.273 34561.219 19848.464 15730.647 6873.863 9446.121 13039.563 27835.358 35807.155 25722.937 15284.882 21871.403 0.000 21935.732 41011.209 6377.833 21889.887 31911.170
23586.224 25771.076 25449.875 13236.472 3543.310 26787.879 41683.065 13758.509 32593.993 44464.503 18375.071 22459.685 22747.298 31813.058 41789.512 23293.145 18844.966 43846.879 20009.622 33551.738 28561.314 25252.062 39461.745 29169.541 27919.326 14928.841 20440.901 18930.726 36020.742 20502.437 39054.848 49114.049 37538.802 24975.479 9215.375 34051.050 40471.322 25353.002 13162.285 16873.920 34724.154 18945.353 5431.514 28883.096 33300.298 29658.002 38497.114 43632.785 35329.430 16842.799 13524.183 19687.794 3960.389 35329.793 29631.415 34841.068 47179.401 13546.250 18642.890 35830.299 20994.984 25222.183 17678.366 11498.399 28584.489 19574.415 15942.501 33691.219 28705.813 17687.474 34182.456 33224.915 20607.188 25754.795 24229.766 21542.042 17214.300 23695.477 22445.154 13714.418 41981.169 22439.586 37341.226 19168.483 35961.138 37395.401 24264.905 15970.210 27184.079 30415.862 32804.259 32971.181 21758.127 24700.709 30856.115 13355.472 14108.824 5212.862 9120.329 26613.922 17178.952 35273.855 39010.099 15665.283 29079.870 23262.632 4618.457 22727.565 0.000 20558.814 21045.442 18821.307 12927.735
42349.432 44299.078 44628.145 32854.069 23362.807 45181.051 59352.599 33376.106 51357.202 63227.711 37138.280 42077.282 41925.568 47650.590 59607.731 42056.354 38462.563 62240.052 35847.154 51369.957 46954.487 43476.691 58224.953 47932.749 43756.858 34546.438 38110.435 38541.345 51858.273 38171.971 57818.056 66932.267 53376.334 41314.335 26884.908 49888.582 58999.324 44116.211 31925.494 8437.131 53487.363 34782.884 24251.726 46552.630 49137.830 47476.220 57025.116 62025.957 51378.024 34512.333 33141.780 35525.325 20680.975 54093.002 47449.633 50678.599 65572.574 33163.847 37715.475 54593.508 38664.518 43615.356 8155.451 29167.932 47347.698 39140.372 33612.034 49528.751 47884.083 8164.559 52945.665 49062.446 377.843 43899.316 42992.975 37379.574 36831.897 42458.685 41208.363 32477.627 60509.171 41202.794 53178.758 36838.016 51798.670 53996.049 43443.175 33639.744 44853.613 48809.034 49404.907 51734.390 40521.336 41039.565 49619.323 32118.681 9855.798 22153.232 26789.862 44432.140 34848.486 52549.973 57538.101 7228.494 44917.402 42440.902 23803.538 40397.098 20183.992 0.000 38714.976 37584.515 10885.413
28561.860 20011.048 22210.132 12870.371 17967.159 18286.953 21754.853 13392.407 29203.870 44481.967 18879.737 18217.600 19507.554 22735.958 22782.147 28256.352 16884.013 30164.039 10097.209 15456.525 19367.306 16768.778 36766.020 29554.854 7588.858 14474.477 1645.600 16969.773 15690.274 2296.299 44030.484 30106.684 17208.335 4134.654 12811.965 13720.582 34711.294 25477.382 17889.873 34408.314 33157.554 5077.618 21880.366 9216.319 12969.830 15025.420 32737.086 30474.594 14750.398 4746.079 11430.453 8162.992 24114.103 40305.430 15291.240 19855.049 34021.211 13180.148 14006.579 40805.936 2778.748 18054.971 35212.760 12271.777 29972.876 15431.476 8772.993 13360.751 25222.980 35221.868 34199.920 24147.815 38644.529 15770.487 29192.974 8148.773 15343.817 22430.924 22909.478 18690.055 36221.141 27402.793 17010.759 6008.259 18414.094 16816.368 20972.973 8305.442 7884.119 21503.723 12225.226 32118.859 20460.143 3859.884 27672.651 15623.489 32622.855 18150.596 14497.043 12253.861 7480.119 15345.643 33250.071 33199.677 20002.770 20040.572 20711.830 6189.325 20609.187 38800.260 0.000 21948.523 29303.692
8322.743 16840.921 9438.651 9363.653 16104.919 21405.674 37430.213 9043.165 14457.096 26191.000 3884.352 12659.361 8659.254 38460.313 37443.519 6936.091 9963.732 38451.361 26541.609 28930.327 23179.109 20375.772 21324.848 10716.253 28552.789 10701.707 21008.688 9026.376 36251.133 20891.985 23791.367 44768.056 38172.266 25659.242 12803.411 34684.513 26908.361 6638.781 7431.703 34783.479 16587.257 23770.539 18562.141 26235.070 33933.761 25689.897 28538.833 35476.753 35203.927 17410.586 11717.685 25747.807 21054.820 20066.313 25695.667 40818.980 39787.759 9186.804 14240.802 20566.819 21384.532 19839.978 35587.924 15962.330 11134.276 13176.898 14643.100 34324.682 11298.478 35597.032 16045.559 39872.170 38516.746 21460.214 7872.712 27602.056 10788.772 6073.863 3730.933 9818.733 30011.836 6082.531 37974.690 18760.881 39378.025 37012.942 9866.304 14906.994 25222.140 25033.656 33193.807 14834.284 4391.919 25384.472 12719.217 10233.219 32018.382 19172.377 11316.318 23564.033 18256.213 33691.892 27040.765 33574.842 35727.125 8398.545 17393.604 21447.325 19392.895 38468.372 21729.205 0.000 30451.847
35076.211 37025.857 37354.924 25686.442 16195.180 37907.830 49782.228 26208.479 44083.980 55954.490 29865.058 34815.911 34652.347 38036.796 51662.538 34783.132 31294.937 54966.830 26233.360 43424.764 39681.265 36203.470 50951.732 40659.528 34143.064 27378.811 28508.504 31268.123 42244.480 29936.339 50544.835 58987.074 43762.541 31700.541 19611.687 40274.788 51726.102 36842.989 24652.272 6530.482 46214.141 25169.091 17084.099 38316.998 39524.036 39531.027 49751.895 54357.786 41764.230 26302.980 25974.153 25911.532 13513.348 46819.780 39504.440 41064.806 57904.403 25996.220 30442.253 47320.286 30428.886 36342.134 7334.928 20576.344 40074.476 31867.151 26338.813 39914.957 40610.861 7344.036 45672.443 39448.653 10766.697 36626.095 35719.753 27765.780 29664.270 35185.464 33935.141 25204.405 53235.949 33929.573 43564.965 28602.384 42184.876 44382.256 36169.953 25927.098 36617.980 41535.813 39791.114 44461.168 33248.114 31425.771 42346.102 24845.459 4738.185 12539.439 19516.641 36267.475 26612.854 42936.180 50264.879 5321.845 35303.608 35167.681 16635.911 32161.466 13016.365 10922.428 29661.731 30311.294 0.000
NODE_COORD_SECTION
1 -13394.789952 398.188298
2 6073.548764 6852.044068
3 -1929.196855 7403.180011
4 -472.009704 -2247.788693
5 -6063.182363 -7641.298229
6 9518.530028 6140.968512
7 24441.578503 1562.763726
8 -1010.541578 -1828.451762
9 -3347.629587 12939.099047
10 -20611.101912 19820.152958
11 -4554.001747 995.043575
12 2459.870445 3970.561588
13 -426.115730 5188.591892
14 15579.900807 -20534.788376
15 21010.451387 7054.167943
16 -11028.165993 2573.503151
17 897.433280 1837.505355
18 20570.769573 18505.038936
19 7228.201858 -14714.096709
20 16116.296469 5018.130905
21 11205.594771 7487.969847
22 8780.825491 4584.690029
23 -7732.958502 19561.984070
24 -9912.992796 9849.170971
25 14396.017251 -9308.190541
26 970.970900 -1496.609110
27 8713.999004 -9060.605968
28 120.204563 2101.117904
29 21918.305602 -9019.651688
30 8883.352623 -6920.298543
31 -24601.291784 -3790.406932
32 22441.448473 13674.977821
33 20118.244718 -14234.493068
34 12409.428620 -8600.129580
35 -1758.141768 -7372.641487
36 20249.800351 -11404.904387
37 7139.534207 19323.070256
38 -8024.429096 7078.651849
39 -5069.480904 -3157.222701
40 -16845.728869 -18292.770404
41 -7154.245622 14988.607213
42 7180.114455 -11461.378130
43 -9296.665526 -5200.282316
44 14370.557790 -988.258048
45 20176.373474 -10724.568150
46 13154.975233 4545.327291
47 14567.512321 15428.052352
48 17947.220699 18388.861830
49 21192.410579 -8554.361188
50 5572.056957 -6814.528431
51 1128.074318 -2034.522929
52 7581.583344 -13504.432445
53 -11015.608595 -8130.914467
54 -19094.155492 -6376.950033
55 13123.895698 4718.023835
56 17410.781232 -17224.701952
57 18827.889211 22132.067126
58 -548.365142 -1962.235693
59 3917.662817 517.577216
60 -22067.920812 -2678.193984
61 9018.407338 -6186.727043
62 8606.205423 5616.927501
63 -17402.204178 -19599.774431
64 -188.053748 -8784.422236
65 -11405.602121 9599.294007
66 3232.575142 2009.101973
67 3725.599695 -3599.210506
68 19905.525904 -10088.060147
69 -705.796422 9049.121083
70 -17391.416152 -19641.281407
71 -12731.229764 13850.282218
72 -4755.510982 -21973.821921
73 -23562.564800 -17511.900966
74 9447.393720 3892.591554
75 -11546.711747 1754.422878
76 9551.789138 -14318.924305
77 1317.411414 391.710924
78 -4222.519849 6034.237292
79 -6142.289883 5162.415242
80 -3454.719333 -4842.354639
81 10102.506534 20818.335932
82 -10457.039894 2543.448503
83 23450.932943 -10500.796512
84 7491.080602 -4418.570953
85 17986.690834 -15086.925944
86 23442.011035 -6293.865856
87 334.844312 5972.793426
88 3826.224954 -4038.505344
89 13404.549641 -2103.136695
90 12629.679831 8787.212525
91 18506.161814 -8777.840213
92 -6294.778425 12605.880951
93 -3990.383204 4209.774656
94 12196.445361 -8750.554538
95 -3203.247170 12259.562625
96 -2419.108304 -3917.238954
97 -18770.270113 -15834.106504
98 -5292.395921 -11893.489356
99 -2568.500070 -6314.762583
100 11610.733659 1737.747485
101 4063.546773 -7910.306846
102 20517.214820 -3412.746425
103 8250.565324 18898.317698
104 -17993.770474 -18264.614990
105 -1913.203367 -20019.060284
106 -685.275645 5493.581741
107 -8182.715259 -5967.412411
108 10090.228315 -3587.563163
109 -8501.934234 -9556.407984
110 -23822.846479 -17503.295320
111 9390.505080 -7821.783679
112 -6985.151923 2173.486798
113 -15379.271805 -16937.327927
DEMAND_SECTION
1 0
2 79
3 59
4 2
5 1
6 9
7 7
8 4
9 7
10 7
11 6
12 57
13 9
14 2
15 3
16 5
17 4
18 4
19 2
20 61
21 3
22 7
23 10
24 6
25 10
26 3
27 5
28 5
29 57
30 9
31 5
32 3
33 6
34 8
35 1
36 7
37 82
38 10
39 7
40 1
41 8
42 8
43 65
44 3
45 1
46 3
47 1
48 1
49 6
50 5
51 2
52 7
53 9
54 1
55 67
56 1
57 2
58 1
59 8
60 2
61 2
62 5
63 3
64 10
65 3
66 7
67 93
68 9
69 1
70 5
71 7
72 2
73 3
74 6
75 4
76 10
77 8
78 6
79 55
80 10
81 8
82 4
83 8
84 55
85 1
86 7
87 1
88 2
89 6
90 9
91 4
92 4
93 5
94 3
95 10
96 9
97 9
98 59
99 1
100 8
101 3
102 2
103 9
104 2
105 9
106 10
107 9
108 4
109 10
110 3
111 10
112 3
113 6
DEPOT_SECTION
1
-1
EOF
