NAME : mamut-reykjavik-n138-k10-poi
COMMENT : Mamut2026 fastest metric; city reykjavik; No of trucks: 10 (lower bound, fleet not fixed); 3-decimal seconds/meters; ENU ref in mamut-reykjavik-n138-k10-poi.vrp.json
TYPE : CVRP
DIMENSION : 139
EDGE_WEIGHT_TYPE : EXPLICIT
EDGE_WEIGHT_FORMAT : FULL_MATRIX
CAPACITY : 568
EDGE_WEIGHT_SECTION
0.000 407.059 305.381 259.397 250.574 148.129 247.666 206.311 185.824 445.414 492.888 649.004 304.806 77.704 202.571 281.866 159.867 1879.261 253.576 361.513 98.865 247.304 271.804 583.778 418.192 312.865 1839.606 191.021 272.052 347.701 224.699 317.394 148.865 244.794 225.578 479.978 495.542 341.541 243.757 273.540 275.754 247.199 563.147 1261.989 1910.200 241.455 233.753 312.558 229.739 1895.912 238.250 305.011 496.969 272.910 318.119 205.744 325.719 256.178 277.051 205.284 169.815 260.702 259.932 269.665 312.887 272.897 276.665 171.640 1910.317 305.369 264.942 441.955 292.967 260.760 248.027 263.129 816.539 223.093 312.275 295.551 195.909 589.703 168.622 351.462 226.553 302.623 143.068 583.648 236.264 164.004 217.703 470.479 580.356 470.464 341.419 312.681 258.848 308.775 245.383 193.113 254.615 421.532 226.731 221.528 316.970 478.567 314.829 249.499 102.190 181.323 588.244 162.381 226.429 113.621 222.798 522.345 399.220 230.425 463.200 196.135 253.768 283.564 318.008 174.488 488.532 259.944 372.519 358.951 193.696 266.006 620.427 342.518 262.255 485.408 240.825 319.877 498.653 589.544 353.568
399.334 0.000 268.738 562.685 553.862 444.598 516.880 376.124 301.620 408.771 349.712 505.827 202.316 396.297 505.858 467.592 456.336 1736.084 377.552 118.452 364.768 489.622 389.906 547.135 393.514 276.222 1696.430 462.667 235.409 560.903 378.605 184.357 322.984 548.081 499.298 455.300 252.762 246.742 461.788 528.432 523.187 521.420 534.440 931.492 1767.023 544.742 482.439 194.672 523.046 1752.735 531.557 232.770 472.291 396.259 212.500 485.621 230.920 222.519 542.745 485.162 335.623 534.923 542.340 500.869 199.511 547.118 414.890 335.543 1767.140 357.036 502.408 417.277 567.187 227.101 551.314 413.093 486.043 496.813 240.033 580.960 449.870 446.526 332.525 314.819 366.377 576.844 448.818 554.941 529.572 327.908 520.990 723.505 437.179 381.391 527.145 598.090 533.069 458.739 251.886 384.080 547.922 396.854 530.018 495.248 280.327 387.046 278.186 531.907 424.567 417.437 445.067 326.284 513.518 320.735 501.170 485.702 549.184 533.713 371.679 439.466 215.855 249.905 281.365 338.391 463.854 497.410 129.458 568.814 462.970 569.293 583.784 305.875 565.542 460.731 467.594 283.234 473.975 446.367 110.508
314.821 278.373 0.000 430.617 421.793 322.175 386.511 307.599 217.107 223.488 504.373 660.488 297.012 311.784 373.790 337.223 333.913 1890.745 245.484 232.827 280.255 357.554 257.838 378.490 195.857 74.828 1851.091 330.598 41.318 430.534 246.537 188.708 254.459 416.013 367.230 257.643 272.485 251.093 329.720 396.364 391.119 391.051 340.812 1161.356 1921.684 412.674 350.371 304.763 392.678 1907.397 401.189 237.121 274.634 264.191 310.325 353.553 235.271 267.663 412.377 353.094 267.098 404.554 410.272 370.501 305.093 416.749 282.822 267.019 1921.802 173.283 370.340 219.620 436.819 272.245 419.246 281.025 715.907 364.745 244.384 450.592 327.447 601.187 264.001 128.405 297.852 446.475 326.395 361.313 399.203 259.383 388.922 593.137 591.840 481.949 396.777 467.722 402.701 326.670 256.867 312.021 417.554 199.197 397.950 363.180 93.913 490.051 109.542 399.839 340.054 295.014 599.728 257.760 383.149 236.223 369.102 317.057 417.116 401.644 474.684 317.043 265.252 295.049 112.720 269.866 266.197 365.342 243.833 438.445 340.548 437.225 415.139 119.461 433.474 263.074 335.526 37.465 276.318 601.028 224.883
255.477 564.640 446.354 0.000 73.983 155.155 79.568 245.811 365.102 428.874 639.819 795.934 451.736 212.765 87.570 126.345 145.793 2026.191 252.352 526.467 282.886 96.531 264.706 593.215 401.242 454.929 1986.537 113.515 437.006 171.110 229.108 482.348 285.797 68.203 130.673 463.028 598.711 506.495 138.117 196.033 113.385 79.101 546.197 1408.919 2057.130 25.815 115.377 459.488 61.641 2042.842 70.152 469.965 480.020 255.960 465.050 96.051 490.673 403.109 108.953 109.774 264.716 92.604 109.159 101.567 459.817 104.799 190.140 283.792 2057.247 288.419 99.926 425.006 124.868 407.690 71.436 175.353 963.469 128.188 477.229 118.960 149.208 736.633 289.082 485.221 257.710 134.525 164.289 566.698 68.166 284.464 80.401 293.888 727.286 617.395 178.802 136.090 90.750 196.673 392.313 205.356 86.516 404.583 50.140 126.624 456.020 625.497 459.462 98.725 203.873 188.350 735.174 260.414 58.331 297.642 145.292 534.952 287.119 53.834 610.130 149.434 400.698 430.494 462.640 279.393 471.582 102.862 537.473 182.360 128.687 89.415 620.762 464.080 66.414 468.459 121.502 426.810 481.703 736.474 518.522
244.093 553.257 434.971 78.365 0.000 143.772 68.185 234.428 353.719 417.491 628.436 784.551 440.353 201.381 76.187 114.962 134.410 2014.808 240.968 515.084 271.503 85.148 253.323 581.831 389.859 443.546 1975.154 102.132 425.623 132.256 217.725 470.965 274.414 5.780 119.290 451.645 587.328 495.112 126.734 184.650 102.002 67.718 534.814 1397.536 2045.747 60.422 103.994 448.105 50.257 2031.459 58.769 458.582 468.637 244.577 453.667 84.667 479.290 391.726 85.619 98.391 253.333 81.221 97.775 90.184 448.434 93.416 178.757 272.409 2045.864 277.036 88.542 413.623 113.485 396.307 32.581 163.970 952.086 116.805 465.846 80.105 137.825 725.250 277.699 473.838 246.327 107.188 152.906 555.315 56.783 273.081 69.018 255.033 715.903 606.011 163.034 97.235 79.367 185.290 380.930 193.973 75.133 393.200 35.822 115.240 444.637 614.114 448.079 87.342 192.490 176.966 723.791 249.031 46.948 286.259 133.909 523.569 275.735 49.393 598.747 138.051 389.315 419.111 451.257 268.010 460.199 91.479 526.089 143.506 117.304 50.560 609.379 452.697 81.222 457.076 110.119 415.427 470.320 725.091 507.139
140.839 443.205 346.278 150.782 141.959 0.000 139.051 121.759 243.666 328.797 518.383 674.498 330.300 98.127 93.956 173.250 17.127 1904.755 138.030 405.031 168.248 138.689 156.257 493.138 301.166 354.852 1865.101 82.406 315.570 239.085 107.673 360.912 161.745 136.179 116.963 362.952 498.634 385.059 135.142 154.843 167.138 138.583 446.121 1287.483 1935.694 132.839 125.138 338.052 121.123 1921.407 129.634 348.530 379.943 155.884 343.614 97.128 369.237 281.673 168.436 96.669 140.663 152.086 151.316 161.050 338.381 164.282 159.639 159.740 1935.812 188.343 156.327 324.929 184.351 286.255 139.411 154.514 842.034 114.478 355.793 186.935 67.803 615.197 165.030 385.145 136.275 194.007 40.236 466.622 127.649 160.412 109.087 361.863 605.850 495.959 232.803 204.065 150.233 200.159 270.877 81.304 145.999 304.506 118.115 112.913 355.943 504.061 358.348 140.883 79.821 64.297 613.738 136.361 117.814 183.004 114.183 434.876 290.605 121.810 488.694 57.398 279.262 309.058 361.526 155.341 371.506 151.329 416.037 250.336 68.841 157.390 520.685 364.004 153.639 368.382 132.210 326.733 381.627 615.038 397.087
230.855 525.620 407.334 68.835 60.012 130.533 0.000 221.190 326.082 389.854 600.799 756.914 412.716 188.143 62.949 87.325 121.171 1987.171 213.331 487.447 258.264 36.669 225.686 554.194 362.222 415.909 1947.517 88.893 397.986 152.525 190.088 443.328 261.175 54.231 97.872 424.008 559.690 467.475 73.402 171.412 48.069 40.080 507.177 1369.899 2018.110 50.892 55.515 420.468 28.840 2003.822 25.359 430.945 440.999 216.940 426.030 71.429 451.653 364.088 69.933 85.153 240.094 53.584 76.358 35.895 420.797 65.779 151.119 256.981 2018.227 249.399 27.290 385.985 85.848 368.670 57.464 136.333 924.449 95.387 438.209 104.988 124.586 697.613 264.460 446.201 218.690 95.505 139.667 527.678 23.373 259.842 50.772 279.916 688.266 578.374 139.782 122.118 51.730 157.653 353.293 180.734 41.723 365.563 36.168 93.823 417.000 586.477 420.442 65.925 179.252 163.728 696.154 235.792 19.311 273.020 120.670 495.932 248.098 39.863 571.110 124.812 361.678 391.474 423.620 250.757 432.562 30.226 498.452 160.436 104.065 75.443 581.742 425.060 71.692 429.439 56.787 387.790 442.683 697.454 479.502
212.412 375.190 280.885 241.225 232.401 120.150 229.494 0.000 175.651 352.814 450.368 606.483 262.285 183.911 184.398 199.391 131.888 1836.740 125.199 337.016 191.044 224.600 143.427 517.155 325.183 288.369 1797.086 167.814 247.555 292.702 131.689 292.897 89.776 226.621 202.371 386.969 471.045 317.044 196.766 214.394 255.077 229.026 470.138 1219.469 1867.679 223.282 210.546 270.037 211.566 1853.392 220.077 280.515 403.960 179.901 275.599 182.536 301.222 213.658 258.878 182.077 68.695 242.529 239.255 232.669 270.366 254.724 184.539 87.772 1867.797 212.360 237.385 348.946 274.794 218.240 229.854 188.071 774.019 199.885 287.778 277.378 127.354 547.182 93.061 326.965 98.176 284.450 124.370 490.638 218.091 88.444 199.530 452.306 537.835 427.944 258.945 294.508 240.676 233.716 202.862 49.854 236.442 328.523 208.558 198.321 292.473 436.046 290.333 228.822 131.735 86.341 545.723 64.393 208.256 150.969 199.591 458.892 324.162 212.252 420.679 116.950 211.247 241.043 293.511 83.373 395.523 232.387 348.022 300.613 140.454 247.833 544.702 318.021 244.082 392.399 202.572 295.380 405.644 547.023 329.072
146.024 311.464 209.786 324.680 315.857 209.179 281.461 140.705 0.000 349.819 397.294 553.409 209.211 142.987 267.854 232.173 220.918 1783.666 157.981 265.918 111.458 257.382 176.209 488.183 334.562 217.271 1744.011 230.426 176.457 325.484 164.471 221.799 87.565 310.077 267.058 396.348 399.947 245.946 229.548 294.902 290.947 286.001 475.488 1166.394 1814.605 306.737 250.198 216.963 287.628 1800.317 296.139 209.416 413.339 212.682 222.524 253.381 230.124 160.583 307.327 252.921 100.204 299.504 310.100 265.450 217.292 311.699 217.321 100.125 1814.722 245.142 270.167 358.325 331.769 165.165 313.309 220.853 720.944 264.572 216.680 345.541 214.451 494.108 97.107 255.867 130.958 341.425 208.351 495.989 294.153 92.489 282.985 488.087 484.761 374.869 291.726 362.672 297.651 266.498 149.788 148.661 312.503 337.903 292.013 263.008 221.375 382.972 219.235 299.667 171.257 182.018 492.649 90.866 278.099 67.425 268.929 426.750 356.944 295.708 367.605 204.047 158.173 187.969 222.413 102.972 404.902 265.169 276.924 333.395 227.552 331.288 524.832 246.923 327.537 401.779 235.354 224.282 415.023 493.949 257.973
431.781 421.014 215.013 433.750 424.927 325.309 389.644 347.651 360.130 0.000 647.396 803.511 440.034 389.069 376.924 340.357 337.047 2033.768 248.617 375.468 423.278 360.687 260.971 231.487 41.607 182.507 1994.114 333.732 240.883 433.667 249.670 331.349 353.495 419.147 370.363 101.300 289.786 393.734 332.854 399.497 394.252 394.184 184.469 1303.998 2064.707 415.807 353.504 447.786 395.811 2050.419 404.322 379.762 118.292 267.324 453.348 356.686 377.912 410.685 415.510 356.227 344.257 407.688 413.405 373.634 448.115 419.883 285.955 340.057 2064.824 167.355 373.473 65.371 439.952 415.267 422.379 284.158 858.548 367.878 387.026 453.725 330.581 744.210 358.154 212.799 303.269 449.609 329.528 204.970 402.337 351.982 392.055 596.270 734.863 624.971 399.910 470.855 405.834 329.804 399.890 315.154 420.687 49.692 401.083 366.314 183.598 633.074 187.040 402.972 369.113 298.148 742.751 339.955 386.283 379.245 372.235 173.224 420.250 404.778 617.707 320.176 408.275 438.071 190.218 333.833 109.854 368.475 386.474 441.578 343.681 440.358 259.034 191.658 436.607 106.731 338.659 195.468 119.976 744.051 367.524
466.850 376.229 515.577 630.557 621.734 512.114 584.395 443.640 369.136 655.610 0.000 254.833 329.650 463.813 576.362 535.108 523.852 1485.090 460.916 442.272 432.284 560.316 479.143 793.973 640.353 523.061 1445.435 533.360 482.248 628.418 467.406 443.197 390.500 615.954 569.992 702.139 576.582 425.282 532.482 597.836 593.881 588.935 781.279 1220.508 1516.029 612.615 553.133 337.402 590.562 1501.741 599.073 388.753 719.130 515.617 342.963 556.315 409.460 290.035 610.261 555.856 403.139 602.438 613.034 568.385 337.731 614.634 520.256 403.059 1516.146 548.076 573.102 664.116 634.703 294.617 619.186 523.787 775.058 567.507 396.016 648.476 517.386 195.532 400.041 561.658 433.893 644.359 516.333 801.780 597.088 395.423 591.493 791.021 186.185 154.615 594.661 665.606 600.585 569.433 319.401 451.596 615.438 643.693 597.890 565.942 527.166 130.632 525.025 602.601 492.082 484.953 194.073 393.800 581.033 388.251 571.864 732.541 659.879 601.585 133.747 506.982 283.371 317.421 528.204 405.907 710.693 568.104 453.278 636.329 530.486 637.165 830.623 552.714 633.414 707.569 538.288 530.073 720.814 195.373 434.327
622.552 531.932 671.280 786.260 777.436 667.816 740.098 599.342 524.838 811.312 248.414 0.000 485.352 619.515 732.064 690.810 679.554 1403.678 616.618 597.974 587.986 716.018 634.846 949.676 796.055 678.764 1364.023 689.063 637.950 784.121 623.108 598.900 546.202 771.656 725.694 857.841 732.284 580.984 688.185 753.539 749.584 744.638 936.981 1376.211 1434.617 768.317 708.835 493.104 746.264 1420.329 754.776 544.455 874.833 671.319 498.666 712.017 565.162 445.737 765.963 711.558 558.841 758.141 768.736 724.087 493.433 770.336 675.958 558.761 1434.734 703.778 728.804 819.819 790.405 450.319 774.889 679.490 930.761 723.209 551.719 804.178 673.088 87.589 555.743 717.360 589.595 800.062 672.036 957.482 752.790 551.126 747.196 946.723 95.729 384.682 750.363 821.308 756.287 725.135 475.104 607.298 771.140 799.396 753.593 721.645 682.868 360.698 680.728 758.303 647.785 640.655 95.902 549.503 736.736 543.954 727.566 888.243 815.581 757.287 363.813 662.684 439.073 473.123 683.906 561.609 866.395 723.806 608.980 792.032 686.189 792.868 986.325 708.416 789.117 863.272 693.990 685.775 876.516 102.494 590.030
290.435 178.909 304.694 454.142 445.319 335.699 407.980 267.225 192.721 444.727 320.797 476.912 0.000 287.398 399.947 358.693 347.437 1707.169 284.501 244.952 255.869 383.901 302.729 583.091 429.470 312.178 1667.515 356.945 271.365 452.003 290.991 232.314 214.085 439.539 393.577 491.256 379.261 214.399 356.067 421.421 417.466 412.520 570.396 1023.188 1738.108 436.200 376.718 19.157 414.147 1723.820 422.658 177.870 508.247 339.202 24.719 379.900 198.577 86.492 433.846 379.441 226.724 426.024 436.619 391.970 19.486 438.219 343.841 226.644 1738.225 371.661 396.687 453.233 458.288 87.406 442.771 347.372 577.738 391.092 185.133 472.061 340.971 417.611 223.626 350.775 257.478 467.945 339.918 590.897 420.673 219.008 415.078 614.606 408.264 326.526 418.246 489.191 424.170 393.018 108.518 275.181 439.023 432.810 421.475 389.527 316.283 334.629 314.143 426.186 315.667 308.538 416.152 217.385 404.619 211.836 395.449 521.658 483.464 425.170 319.262 330.567 109.830 104.015 317.321 229.492 499.810 391.689 255.957 459.914 354.071 460.751 619.740 341.831 457.000 496.687 361.873 319.190 509.931 417.452 237.007
94.387 429.990 328.313 208.292 199.468 97.023 196.561 187.453 208.755 394.718 515.820 671.935 327.737 0.000 151.465 230.760 108.761 1902.192 203.950 384.444 121.796 196.198 222.178 559.058 367.086 335.797 1862.538 139.916 294.983 296.595 173.593 340.325 171.796 193.688 174.472 428.872 518.473 364.472 192.652 222.434 224.648 196.093 512.041 1284.920 1933.131 190.349 182.647 335.489 178.633 1918.843 187.144 327.943 445.863 221.804 341.051 154.638 348.650 279.109 225.945 154.178 194.651 209.596 208.826 218.560 335.818 221.791 225.559 194.571 1933.248 254.263 213.836 390.849 241.861 283.691 196.921 212.023 839.470 171.987 335.206 244.445 144.804 612.634 191.553 374.393 202.195 251.517 91.962 532.542 185.158 186.935 166.597 419.373 603.287 493.395 290.313 261.575 207.743 257.669 268.314 146.997 203.509 370.426 175.625 170.422 339.901 501.498 337.761 198.393 56.075 130.217 611.175 185.312 175.323 136.553 171.692 500.796 348.115 179.319 486.131 145.029 276.699 306.495 340.939 197.419 437.426 208.839 395.450 307.845 142.590 214.900 586.606 365.449 211.149 434.303 189.719 342.808 447.547 612.475 376.500
198.105 509.886 399.253 82.989 74.166 97.784 68.425 188.440 310.348 381.773 585.064 741.180 396.982 155.394 0.000 118.035 88.422 1971.437 204.711 471.712 225.515 52.645 217.605 546.113 354.141 407.828 1931.782 56.144 382.251 171.293 174.354 427.593 228.426 68.386 81.312 415.927 551.610 451.740 94.231 138.662 81.094 70.790 499.096 1354.165 2002.376 65.046 71.491 404.733 50.497 1988.088 59.009 415.211 432.919 208.859 410.295 33.312 435.918 348.354 100.643 47.036 207.345 84.294 65.272 93.257 405.063 96.489 143.039 226.421 2002.493 241.318 70.283 377.905 116.558 352.936 71.618 128.252 908.715 78.827 422.474 119.142 91.837 681.879 231.711 438.120 202.956 126.215 106.918 519.597 57.023 227.093 33.297 294.070 672.532 562.640 170.492 136.272 82.440 173.897 337.559 147.985 75.373 357.482 50.322 77.262 408.919 570.743 412.361 54.839 146.502 130.978 680.420 203.043 50.021 240.271 87.921 487.851 264.343 54.017 555.375 92.063 345.944 375.740 415.539 222.022 424.481 65.285 482.718 182.543 71.316 89.597 573.661 416.979 85.846 421.358 77.615 379.709 434.602 681.720 463.768
281.330 486.653 368.367 123.159 114.336 181.009 76.997 225.608 287.115 350.887 561.832 717.947 373.749 238.618 117.273 0.000 171.647 1948.204 174.365 448.480 308.739 86.254 186.719 515.228 323.255 376.942 1908.550 110.432 359.019 134.713 151.121 404.361 231.452 108.556 127.988 385.041 520.724 428.508 62.189 176.198 115.444 81.537 468.210 1330.932 1979.143 105.216 79.071 381.501 83.164 1964.855 91.675 391.978 402.033 177.973 387.063 118.040 412.686 325.122 102.863 117.580 222.215 95.040 130.682 60.987 381.830 107.235 112.153 218.014 1979.260 210.432 94.664 347.019 127.305 329.703 111.788 97.366 885.482 125.503 399.242 154.771 163.111 658.646 236.111 407.234 179.724 136.961 190.142 488.711 89.689 229.940 105.096 297.316 649.299 539.408 100.956 171.901 93.187 118.686 314.326 189.567 108.040 326.596 90.492 123.938 378.033 547.510 381.475 120.249 229.727 172.561 657.187 217.912 73.635 292.645 148.936 456.965 209.132 94.187 532.143 150.527 322.711 352.507 384.653 211.790 393.595 94.041 459.486 142.624 140.991 129.767 542.775 386.093 126.016 390.472 61.283 348.823 403.716 658.487 440.535
152.577 454.943 358.016 139.402 130.579 17.127 127.671 133.497 255.404 340.535 530.121 686.236 342.038 109.865 82.576 161.871 0.000 1916.493 149.768 416.769 179.986 127.309 167.995 504.876 312.904 366.590 1876.839 71.026 327.308 227.706 119.411 372.650 173.483 124.799 105.583 374.690 510.372 396.797 123.762 143.463 155.759 127.204 457.859 1299.222 1947.432 121.460 113.758 349.790 109.744 1933.145 118.255 360.268 391.681 167.622 355.352 85.749 380.975 293.411 157.056 85.289 152.401 140.707 139.937 149.671 350.119 152.902 157.921 171.478 1947.550 200.081 144.947 336.667 172.972 297.993 128.032 143.134 853.772 103.098 367.531 175.556 56.423 626.935 176.768 396.883 148.013 182.628 51.974 478.360 116.269 172.150 97.708 350.484 617.588 507.697 221.424 192.686 138.853 188.780 282.615 93.042 134.620 316.244 106.736 101.533 367.681 515.799 370.086 129.504 91.559 76.035 625.476 148.099 106.434 194.742 102.803 446.614 279.226 110.430 500.432 46.019 291.000 320.796 373.264 167.079 383.244 139.949 427.775 238.956 57.462 146.011 532.423 375.742 142.260 380.120 120.830 338.471 393.365 626.776 408.825
1854.143 1763.522 1902.870 2017.850 2009.027 1899.407 1971.688 1830.933 1756.429 2042.903 1480.004 1387.920 1716.943 1851.106 1963.655 1922.401 1911.145 0.000 1848.209 1829.565 1819.577 1947.609 1866.436 2181.266 2027.646 1910.354 47.493 1920.653 1869.540 2015.711 1854.699 1830.490 1777.793 2003.247 1957.285 2089.432 1963.875 1812.575 1919.775 1985.129 1981.174 1976.228 2168.572 2607.801 36.699 1999.908 1940.426 1724.695 1977.855 22.412 1986.366 1776.045 2106.423 1902.910 1730.256 1943.608 1796.753 1677.328 1997.554 1943.149 1790.432 1989.731 2000.327 1955.678 1725.024 2001.926 1907.549 1790.352 36.817 1935.369 1960.394 2051.409 2021.996 1681.910 2006.479 1911.080 2162.351 1954.800 1783.309 2035.769 1904.679 1363.557 1787.334 1948.951 1821.186 2031.652 1903.626 2189.073 1984.381 1782.716 1978.786 2178.314 1346.654 1616.272 1981.954 2052.899 1987.878 1956.726 1706.694 1838.889 2002.731 2030.986 1985.183 1953.235 1914.459 1592.289 1912.318 1989.894 1879.375 1872.246 1344.283 1781.093 1968.326 1775.544 1959.157 2119.833 2047.171 1988.878 1595.404 1894.275 1670.664 1704.714 1915.496 1793.200 2097.986 1955.397 1840.571 2023.622 1917.779 2024.458 2217.916 1940.007 2020.707 2094.862 1925.581 1917.366 2108.107 1350.876 1821.620
242.629 387.884 280.561 253.750 244.927 136.157 207.588 126.839 188.346 263.080 463.062 619.178 274.980 199.917 199.745 158.301 147.895 1849.435 0.000 349.144 236.443 183.509 24.635 427.421 235.449 289.135 1809.780 156.553 259.683 251.611 49.797 305.025 132.683 239.147 193.185 297.235 432.917 329.172 155.675 221.029 217.074 212.128 380.404 1232.163 1880.374 235.808 176.326 282.731 213.755 1866.086 222.266 292.642 314.226 90.167 288.293 179.508 313.350 226.352 233.454 179.049 123.445 225.632 236.227 191.578 283.061 237.827 108.798 119.244 1880.491 122.626 196.295 259.212 257.896 230.934 242.379 107.001 786.713 190.700 299.906 271.669 141.429 559.877 137.342 319.428 82.457 267.552 140.376 400.905 220.281 131.170 214.877 414.214 550.530 440.638 217.854 288.799 223.778 152.646 215.557 126.002 238.631 238.789 221.083 189.135 290.226 448.741 293.668 225.794 179.961 108.995 558.418 119.143 204.227 193.875 195.057 369.159 243.092 224.778 433.374 131.024 223.942 253.738 296.847 113.021 305.789 191.297 360.149 259.522 154.529 260.358 454.968 298.287 256.607 302.665 161.481 261.016 315.910 559.718 341.199
365.627 126.155 234.276 528.222 519.399 419.781 484.117 358.405 267.913 374.308 427.358 583.473 279.962 362.590 471.396 434.829 431.519 1813.730 343.090 0.000 331.061 455.160 355.444 512.672 359.052 241.760 1774.076 428.204 200.946 528.140 344.142 149.895 305.265 513.619 464.836 420.838 187.558 212.280 427.326 493.970 488.725 488.657 499.978 1009.139 1844.669 510.280 447.977 272.318 490.284 1830.382 498.795 198.307 437.829 361.797 290.146 451.159 196.458 300.165 509.983 450.700 317.904 502.160 507.878 468.107 277.157 514.355 380.428 317.824 1844.787 322.574 467.945 382.815 534.425 304.747 516.852 378.631 563.689 462.351 205.571 548.198 425.053 524.172 314.806 280.357 348.658 544.081 424.001 520.479 496.809 310.188 486.528 690.743 514.825 459.037 494.383 565.328 500.307 424.276 307.673 366.361 515.160 362.392 495.556 460.786 245.865 464.692 243.724 497.445 390.859 392.620 522.713 308.565 480.755 287.028 466.708 451.239 514.722 499.250 449.325 414.649 293.501 327.551 246.902 320.672 429.392 462.948 11.006 536.051 438.153 534.831 549.322 271.413 531.080 426.268 433.132 248.772 439.513 524.013 45.304
99.318 377.000 275.323 277.974 269.151 166.706 266.243 185.958 155.766 415.355 462.830 618.945 274.747 96.281 221.148 297.710 178.444 1849.202 223.518 331.454 0.000 265.881 241.745 553.719 400.098 282.807 1809.548 209.598 241.993 366.278 230.008 287.335 118.807 263.371 244.155 461.884 465.484 311.482 262.334 292.117 294.331 265.776 541.025 1231.930 1880.141 260.032 252.330 282.499 248.315 1865.854 256.827 274.953 478.876 278.219 288.061 224.320 295.660 226.120 295.628 223.861 141.661 279.279 278.509 288.242 282.828 291.474 282.857 141.581 1880.259 310.678 283.519 423.862 311.543 230.702 266.603 281.706 786.481 241.670 282.216 314.127 214.486 559.644 138.563 321.403 196.495 321.200 161.645 561.525 254.841 133.946 236.279 489.055 550.297 440.406 357.263 331.258 277.425 327.351 215.324 188.432 273.191 403.439 245.307 240.105 286.911 448.508 284.771 268.075 124.551 199.900 558.185 132.323 245.006 80.571 241.375 492.286 417.797 249.002 433.141 214.712 223.709 253.505 287.949 144.429 470.438 278.521 342.460 377.528 212.273 284.582 590.369 312.460 280.831 467.315 259.402 289.818 480.560 559.485 323.510
232.569 506.347 378.071 105.503 96.680 132.248 36.669 222.904 306.809 360.590 581.526 737.641 393.443 189.857 63.981 88.276 122.886 1967.898 184.068 468.174 259.979 0.000 196.423 524.931 332.959 386.645 1928.244 73.037 374.321 166.048 170.815 424.055 251.146 90.900 73.257 394.745 530.427 448.202 41.586 138.803 38.418 76.749 477.914 1350.626 1998.837 87.561 18.846 401.195 65.508 1984.549 62.027 411.672 411.736 187.677 406.757 67.776 432.380 344.816 98.466 73.875 241.809 90.252 81.913 41.681 401.524 102.447 121.856 237.708 1998.954 220.136 17.638 356.722 122.517 349.397 94.132 107.070 905.176 70.772 418.936 141.657 125.113 678.340 255.805 416.938 199.417 132.173 141.382 498.415 60.042 249.633 87.440 316.584 668.993 559.101 140.873 158.787 88.399 152.715 334.020 182.449 78.392 336.299 72.836 69.207 387.737 567.204 391.179 71.480 180.966 165.442 676.881 237.507 55.980 274.735 110.938 466.669 243.161 76.531 551.837 125.339 342.405 372.201 394.357 231.484 403.299 12.640 479.179 173.959 102.992 112.112 552.478 395.797 108.361 400.176 24.971 358.527 413.420 678.181 460.229
260.857 406.112 292.915 268.947 260.124 154.384 224.841 145.066 206.573 275.435 481.290 637.405 293.208 218.145 212.120 175.554 166.122 1867.662 24.635 364.700 254.670 195.884 0.000 439.775 247.803 301.490 1828.008 168.928 275.239 268.864 68.025 320.581 150.911 254.343 205.560 309.589 445.271 344.728 168.050 234.694 229.449 229.381 392.758 1250.391 1898.601 251.004 188.701 300.959 231.008 1884.314 239.519 308.199 326.580 102.521 306.521 191.883 328.907 244.580 250.707 191.424 141.673 242.884 248.602 208.831 301.289 255.079 121.152 137.472 1898.719 134.980 208.670 271.566 275.149 249.162 257.576 119.355 804.941 203.075 315.463 288.922 159.656 578.104 155.569 331.782 100.685 284.805 158.604 413.259 237.534 149.398 227.252 431.467 568.758 458.866 235.107 306.052 241.031 165.001 233.784 144.230 255.884 251.143 236.280 201.510 302.581 466.968 306.023 238.169 198.189 127.223 576.645 137.371 221.479 212.103 207.432 381.513 255.446 239.975 451.601 149.252 242.169 271.966 309.201 131.249 318.143 203.672 375.706 276.775 172.757 275.555 467.323 310.641 271.804 315.020 173.856 273.371 328.264 577.946 356.756
588.492 551.662 376.432 599.197 590.374 490.756 555.092 513.098 490.778 226.871 778.044 934.159 570.682 554.516 542.371 505.804 502.494 2164.416 414.064 506.116 553.926 526.135 426.419 0.000 205.306 347.954 2124.762 499.179 402.303 599.115 415.117 461.997 518.942 584.594 535.811 151.208 429.315 524.382 498.301 564.944 559.700 559.632 62.860 1434.646 2195.355 581.255 518.951 578.434 561.258 2181.067 569.769 510.410 144.196 432.771 583.996 522.134 508.560 541.333 580.957 521.674 509.705 573.135 578.853 539.081 578.763 585.330 451.402 505.504 2195.472 332.803 538.920 229.070 605.399 545.915 587.826 449.605 989.196 533.325 517.674 619.172 496.028 874.858 523.601 343.930 468.717 615.056 494.975 45.612 567.784 517.429 557.502 761.717 865.511 755.619 565.357 636.302 571.281 495.251 530.538 480.601 586.134 213.391 566.530 531.761 314.246 763.722 345.759 568.420 534.560 463.595 873.399 505.402 551.730 509.893 537.682 66.654 585.697 570.225 748.355 485.624 538.923 568.719 348.937 499.280 124.560 533.922 517.122 607.026 509.128 605.805 112.204 322.306 602.054 163.434 504.107 354.130 130.429 874.699 498.172
412.174 401.407 195.405 414.143 405.320 305.702 370.037 328.044 340.523 43.356 627.789 783.904 420.427 369.462 357.316 320.750 317.440 2014.161 229.010 355.861 403.671 341.080 241.364 207.697 0.000 162.900 1974.506 314.125 221.276 414.060 230.063 311.742 333.888 399.540 350.756 77.511 306.682 374.127 313.246 379.890 374.645 374.577 160.679 1284.391 2045.100 396.200 333.897 428.179 376.204 2030.812 384.715 360.155 94.502 247.717 433.741 337.079 358.305 391.078 395.903 336.620 324.650 388.081 393.798 354.027 428.508 400.276 266.348 320.449 2045.217 147.748 353.866 34.105 420.345 395.660 402.772 264.551 838.941 348.271 367.418 434.118 310.974 724.603 338.547 193.192 283.662 430.001 309.921 181.180 382.730 332.375 372.448 576.663 715.256 605.364 380.303 451.248 386.227 310.197 380.283 295.547 401.080 8.085 381.476 346.706 163.991 613.467 167.433 383.365 349.506 278.541 723.144 320.348 366.676 359.638 352.628 149.434 400.643 385.171 598.100 300.569 388.668 418.464 170.611 314.226 86.065 348.868 366.867 421.971 324.074 420.751 235.244 172.051 417.000 82.941 319.052 175.861 96.186 724.444 347.917
327.572 290.742 73.092 407.979 399.155 299.537 363.873 320.350 229.858 191.789 517.124 673.239 309.763 324.535 351.152 314.585 311.275 1903.496 222.846 245.196 293.006 334.916 235.200 344.248 164.158 0.000 1863.842 307.960 98.963 407.896 223.899 201.077 267.210 393.375 344.592 225.944 242.095 263.463 307.082 373.726 368.481 368.413 309.113 1173.726 1934.435 390.036 327.733 317.514 370.040 1920.148 378.551 249.490 242.935 241.553 323.076 330.915 247.641 280.414 389.739 330.456 279.849 381.916 387.634 347.863 317.844 394.111 260.184 279.769 1934.553 141.584 347.701 187.921 414.181 284.996 396.608 258.387 728.276 342.107 256.754 427.954 304.809 613.938 276.751 98.015 277.498 423.837 303.757 329.613 376.565 272.134 366.284 570.499 604.591 494.700 374.139 445.084 380.063 304.032 269.618 289.383 394.916 167.498 375.312 340.542 63.522 502.802 75.300 377.201 343.341 272.376 612.479 270.511 360.511 248.974 346.464 282.815 394.478 379.006 487.435 294.405 278.003 307.799 78.478 282.617 234.498 342.704 256.202 415.807 317.909 414.587 380.898 89.071 410.836 231.374 312.888 53.548 244.619 613.779 237.252
1847.743 1757.123 1896.470 2011.450 2002.627 1893.007 1965.288 1824.533 1750.029 2036.503 1473.605 1381.520 1710.543 1844.706 1957.255 1916.001 1904.745 61.881 1841.809 1823.165 1813.177 1941.209 1860.037 2174.867 2021.246 1903.954 0.000 1914.254 1863.141 2009.311 1848.299 1824.090 1771.393 1996.847 1950.885 2083.032 1957.475 1806.175 1913.375 1978.729 1974.774 1969.829 2162.172 2601.401 92.821 1993.508 1934.026 1718.295 1971.455 78.533 1979.966 1769.646 2100.023 1896.510 1723.857 1937.208 1790.353 1670.928 1991.154 1936.749 1784.032 1983.332 1993.927 1949.278 1718.624 1995.527 1901.149 1783.952 92.938 1928.969 1953.995 2045.009 2015.596 1675.510 2000.080 1904.680 2155.952 1948.400 1776.909 2029.369 1898.279 1357.157 1780.934 1942.551 1814.786 2025.253 1897.226 2182.673 1977.981 1776.316 1972.386 2171.914 1340.254 1609.873 1975.554 2046.499 1981.478 1950.326 1700.294 1832.489 1996.331 2024.586 1978.784 1946.835 1908.059 1585.889 1905.919 1983.494 1872.975 1865.846 1337.883 1774.693 1961.927 1769.144 1952.757 2113.434 2040.772 1982.478 1589.004 1887.875 1664.264 1698.314 1909.097 1786.800 2091.586 1948.997 1834.171 2017.223 1911.379 2018.059 2211.516 1933.607 2014.308 2088.463 1919.181 1910.966 2101.707 1344.476 1815.221
197.418 498.393 370.561 122.567 113.744 97.096 88.292 178.153 298.855 353.081 573.572 729.687 385.489 154.706 56.716 107.236 87.734 1959.944 176.559 460.220 224.827 67.815 188.913 517.422 325.449 379.136 1920.290 0.000 366.811 207.726 162.861 416.101 218.139 107.963 38.368 387.235 522.918 440.248 60.998 114.706 100.961 107.504 470.404 1342.672 1990.883 104.624 50.994 393.241 70.364 1976.595 78.875 403.718 404.227 180.167 398.803 28.420 424.426 336.862 137.356 27.961 197.058 121.007 85.139 109.496 393.570 133.202 114.347 216.134 1991.000 212.626 85.453 349.213 153.271 341.443 111.196 99.560 897.222 35.883 410.982 158.720 79.199 670.386 221.424 409.428 191.463 162.928 106.230 490.905 76.890 216.806 80.872 333.648 661.039 551.147 173.969 175.850 119.153 145.205 326.066 137.698 95.240 328.790 89.900 34.318 380.227 559.250 383.669 74.706 145.815 120.691 668.927 192.755 86.734 239.583 65.024 459.159 235.651 93.595 543.883 79.425 334.451 364.247 386.847 211.735 395.789 80.455 471.225 215.637 57.078 129.175 544.969 388.287 125.424 392.666 58.066 351.017 405.911 670.227 452.275
303.990 267.541 45.318 445.549 436.726 337.108 401.444 296.768 206.276 213.248 493.542 649.657 286.180 300.953 388.723 352.156 348.846 1879.914 260.417 221.996 269.424 372.487 272.771 351.612 197.991 80.700 1840.260 345.531 0.000 445.467 261.469 177.877 243.628 430.946 382.163 259.777 263.376 240.262 344.653 411.296 406.052 405.984 338.917 1150.525 1910.853 427.607 365.304 293.932 407.611 1896.565 416.122 226.289 276.769 279.124 299.494 368.486 224.440 256.831 427.310 368.026 256.267 419.487 425.205 385.433 294.261 431.682 297.755 256.187 1910.970 179.155 385.272 221.755 451.752 261.413 434.178 295.958 705.075 379.678 233.553 465.524 342.380 590.356 253.169 119.296 287.021 461.408 341.327 359.418 414.136 248.551 403.854 608.070 581.009 471.117 411.709 482.655 417.633 341.603 246.036 304.724 432.486 201.332 412.882 378.113 84.804 479.220 82.664 414.772 329.222 309.947 588.897 246.928 398.082 225.391 384.035 290.179 432.049 416.577 463.853 331.976 254.421 284.217 85.842 259.035 268.331 380.274 233.001 453.378 355.480 452.158 388.261 110.352 448.407 265.208 350.459 59.813 278.452 590.197 214.051
343.070 557.661 439.375 177.341 135.922 242.749 145.374 296.616 358.123 421.895 632.840 788.955 444.757 300.358 175.164 131.838 233.387 2019.212 245.372 519.488 370.479 176.051 257.727 586.235 394.263 447.950 1979.558 195.784 430.027 0.000 222.129 475.369 302.460 130.142 218.267 456.049 591.731 499.516 160.394 261.549 191.396 149.915 539.218 1401.940 2050.151 159.399 168.868 452.509 149.234 2035.863 157.745 462.986 473.040 248.981 458.071 183.644 483.694 396.129 124.179 197.368 293.222 143.130 196.752 129.364 452.838 145.983 183.160 289.022 2050.268 281.440 170.617 418.026 194.099 400.711 120.108 168.374 956.490 215.782 470.250 134.945 236.802 729.654 307.119 478.242 250.731 203.755 251.882 559.719 155.760 300.947 167.995 255.404 720.307 610.415 142.985 152.075 144.983 189.694 385.334 260.575 174.110 397.603 134.799 214.217 449.041 618.518 452.483 186.319 291.467 243.569 728.195 288.920 142.013 363.652 232.886 527.973 280.139 148.369 603.151 221.535 393.719 423.515 455.661 282.798 464.603 173.292 530.493 55.422 216.281 127.784 613.783 457.101 180.199 461.480 151.080 419.831 474.724 729.495 511.543
223.042 393.646 273.364 234.164 225.341 116.570 188.002 132.600 194.107 255.883 468.824 624.939 280.741 180.330 180.159 138.714 128.308 1855.196 51.733 355.472 242.204 163.923 69.961 420.224 228.252 281.938 1815.542 136.967 266.011 232.025 0.000 311.353 138.445 219.560 173.599 290.038 425.720 335.500 136.089 201.443 197.488 192.542 373.207 1237.924 1886.135 216.221 156.739 288.493 194.169 1871.848 202.680 298.970 307.029 82.970 294.055 159.922 319.678 232.114 213.868 159.462 129.207 206.045 216.641 171.991 288.822 218.240 102.592 125.006 1886.253 115.429 176.708 252.015 238.310 236.696 222.793 100.795 792.475 171.113 306.234 252.082 121.842 565.638 143.103 312.231 86.716 247.966 120.789 393.708 200.694 136.932 195.290 394.628 556.291 446.400 198.267 269.213 204.192 146.440 221.318 106.415 219.045 231.592 201.497 169.549 283.029 454.502 286.471 206.208 160.374 89.409 564.179 124.905 184.640 199.637 175.470 361.962 236.886 205.192 439.135 111.438 229.703 259.499 289.650 118.782 298.592 171.710 366.478 239.936 134.942 240.772 447.771 291.090 237.021 295.468 141.895 253.819 308.713 565.479 347.527
310.867 190.129 179.516 473.462 464.639 365.021 429.357 303.645 213.153 319.548 443.573 599.688 224.269 307.830 416.636 380.069 376.759 1829.945 288.329 144.583 276.301 400.400 300.684 457.912 304.291 187.000 1790.291 373.444 146.186 473.380 289.382 0.000 250.505 458.859 410.076 366.077 278.893 90.475 372.566 439.209 433.965 433.897 445.217 1073.113 1860.884 455.520 393.216 232.020 435.523 1846.597 444.034 93.621 383.069 307.036 237.582 396.399 74.653 206.830 455.222 395.939 263.143 447.400 453.118 413.346 232.350 459.595 325.667 263.064 1861.002 267.814 413.185 328.055 479.664 211.412 462.091 323.870 627.663 407.590 100.885 493.437 370.293 540.387 260.046 225.596 293.898 489.321 369.240 465.718 442.049 255.428 431.767 635.982 531.041 423.841 439.622 510.567 445.546 369.516 205.834 311.601 460.399 307.632 440.795 406.026 191.104 431.944 188.964 442.685 336.099 337.860 538.929 253.805 425.995 232.268 411.947 396.479 459.962 444.490 416.577 359.889 207.145 233.686 192.142 265.912 374.631 408.187 155.589 481.291 383.393 480.070 494.561 216.653 476.319 371.508 378.372 194.011 384.753 540.229 136.639
151.937 335.109 240.804 277.840 269.017 156.766 256.715 83.995 135.570 360.850 410.287 566.402 222.205 148.900 221.014 207.427 168.504 1796.659 133.235 296.935 117.371 232.635 151.463 519.200 333.218 248.288 1757.005 204.429 207.474 300.738 139.725 252.816 0.000 263.237 238.986 395.004 430.964 276.963 204.802 251.010 266.201 261.255 478.173 1179.388 1827.598 259.898 225.452 229.956 248.181 1813.311 256.693 240.434 411.996 187.936 235.518 219.152 261.141 173.577 282.580 218.692 38.012 274.758 275.871 240.704 230.285 286.953 192.575 37.932 1827.716 220.395 245.421 356.982 307.022 178.159 266.469 196.107 733.938 236.501 247.697 313.993 163.970 507.101 34.914 286.884 106.212 316.679 160.985 498.674 254.707 30.297 236.145 463.340 497.754 387.863 266.980 331.123 272.904 241.752 162.781 86.469 273.057 336.559 245.173 234.936 252.392 395.965 250.252 265.438 168.350 122.956 505.642 28.673 244.872 74.804 236.206 457.767 332.198 248.868 380.598 153.565 171.166 200.963 253.430 40.780 403.558 240.423 307.941 308.649 177.070 284.448 552.738 277.940 280.697 400.435 210.607 255.299 413.680 506.942 288.991
238.313 547.477 429.191 72.585 5.780 137.992 62.405 228.648 347.939 411.710 622.656 778.771 434.573 195.601 70.407 109.182 128.630 2009.028 235.188 509.303 265.723 79.368 247.543 576.051 384.079 437.765 1969.374 96.352 419.842 126.475 211.945 465.184 268.634 0.000 113.510 445.865 581.547 489.331 120.954 178.870 96.222 61.937 529.034 1391.756 2039.967 54.642 98.214 442.325 44.477 2025.679 52.988 452.802 462.856 238.797 447.886 78.887 473.510 385.945 79.839 92.611 247.553 75.441 91.995 84.404 442.654 87.636 172.976 266.629 2040.084 271.256 82.762 407.842 107.705 390.527 26.801 158.190 946.306 111.025 460.066 74.325 132.045 719.470 271.919 468.058 240.547 101.408 147.125 549.535 51.003 267.301 63.238 249.253 710.123 600.231 157.254 91.455 73.587 179.510 375.150 188.193 69.353 387.419 30.042 109.460 438.857 608.334 442.299 81.562 186.710 171.186 718.011 243.251 41.168 280.479 128.129 517.789 269.955 43.612 592.967 132.271 383.535 413.331 445.477 262.230 454.419 85.698 520.309 137.726 111.524 44.780 603.598 446.917 75.442 451.296 104.338 409.647 464.540 719.311 501.359
209.563 521.301 399.263 105.949 97.126 109.241 65.629 199.897 321.762 381.783 596.479 752.594 408.396 166.851 40.974 132.085 99.879 1982.851 205.261 483.127 236.972 49.848 217.615 546.124 354.151 407.838 1943.197 56.154 393.666 194.252 185.769 439.008 239.883 91.345 0.000 415.937 551.620 463.155 91.434 143.408 78.298 84.840 499.106 1365.579 2013.790 88.006 68.695 416.148 47.701 1999.503 56.212 426.626 432.929 208.869 421.710 44.769 447.333 359.769 114.693 50.868 218.802 98.344 62.476 91.529 416.477 110.539 143.049 237.878 2013.908 241.328 67.486 377.915 130.608 364.351 94.578 128.262 920.130 2.485 433.889 142.102 102.106 693.293 243.168 438.130 214.371 140.265 118.375 519.607 54.227 238.550 65.130 317.030 683.946 574.055 184.542 159.232 96.490 173.907 348.973 159.442 72.577 357.492 73.282 4.050 408.929 582.157 412.371 52.043 157.959 142.436 691.834 214.500 64.071 251.728 87.931 487.861 264.353 76.977 566.790 102.332 357.358 387.154 415.549 233.479 424.491 62.489 494.133 205.196 79.986 112.557 573.671 416.989 108.806 421.368 74.819 379.719 434.613 693.134 475.183
492.903 475.208 276.135 494.872 486.049 386.431 450.767 408.773 414.323 122.546 701.589 857.704 494.228 450.191 438.046 401.479 398.169 2087.961 309.739 429.662 477.471 421.810 322.094 148.603 100.982 243.629 2048.307 394.854 302.006 494.790 310.792 385.543 414.618 480.269 431.486 0.000 352.861 447.928 393.976 460.619 455.375 455.307 111.077 1358.191 2118.900 476.930 414.627 501.979 456.933 2104.613 465.445 433.956 29.858 328.446 507.541 417.809 432.106 464.879 476.632 417.349 405.380 468.810 474.528 434.756 502.309 481.005 347.078 401.179 2119.018 228.478 434.595 124.745 501.074 469.461 483.501 345.281 912.741 429.001 441.219 514.847 391.703 798.404 419.276 267.475 364.392 510.731 390.650 131.578 463.459 413.105 453.177 657.392 789.057 679.165 461.032 531.977 466.956 390.926 454.083 376.276 481.809 109.067 462.205 427.436 237.792 687.267 248.162 464.095 430.235 359.270 796.945 401.078 447.405 433.439 433.358 87.170 481.372 465.900 671.900 381.299 462.468 492.265 251.340 394.955 34.125 429.597 440.668 502.701 404.803 501.480 185.253 245.852 497.729 66.766 399.782 256.590 26.637 798.245 421.717
482.736 248.568 256.151 595.896 587.072 487.454 551.790 475.514 385.022 291.853 549.771 705.886 402.375 479.699 539.069 502.502 499.192 1936.143 410.763 183.089 448.170 522.833 423.117 431.528 304.610 238.257 1896.489 495.877 282.022 595.813 411.816 272.308 422.374 581.292 532.509 353.664 0.000 334.693 494.999 561.643 556.398 556.330 418.834 1131.552 1967.082 577.953 515.650 394.732 557.957 1952.795 566.468 320.721 378.594 429.470 412.559 518.832 318.871 422.579 577.656 518.373 435.013 569.833 575.551 535.780 399.571 582.028 448.101 434.933 1967.200 329.501 535.619 328.374 602.098 427.160 584.525 446.304 686.102 530.024 327.984 615.871 492.726 646.586 431.915 198.861 465.415 611.754 491.674 439.335 564.482 427.298 554.201 758.416 637.239 581.451 562.056 633.001 567.980 491.949 424.782 477.300 582.833 307.951 563.229 528.459 201.634 587.105 250.232 565.118 507.969 460.293 645.127 425.675 548.428 404.138 534.381 370.095 582.395 566.923 571.738 482.322 415.914 449.964 253.411 437.781 374.950 530.621 194.094 603.724 505.827 602.504 468.178 227.182 598.753 365.890 500.805 233.850 366.966 646.427 151.711
331.786 252.402 241.788 510.442 501.619 393.038 465.320 324.564 234.072 381.821 425.545 581.660 206.241 328.749 453.616 416.032 404.776 1811.917 321.179 206.856 297.220 441.240 333.533 520.184 366.564 249.272 1772.263 414.285 208.459 509.343 343.458 90.363 271.424 495.839 450.916 428.350 341.165 0.000 413.407 478.761 474.806 469.860 507.490 1135.385 1842.856 492.499 434.057 213.992 471.486 1828.569 479.998 53.521 445.341 361.820 219.554 437.239 15.709 188.802 491.185 436.780 284.063 483.363 493.958 449.309 214.322 495.558 380.451 283.983 1842.974 330.086 454.026 390.327 515.627 193.384 499.071 378.654 689.935 448.431 60.784 529.400 398.310 522.360 280.965 287.869 314.817 525.284 394.113 527.991 478.012 276.348 468.747 671.945 513.013 405.813 475.585 546.530 481.509 424.300 187.806 332.520 496.362 369.904 477.775 446.867 253.377 413.916 251.236 483.525 357.019 365.877 520.901 274.725 461.958 253.188 452.788 458.752 514.745 481.470 398.549 387.906 189.117 215.658 254.415 286.831 436.904 449.028 217.861 517.254 411.411 517.050 556.834 278.925 513.299 433.780 419.212 256.284 447.025 522.201 198.911
235.092 478.514 350.237 142.237 133.414 134.771 73.402 215.828 278.975 332.757 553.692 709.807 365.609 192.381 79.537 62.189 125.409 1940.064 156.234 440.340 262.502 41.586 168.589 497.097 305.125 358.812 1900.410 64.195 346.487 167.359 142.981 396.221 223.313 127.633 81.751 366.911 502.593 420.368 0.000 129.960 75.151 106.865 450.080 1322.792 1971.003 124.294 34.403 373.361 86.264 1956.716 94.776 383.838 383.902 159.843 378.923 71.802 404.546 316.982 128.190 71.343 214.075 120.368 101.039 71.405 373.690 132.563 94.023 209.874 1971.121 192.302 54.372 328.888 152.632 321.563 130.866 79.236 877.342 79.266 391.102 178.390 116.874 650.506 227.971 389.104 171.584 162.289 143.905 470.581 92.790 221.800 103.693 329.962 641.159 531.268 133.602 195.520 118.514 124.881 306.186 175.373 111.140 308.466 109.570 77.701 359.903 539.370 363.345 90.606 183.489 158.366 649.047 209.773 92.713 277.258 102.699 438.835 215.327 113.265 524.003 117.100 314.571 344.367 366.523 203.650 375.465 49.374 451.346 175.270 94.753 148.845 524.645 367.963 145.094 372.342 19.558 330.693 385.586 650.347 432.395
250.098 544.179 425.863 179.218 170.395 149.776 162.027 223.939 344.641 408.383 619.357 775.473 431.275 207.386 122.392 173.598 140.414 2005.730 231.860 506.005 277.507 146.246 244.215 572.723 380.751 434.438 1966.075 82.754 416.544 266.909 208.647 461.886 263.924 164.615 119.386 442.537 578.220 486.033 135.490 0.000 174.696 167.020 525.706 1388.458 2036.669 161.276 125.486 439.027 144.099 2022.381 152.610 449.504 459.529 235.469 444.588 102.155 470.211 382.647 196.872 101.695 242.843 180.523 158.874 184.405 439.356 192.718 169.649 261.920 2036.786 267.928 160.690 404.515 212.787 387.229 167.847 154.862 943.008 116.901 456.768 215.371 124.985 716.172 267.209 464.730 237.249 222.444 158.910 546.207 150.624 262.592 137.523 390.299 706.825 596.933 233.151 232.502 178.669 200.507 371.852 183.484 168.975 384.092 146.551 115.336 435.529 605.036 438.971 148.441 198.494 166.477 714.713 238.541 146.250 292.263 48.559 514.461 290.953 150.246 589.669 125.210 380.237 410.033 442.149 257.521 451.091 155.692 517.011 274.820 102.864 185.826 600.271 443.589 182.075 447.968 132.558 406.319 461.212 716.013 498.061
246.275 558.013 429.779 96.304 87.481 145.954 55.984 236.610 358.475 412.299 633.192 789.307 445.109 203.563 65.846 122.440 136.592 2019.564 235.776 519.840 273.685 51.708 248.131 576.639 384.667 438.354 1979.910 92.867 426.029 184.607 222.481 475.721 276.596 81.700 86.963 446.453 582.135 499.868 93.294 180.120 0.000 75.196 529.622 1402.292 2050.503 78.361 70.555 452.861 38.056 2036.215 43.233 463.338 463.444 239.385 458.423 81.482 484.046 396.482 105.048 87.580 255.515 88.699 64.336 84.947 453.190 100.894 173.564 274.591 2050.620 271.844 68.510 408.430 120.963 401.063 84.933 158.778 956.842 84.478 470.602 132.457 138.819 730.006 279.881 468.646 251.083 130.620 155.087 550.123 44.582 275.263 59.988 307.385 720.659 610.767 174.897 149.587 86.845 192.768 385.686 196.155 62.932 388.007 63.637 82.913 439.445 618.870 442.887 53.903 194.672 179.148 728.547 251.213 54.426 288.441 124.644 518.377 283.213 67.332 603.503 139.045 394.071 423.867 446.065 270.192 455.007 42.648 530.845 195.551 116.698 102.912 604.187 447.505 99.161 451.884 76.679 410.235 465.128 729.847 511.895
274.258 549.785 431.499 112.024 98.183 173.937 66.076 264.593 350.247 414.019 624.964 781.079 436.881 231.546 106.352 111.490 164.575 2011.336 237.497 511.612 301.668 102.745 249.851 578.360 386.387 440.074 1971.682 132.297 422.151 176.690 214.253 467.493 294.584 92.403 141.276 448.173 583.856 491.640 134.961 214.815 114.145 0.000 531.342 1394.064 2042.275 94.082 121.591 444.633 72.243 2027.987 80.754 455.110 465.165 241.105 450.195 114.832 475.818 388.254 32.455 128.556 283.498 13.503 119.761 86.712 444.962 58.027 175.285 281.146 2042.392 273.564 93.366 410.151 45.768 392.835 95.635 160.498 948.614 138.791 462.374 143.159 167.990 721.778 299.243 470.366 242.855 55.424 183.070 551.843 78.769 293.072 94.176 318.087 712.431 602.540 163.947 160.289 11.650 181.818 377.458 224.138 97.119 389.728 79.357 137.226 441.165 610.642 444.607 109.328 222.655 207.131 720.319 279.196 38.066 316.424 164.074 520.097 272.264 83.052 595.275 168.216 385.843 415.639 447.785 274.922 456.727 96.302 522.618 184.601 147.469 113.614 605.907 449.225 114.881 453.604 122.863 411.955 466.848 721.619 503.667
551.185 540.027 334.416 553.154 544.330 444.712 509.048 467.054 479.143 180.827 766.409 922.524 559.047 508.473 496.327 459.760 456.450 2152.781 368.021 494.481 542.291 480.091 380.375 75.257 159.263 301.910 2113.127 453.135 360.287 553.071 369.074 450.362 472.899 538.550 489.767 107.948 417.680 512.747 452.257 518.901 513.656 513.588 0.000 1423.011 2183.720 535.211 472.908 566.799 515.215 2169.432 523.726 498.775 98.153 386.728 572.361 476.090 496.925 529.698 534.914 475.631 463.661 527.091 532.809 493.038 567.128 539.286 405.359 459.460 2183.837 286.759 492.877 183.026 559.356 534.280 541.783 403.562 977.561 487.282 506.039 573.129 449.984 863.223 477.558 332.203 422.673 569.012 448.932 29.645 521.740 471.386 511.459 715.674 853.876 743.984 519.314 590.259 525.238 449.207 518.903 434.558 540.091 167.348 520.487 485.717 302.611 752.087 306.444 522.376 488.516 417.551 861.764 459.359 505.686 498.258 491.639 66.125 539.653 524.181 736.720 439.580 527.288 557.084 309.622 453.237 78.516 487.879 505.487 560.982 463.085 559.762 107.619 310.671 556.011 131.586 458.063 314.872 84.386 863.064 486.537
1296.127 989.770 1206.099 1459.834 1451.011 1341.391 1413.673 1272.917 1198.413 1346.131 1246.505 1402.620 1099.109 1293.090 1405.639 1364.385 1353.129 2632.877 1290.193 1055.813 1261.561 1389.593 1308.421 1484.495 1330.874 1213.583 2593.223 1362.638 1172.769 1457.696 1296.683 1121.717 1219.777 1445.231 1399.269 1392.660 1190.123 1184.102 1361.759 1427.113 1423.158 1418.213 1471.800 0.000 2663.816 1441.892 1382.410 1091.465 1419.839 2649.528 1428.350 1170.130 1409.652 1333.620 1109.293 1385.592 1168.280 1119.312 1439.538 1385.133 1232.416 1431.716 1442.311 1397.662 1096.304 1443.911 1349.533 1232.336 2663.933 1294.397 1402.379 1354.638 1463.980 1123.894 1448.464 1350.454 906.228 1396.784 1177.394 1477.753 1346.663 1343.319 1229.318 1252.179 1263.170 1473.637 1345.611 1492.301 1426.365 1224.701 1420.771 1620.298 1333.972 1278.184 1423.938 1494.883 1429.862 1396.099 1148.679 1280.873 1444.715 1334.215 1427.168 1395.219 1217.687 1283.839 1215.547 1431.878 1321.359 1314.230 1341.860 1223.077 1410.311 1217.528 1401.141 1423.062 1486.545 1430.862 1268.472 1336.259 1112.648 1146.698 1218.725 1235.184 1401.214 1397.381 1066.819 1465.607 1359.763 1466.443 1521.145 1243.236 1462.692 1398.091 1367.565 1220.594 1411.336 1343.160 1047.868
1887.059 1796.438 1935.786 2050.766 2041.943 1932.323 2004.604 1863.849 1789.345 2075.818 1512.920 1420.836 1749.859 1884.021 1996.571 1955.317 1944.061 38.676 1881.124 1862.481 1852.493 1980.525 1899.352 2214.182 2060.562 1943.270 80.409 1953.569 1902.456 2048.627 1887.615 1863.406 1810.709 2036.163 1990.201 2122.348 1996.790 1845.491 1952.691 2018.045 2014.090 2009.144 2201.488 2640.717 0.000 2032.823 1973.342 1757.610 2010.771 19.376 2019.282 1808.961 2139.339 1935.826 1763.172 1976.524 1829.669 1710.244 2030.470 1976.064 1823.347 2022.647 2033.243 1988.594 1757.940 2034.842 1940.464 1823.268 22.756 1968.285 1993.310 2084.325 2054.912 1714.826 2039.395 1943.996 2195.267 1987.716 1816.225 2068.685 1937.595 1396.473 1820.250 1981.867 1854.102 2064.568 1936.542 2221.989 2017.296 1815.632 2011.702 2211.230 1379.570 1649.188 2014.870 2085.815 2020.794 1989.642 1739.610 1871.805 2035.647 2063.902 2018.099 1986.151 1947.374 1625.204 1945.234 2022.810 1912.291 1905.162 1377.199 1814.009 2001.242 1808.460 1992.073 2152.749 2080.087 2021.794 1628.319 1927.190 1703.580 1737.629 1948.412 1826.116 2130.902 1988.313 1873.486 2056.538 1950.695 2057.374 2250.832 1972.923 2053.623 2127.778 1958.497 1950.282 2141.023 1383.791 1854.536
237.534 546.698 428.412 25.815 56.041 137.213 61.626 227.869 347.160 410.931 621.876 777.991 433.794 194.822 69.628 108.403 127.851 2008.248 234.409 508.524 264.943 78.588 246.763 575.272 383.300 436.986 1968.594 95.572 419.063 153.167 211.166 464.405 267.854 50.261 112.731 445.086 580.768 488.552 120.174 178.091 95.443 61.158 528.255 1390.977 2039.188 0.000 97.435 441.545 43.698 2024.900 52.209 452.023 462.077 238.018 447.107 78.108 472.730 385.166 91.010 91.832 246.773 74.661 91.216 83.625 441.875 86.856 172.197 265.850 2039.305 270.477 81.983 407.063 106.926 389.748 53.493 157.410 945.527 110.246 459.286 101.017 131.266 718.691 271.139 467.279 239.768 116.582 146.346 548.755 50.224 266.522 62.458 275.945 709.344 599.452 160.859 118.147 72.808 178.730 374.371 187.414 68.574 386.640 32.197 108.681 438.077 607.555 441.519 80.783 185.931 170.407 717.232 242.471 40.389 279.699 127.349 517.009 269.176 35.892 592.187 131.491 382.755 412.552 444.697 261.451 453.640 84.919 519.530 164.418 110.745 71.472 602.819 446.138 40.599 450.516 103.559 408.867 463.761 718.532 500.580
213.723 499.164 370.888 110.109 101.286 113.402 64.951 204.058 299.626 353.407 574.343 730.458 386.260 171.011 45.134 81.093 104.040 1960.715 176.885 460.990 241.132 30.677 189.239 517.748 325.776 379.462 1921.061 54.191 367.138 167.448 163.632 416.871 243.963 95.506 54.410 387.562 523.244 441.018 34.403 119.956 66.700 89.001 470.731 1343.443 1991.654 92.167 0.000 394.012 51.861 1977.366 60.373 404.489 404.553 180.494 399.573 48.929 425.197 337.632 118.853 55.028 222.962 102.504 66.636 69.635 394.341 114.699 114.673 230.525 1991.771 212.953 45.920 349.539 134.769 342.214 98.738 99.886 897.993 51.925 411.753 146.262 106.266 671.157 247.328 409.755 192.234 144.425 122.535 491.232 58.387 242.450 69.290 321.190 661.810 551.918 133.690 163.392 100.650 145.532 326.837 163.603 76.737 329.116 77.442 50.361 380.554 560.021 383.995 56.203 162.120 146.596 669.698 218.660 68.231 255.888 92.091 459.486 235.978 81.137 544.654 106.492 335.222 365.018 387.174 224.301 396.116 40.922 471.996 175.359 84.146 116.717 545.295 388.614 112.966 392.992 17.788 351.344 406.237 670.998 453.046
294.375 168.968 308.635 458.083 449.260 339.640 411.921 271.165 196.661 448.667 324.531 480.646 19.059 291.338 403.887 362.633 351.378 1710.903 288.441 235.010 259.809 387.842 306.669 587.031 433.411 316.119 1671.249 360.886 275.305 455.944 294.931 236.255 218.026 443.480 397.518 495.197 369.320 218.340 360.008 425.362 421.407 416.461 574.337 1013.247 1741.842 440.140 380.659 0.000 418.088 1727.555 426.599 181.810 512.188 343.143 17.828 383.841 202.518 90.227 437.787 383.381 230.664 429.964 440.560 395.911 27.140 442.159 347.781 230.585 1741.960 375.602 400.627 457.174 462.229 91.141 446.712 351.313 567.797 395.033 189.074 476.002 344.912 421.345 227.567 354.715 261.418 471.885 343.859 594.838 424.613 222.949 419.019 618.547 411.999 330.467 422.187 493.132 428.111 396.958 112.459 279.122 442.964 436.751 425.416 393.468 320.223 338.569 318.083 430.127 319.608 312.478 419.886 221.326 408.559 215.777 399.390 525.598 487.404 429.111 323.202 334.507 113.770 107.956 321.261 233.432 503.751 395.629 246.016 463.855 358.012 464.691 623.681 345.772 460.940 500.627 365.814 323.130 513.872 421.187 227.066
220.268 522.679 404.393 58.248 49.424 119.946 17.928 210.602 323.141 386.912 597.858 753.973 409.775 177.556 47.916 84.384 110.584 1984.230 210.390 484.505 247.677 34.890 222.745 551.253 359.281 412.967 1944.576 74.937 395.044 146.551 187.147 440.386 250.588 43.644 69.033 421.067 556.749 464.533 76.476 160.825 51.745 37.139 504.236 1366.958 2015.169 40.305 53.737 417.527 0.000 2000.881 8.511 428.004 438.058 213.999 423.088 60.842 448.712 361.147 66.992 69.651 229.507 50.643 47.518 46.891 417.856 62.838 148.178 248.583 2015.286 246.458 38.285 383.044 82.907 365.729 46.877 133.392 921.508 66.548 435.268 94.401 113.999 694.672 253.873 443.260 215.749 92.563 129.080 524.737 6.526 249.255 21.932 269.329 685.325 575.433 136.841 111.531 48.789 154.712 350.352 170.147 24.876 362.621 25.581 64.983 414.059 583.536 417.501 37.085 168.665 153.141 693.213 225.205 16.370 262.433 106.714 492.991 245.157 29.275 568.169 114.225 358.737 388.533 420.679 244.185 429.621 41.221 495.511 157.495 93.478 64.856 578.800 422.119 61.105 426.498 59.861 384.849 439.742 694.513 476.561
1872.771 1782.151 1921.498 2036.478 2027.655 1918.035 1990.317 1849.561 1775.057 2061.531 1498.633 1406.548 1735.571 1869.734 1982.283 1941.029 1929.773 24.389 1866.837 1848.193 1838.205 1966.237 1885.065 2199.895 2046.274 1928.982 66.121 1939.282 1888.169 2034.339 1873.327 1849.118 1796.421 2021.875 1975.913 2108.060 1982.503 1831.203 1938.403 2003.757 1999.802 1994.857 2187.200 2626.430 19.376 2018.536 1959.054 1743.323 1996.483 0.000 2004.994 1794.674 2125.051 1921.538 1748.885 1962.236 1815.381 1695.956 2016.182 1961.777 1809.060 2008.360 2018.955 1974.306 1743.652 2020.555 1926.177 1808.980 19.493 1953.997 1979.023 2070.037 2040.624 1700.538 2025.108 1929.708 2180.980 1973.428 1801.937 2054.397 1923.307 1382.186 1805.962 1967.579 1839.814 2050.281 1922.255 2207.701 2003.009 1801.345 1997.415 2196.942 1365.283 1634.901 2000.582 2071.527 2006.506 1975.354 1725.322 1857.517 2021.359 2049.614 2003.812 1971.863 1933.087 1610.917 1930.947 2008.522 1898.003 1890.874 1362.911 1799.721 1986.955 1794.172 1977.785 2138.462 2065.800 2007.506 1614.032 1912.903 1689.292 1723.342 1934.125 1811.828 2116.614 1974.025 1859.199 2042.251 1936.407 2043.087 2236.544 1958.635 2039.336 2113.491 1944.209 1935.994 2126.735 1369.504 1840.249
228.779 531.190 412.904 66.759 57.936 128.457 13.388 219.114 331.652 395.424 606.369 762.484 418.286 186.067 56.427 92.895 119.095 1992.741 218.901 493.017 256.188 43.124 231.256 559.764 367.792 421.479 1953.087 83.448 403.556 155.062 195.658 448.898 259.099 52.155 77.544 429.578 565.260 473.045 79.858 169.336 43.233 45.651 512.747 1375.469 2023.680 48.816 61.971 426.038 8.511 2009.392 0.000 436.515 446.569 222.510 431.600 69.353 457.223 369.658 75.503 78.162 238.018 59.154 56.029 42.351 426.367 71.349 156.690 257.094 2023.797 254.969 33.745 391.555 91.418 374.240 55.388 141.903 930.019 75.059 443.779 102.912 122.510 703.183 262.384 451.771 224.260 101.075 137.591 533.248 1.986 257.766 30.443 277.840 693.836 583.944 145.352 120.042 57.300 163.223 358.863 178.658 20.336 371.133 34.092 73.494 422.570 592.047 426.012 45.596 177.176 161.652 701.724 233.716 24.881 270.944 115.225 501.502 253.668 37.787 576.680 122.736 367.248 397.044 429.190 252.696 438.132 36.681 504.022 166.006 101.989 73.367 587.312 430.630 69.616 435.009 63.242 393.360 448.253 703.024 485.072
295.369 238.542 227.928 474.025 465.202 356.622 428.903 288.147 197.655 367.961 389.128 545.244 169.824 292.332 417.199 379.615 368.360 1775.501 284.762 192.996 260.803 404.824 297.116 506.325 352.704 235.413 1735.846 377.868 194.599 472.926 307.041 93.621 235.007 459.422 414.500 414.490 327.306 53.633 376.990 442.344 438.389 433.443 493.630 1121.525 1806.440 456.083 397.640 177.576 435.070 1792.152 443.581 0.000 431.481 325.403 183.137 400.823 37.811 152.385 454.769 400.363 247.646 446.946 457.542 412.892 177.905 459.141 344.034 247.567 1806.557 316.226 417.609 376.467 479.211 156.967 462.654 342.237 676.075 412.015 21.205 492.984 361.894 485.943 244.549 274.009 278.400 488.867 357.696 514.131 441.595 239.931 432.330 635.529 476.596 369.397 439.168 510.114 445.093 387.883 151.389 296.104 459.946 356.045 441.358 410.450 239.517 377.499 237.377 447.109 320.602 329.460 484.484 238.308 425.541 216.771 416.371 444.892 478.328 445.053 362.132 351.489 152.700 179.241 240.555 250.414 423.044 412.611 204.002 480.837 374.994 480.633 542.974 265.065 476.882 419.921 382.796 242.424 433.165 485.784 185.052
480.655 469.888 263.886 482.624 473.800 374.182 438.518 396.524 409.003 110.297 696.269 852.384 488.908 437.943 425.797 389.230 385.920 2082.641 297.491 424.342 472.152 409.561 309.845 148.299 88.733 231.380 2042.987 382.605 289.757 482.541 298.544 380.223 402.369 468.020 419.237 29.858 375.162 442.608 381.727 448.371 443.126 443.058 101.282 1352.871 2113.580 464.681 402.378 496.660 444.685 2099.293 453.196 428.636 0.000 316.198 502.221 405.560 426.786 459.559 464.384 405.101 393.131 456.561 462.279 422.508 496.989 468.756 334.829 388.930 2113.698 216.229 422.347 112.496 488.826 464.141 471.253 333.032 907.421 416.752 435.899 502.599 379.454 793.084 407.028 261.673 352.143 498.482 378.402 121.783 451.210 400.856 440.929 645.144 783.737 673.845 448.784 519.729 454.708 378.677 448.764 364.028 469.561 96.818 449.957 415.187 232.472 681.948 235.914 451.846 417.986 347.021 791.625 388.829 435.156 428.119 421.109 112.100 469.123 453.651 666.580 369.050 457.148 486.945 239.092 382.707 24.329 417.349 435.348 490.452 392.555 489.232 175.846 240.532 485.481 64.754 387.533 244.342 21.747 792.925 416.397
325.520 356.265 220.076 327.489 318.666 219.048 283.384 241.390 294.999 202.596 577.614 733.729 367.719 282.808 270.663 234.096 230.786 1963.986 142.357 310.719 350.994 254.427 154.711 366.936 174.964 228.651 1924.332 227.471 216.326 327.407 143.409 266.600 247.235 312.886 264.103 236.750 372.432 328.985 226.593 293.236 287.992 287.924 319.919 1239.248 1994.925 309.547 247.244 375.470 289.551 1980.638 298.062 311.293 253.741 0.000 381.032 250.426 313.163 340.904 309.250 249.966 237.997 301.427 307.145 267.373 375.800 313.622 179.695 233.796 1995.043 62.141 267.212 198.727 333.692 345.486 316.119 177.898 793.799 261.618 318.557 347.464 224.320 674.428 251.893 258.943 197.009 343.348 223.268 340.420 296.076 245.722 285.795 490.010 665.081 555.190 293.649 364.595 299.574 223.543 330.108 208.894 314.427 178.305 294.823 260.053 229.742 563.292 233.184 296.712 262.852 191.887 672.969 233.695 280.022 308.427 265.975 308.674 313.989 298.517 547.925 213.916 338.493 368.290 236.362 227.572 245.304 262.215 321.725 335.318 237.420 334.098 394.484 237.802 330.347 242.181 232.399 200.532 255.425 674.269 302.775
299.937 186.796 314.197 463.645 454.822 345.201 417.483 276.727 202.223 454.229 330.093 486.208 24.621 296.900 409.449 368.195 356.939 1716.465 294.003 252.838 265.371 393.404 312.231 592.593 438.972 321.681 1676.811 366.448 280.867 461.506 300.493 241.817 223.587 449.041 403.080 500.758 387.148 223.901 365.570 430.924 426.969 422.023 579.898 1031.074 1747.404 445.702 386.220 17.828 423.650 1733.117 432.161 187.372 517.750 348.704 0.000 389.402 208.080 95.788 443.349 388.943 236.226 435.526 446.122 401.472 32.702 447.721 353.343 236.147 1747.522 381.164 406.189 462.736 467.791 96.702 452.274 356.875 585.624 400.594 194.636 481.563 350.473 426.907 233.129 360.277 266.980 477.447 349.421 600.399 430.175 228.511 424.581 624.109 417.560 336.028 427.748 498.694 433.672 402.520 118.021 284.683 448.525 442.313 430.978 399.030 325.785 344.131 323.645 435.688 325.170 318.040 425.448 226.888 414.121 221.339 404.951 531.160 492.966 434.673 328.764 340.069 119.332 113.518 326.823 238.994 509.312 401.191 263.844 469.417 363.574 470.253 629.242 351.334 466.502 506.189 371.375 328.692 519.434 426.748 244.893
179.313 491.094 376.102 94.147 85.324 78.992 82.416 169.648 291.555 358.621 566.272 722.387 378.189 136.601 28.296 118.040 69.630 1952.644 182.099 452.920 206.722 72.257 194.453 522.962 330.990 384.676 1912.990 32.993 363.459 182.450 155.561 408.801 209.633 79.544 48.000 392.776 528.458 432.948 71.802 119.870 100.707 81.948 475.945 1335.372 1983.583 76.204 61.798 385.941 64.488 1969.296 72.999 396.418 409.767 185.708 391.503 0.000 417.126 329.562 111.801 13.724 188.552 95.451 84.885 104.415 386.270 107.646 119.887 207.629 1983.701 218.167 89.895 354.753 127.716 334.143 82.776 105.100 889.923 45.515 403.682 130.300 73.045 663.086 212.918 414.969 184.164 137.372 88.125 496.446 71.014 208.301 52.452 305.228 653.739 543.848 181.650 147.430 93.598 150.746 318.766 129.193 89.364 334.330 61.480 43.950 385.768 551.950 389.209 74.452 127.710 112.186 661.627 184.250 61.179 221.478 64.769 464.700 241.192 65.175 536.583 73.271 327.151 356.947 392.388 203.230 401.330 84.897 463.926 193.701 52.524 100.755 550.509 393.828 97.004 398.206 68.870 356.558 411.451 662.927 444.975
316.077 236.692 226.079 494.733 485.909 377.329 449.610 308.855 218.363 366.111 409.836 565.951 190.531 313.040 437.906 400.323 389.067 1796.208 305.469 191.146 281.511 425.531 317.824 504.475 350.855 233.563 1756.554 398.575 192.749 493.633 327.748 74.653 255.715 480.129 435.207 412.641 325.456 15.822 397.697 463.051 459.096 454.150 491.781 1119.676 1827.147 476.790 418.348 198.283 455.777 1812.860 464.288 37.811 429.632 346.111 203.845 421.530 0.000 173.093 475.476 421.071 268.354 467.654 478.249 433.600 198.612 479.849 364.742 268.274 1827.264 314.377 438.317 374.618 499.918 177.675 483.362 362.945 674.226 432.722 45.075 513.691 382.601 506.650 265.256 272.159 299.108 509.574 378.403 512.281 462.303 260.638 453.038 656.236 497.303 390.104 459.876 530.821 465.800 408.590 172.096 316.811 480.653 354.195 462.066 431.157 237.667 398.207 235.527 467.816 341.309 350.168 505.191 259.015 446.249 237.478 437.079 443.042 499.036 465.760 382.839 372.197 173.408 199.949 238.705 271.122 421.195 433.319 202.152 501.544 395.701 501.341 541.125 263.216 497.590 418.071 403.503 240.574 431.316 506.491 183.202
272.994 174.782 308.649 436.701 427.878 318.258 390.539 249.784 175.279 448.682 249.960 406.075 79.057 269.956 382.505 341.251 329.996 1636.333 267.059 240.824 238.428 366.460 285.287 587.045 433.425 316.133 1596.678 339.504 275.320 434.562 273.550 236.269 196.644 422.098 376.136 495.211 375.134 218.354 338.626 403.980 400.025 395.079 574.351 1019.061 1667.272 418.758 359.277 86.808 396.706 1652.984 405.217 181.825 512.202 321.761 92.370 362.459 202.532 0.000 416.405 361.999 209.282 408.582 419.178 374.529 87.138 420.777 326.399 209.203 1667.389 354.220 379.245 457.188 440.847 14.300 425.330 329.931 573.611 373.651 189.088 454.620 323.530 346.775 206.185 354.730 240.036 450.503 322.477 594.852 403.231 201.567 397.637 597.165 337.428 281.640 400.805 471.750 406.729 375.576 112.473 257.740 421.582 436.765 404.034 372.086 320.238 287.294 318.097 408.745 298.226 291.097 345.316 199.944 387.177 194.395 378.008 525.613 466.022 407.729 271.927 313.125 89.515 43.000 321.276 212.050 503.765 374.247 251.830 442.473 336.630 443.309 623.695 345.786 439.558 500.641 344.432 323.145 513.886 346.616 232.880
272.877 582.041 463.754 107.148 65.728 172.555 96.968 263.212 382.502 446.274 657.219 813.334 469.136 230.165 104.971 143.746 163.193 2043.591 269.752 543.867 300.286 113.931 282.106 610.615 418.642 472.329 2003.937 130.915 454.406 160.831 246.509 499.748 303.197 59.948 148.074 480.428 616.111 523.895 155.517 213.434 130.785 71.348 563.597 1426.319 2074.530 89.205 132.777 476.888 79.041 2060.243 87.552 487.366 497.420 273.360 482.450 113.451 508.073 420.509 0.000 127.174 282.116 18.951 126.559 118.967 477.217 54.291 207.540 301.192 2074.648 305.819 117.326 442.406 69.920 425.091 63.181 192.753 980.870 145.588 494.629 110.705 166.608 754.033 306.482 502.621 275.111 79.577 181.689 584.098 85.566 301.864 97.801 285.633 744.686 634.795 182.469 127.835 20.805 214.073 409.713 222.756 103.917 421.983 64.605 144.024 473.420 642.897 476.862 116.126 221.274 205.750 752.574 277.814 75.731 315.042 162.692 552.352 304.519 78.176 627.530 166.834 418.098 447.894 480.040 296.794 488.982 120.262 554.873 168.742 146.087 81.160 638.162 481.480 110.005 485.859 138.902 444.210 499.104 753.874 535.923
193.037 497.680 375.643 107.871 99.047 92.715 87.578 177.439 298.141 358.162 572.858 728.973 384.776 150.325 42.020 117.580 83.353 1959.230 181.640 459.506 220.446 71.798 193.994 522.503 330.530 384.217 1919.576 32.533 370.045 196.174 162.148 415.387 217.425 93.267 47.541 392.316 527.999 439.534 71.343 119.787 100.247 95.672 475.485 1341.959 1990.169 89.928 61.339 392.527 69.651 1975.882 78.162 403.005 409.308 185.248 398.089 13.724 423.712 336.148 125.524 0.000 196.344 109.175 84.425 113.479 392.857 121.370 119.428 215.420 1990.287 217.708 89.436 354.294 141.440 340.730 96.500 104.641 896.509 45.056 410.268 144.024 78.485 669.672 220.710 414.509 190.750 151.096 101.849 495.986 76.176 216.092 66.176 318.952 660.326 550.434 182.931 161.154 107.322 150.287 325.352 136.984 94.526 333.871 75.204 43.491 385.308 558.536 388.750 73.992 141.434 119.978 668.213 192.042 74.903 235.202 64.310 464.240 240.732 78.899 543.169 78.711 333.737 363.534 391.928 211.021 400.870 84.438 470.512 207.424 56.365 114.479 550.050 393.368 110.728 397.747 68.411 356.098 410.992 669.514 451.562
168.826 358.110 263.805 260.391 251.568 139.317 248.660 66.547 158.572 353.500 433.289 589.404 245.206 172.589 203.565 200.077 151.055 1819.661 125.885 319.936 147.459 225.285 144.113 517.841 325.868 271.289 1780.006 186.981 230.475 293.388 132.375 275.817 54.631 245.788 221.537 387.654 453.966 299.964 197.451 233.561 258.850 248.193 470.823 1202.389 1850.600 242.449 218.102 252.958 230.733 1836.312 239.244 263.435 404.646 180.586 258.519 201.703 284.143 196.578 275.230 201.243 0.000 261.696 258.422 233.354 253.287 273.891 185.225 52.626 1850.717 213.045 238.071 349.632 293.961 201.160 249.021 188.757 756.939 219.052 270.699 296.545 146.521 530.103 57.916 309.886 98.862 303.617 143.537 491.324 237.258 53.298 218.697 455.990 520.756 410.864 259.630 313.675 259.843 234.402 185.783 69.021 255.609 329.209 227.725 217.488 275.394 418.967 273.253 247.989 150.902 105.508 528.644 29.248 227.423 115.823 218.758 459.578 324.848 231.419 403.600 136.117 194.168 223.964 276.431 48.227 396.208 233.073 330.942 301.299 159.621 267.000 545.388 300.942 263.249 393.085 203.257 278.301 406.330 529.944 311.992
282.954 592.118 473.832 117.225 84.680 182.633 107.046 273.289 392.580 456.351 667.297 823.412 479.214 240.242 115.048 153.823 173.271 2053.669 279.829 553.944 310.363 124.009 292.184 620.692 428.720 482.406 2014.014 140.993 464.483 179.783 256.586 509.825 313.275 78.900 158.151 490.506 626.188 533.972 165.595 223.511 140.863 61.581 573.675 1436.397 2084.608 99.283 142.855 486.966 89.118 2070.320 97.629 497.443 507.497 283.438 492.527 123.528 518.150 430.586 18.951 137.252 292.194 0.000 136.636 129.045 487.295 44.524 217.617 311.270 2084.725 315.897 127.403 452.483 50.969 435.168 82.132 202.830 990.947 155.666 504.707 129.656 176.686 764.111 316.560 512.699 285.188 60.625 191.766 594.176 95.644 311.942 107.879 304.584 754.764 644.872 201.421 146.786 1.853 224.150 419.791 232.834 113.994 432.060 83.557 154.101 483.498 652.975 486.939 126.203 231.351 215.827 762.652 287.891 85.809 325.120 172.770 562.430 314.596 88.253 637.608 176.912 428.176 457.972 490.118 306.871 499.060 130.339 564.950 187.694 156.165 100.111 648.239 491.558 120.083 495.936 148.979 454.288 509.181 763.952 546.000
244.241 542.233 413.957 124.367 115.544 143.919 72.555 234.576 342.695 396.476 617.412 773.527 429.329 201.529 75.652 124.162 134.557 2003.784 219.954 504.060 271.650 35.886 232.309 560.817 368.845 422.531 1964.130 90.832 410.207 201.934 206.701 459.941 274.561 109.764 84.928 430.631 566.313 484.088 77.472 174.689 64.336 103.259 513.800 1386.512 2034.723 106.425 54.732 437.081 66.120 2020.435 74.631 447.558 447.622 223.563 442.643 79.447 468.266 380.701 133.111 85.546 253.480 116.762 0.000 77.567 437.410 128.957 157.742 272.557 2034.840 256.022 53.524 392.608 149.027 385.283 112.996 142.955 941.062 82.443 454.822 160.520 136.784 714.226 277.846 452.824 235.303 158.683 153.053 534.301 72.645 273.229 88.052 335.448 704.879 594.987 176.759 177.651 114.909 188.601 369.906 194.120 90.995 372.185 91.700 80.879 423.623 603.090 427.065 38.081 192.638 177.114 712.767 249.178 82.489 286.406 122.609 502.555 279.047 95.395 587.723 137.010 378.291 408.087 430.243 267.370 439.185 48.526 515.065 209.845 114.664 130.975 588.364 431.683 127.224 436.062 60.857 394.413 449.306 714.067 496.115
262.729 501.609 383.323 100.709 91.886 162.407 43.986 240.564 302.071 365.843 576.788 732.903 388.705 220.017 94.823 63.314 153.045 1963.160 189.321 463.436 290.138 48.079 201.675 530.184 338.211 391.898 1923.506 108.708 373.975 128.514 166.077 419.317 246.409 86.105 119.643 399.997 535.680 443.464 56.758 174.473 62.032 59.087 483.166 1345.888 1994.099 82.766 65.233 396.457 60.714 1979.812 69.225 406.934 416.989 192.929 402.019 103.303 427.642 340.078 80.413 115.856 237.171 72.590 108.232 0.000 396.786 84.785 127.109 232.970 1994.216 225.388 41.253 361.975 104.855 344.659 89.338 112.322 900.438 117.158 414.198 136.862 156.460 673.602 251.067 422.190 194.680 114.511 171.541 503.667 67.239 244.896 82.646 291.117 664.255 554.364 115.771 153.992 70.736 133.642 329.282 204.523 85.589 341.552 68.042 115.593 392.989 562.466 396.431 97.798 211.126 187.517 672.143 232.869 51.185 304.894 147.211 471.921 224.088 71.737 547.099 156.686 337.667 367.463 399.609 226.746 408.551 43.928 474.442 136.425 135.939 107.317 557.731 401.049 103.566 405.428 47.445 363.779 418.673 673.443 455.491
296.702 171.409 310.962 460.410 451.587 341.967 414.248 273.492 198.988 450.994 326.858 482.973 21.386 293.665 406.214 364.960 353.705 1713.230 290.768 237.452 262.136 390.169 308.996 589.358 435.738 318.446 1673.576 363.213 277.632 458.271 297.258 238.582 220.352 445.806 399.845 497.524 371.762 220.666 362.335 427.689 423.734 418.788 576.664 1015.688 1744.169 442.467 382.985 25.218 420.415 1729.882 428.926 184.137 514.515 345.470 30.780 386.168 204.845 92.554 440.114 385.708 232.991 432.291 442.887 398.237 0.000 444.486 350.108 232.912 1744.287 377.929 402.954 459.501 464.556 93.468 449.039 353.640 570.238 397.360 191.401 478.329 347.239 423.672 229.894 357.042 263.745 474.212 346.186 597.164 426.940 225.276 421.346 620.874 414.325 332.794 424.513 495.459 430.438 399.285 114.786 281.449 445.291 439.078 427.743 395.795 322.550 340.896 320.410 432.454 321.935 314.805 422.213 223.653 410.886 218.104 401.716 527.925 489.731 431.438 325.529 336.834 116.097 110.283 323.588 235.759 506.077 397.956 248.458 466.182 360.339 467.018 626.008 348.099 463.267 502.954 368.141 325.457 516.199 423.513 229.507
305.150 579.477 461.191 142.916 104.800 204.829 96.968 295.485 379.939 443.710 654.656 810.771 466.573 262.438 137.244 141.182 195.467 2041.028 267.188 541.303 332.559 133.637 279.543 608.051 416.079 469.765 2001.374 163.189 451.842 159.947 243.945 497.184 324.276 99.020 172.168 477.865 613.547 521.331 164.653 245.707 145.037 30.892 561.034 1423.756 2071.967 124.973 152.483 474.325 103.135 2057.679 111.646 484.802 494.856 270.797 479.886 145.724 505.510 417.945 39.072 159.448 314.389 44.395 150.653 116.404 474.654 0.000 204.976 310.838 2072.084 303.256 124.258 439.842 76.659 422.527 102.253 190.190 978.306 169.683 492.066 149.777 198.882 751.470 328.935 500.058 272.547 86.316 213.962 581.535 109.660 322.763 125.067 322.550 742.123 632.231 167.085 166.907 42.541 211.510 407.150 255.030 128.011 419.419 103.677 168.118 470.857 640.334 474.299 140.220 253.547 238.023 750.011 310.087 68.958 347.316 194.965 549.789 301.955 113.944 624.967 199.108 415.535 445.331 477.477 304.614 486.419 127.194 552.309 167.858 178.361 111.290 635.598 478.917 145.773 483.296 153.755 441.647 496.540 751.311 533.359
259.737 446.456 310.267 188.858 180.034 159.415 144.752 193.588 255.095 292.787 529.812 685.927 341.730 217.025 132.031 95.464 150.053 1916.184 116.265 400.910 287.146 115.795 128.619 457.128 265.155 318.842 1876.530 88.839 306.517 188.775 114.059 356.791 199.433 174.254 125.471 326.941 462.624 396.488 87.961 154.605 149.360 149.292 410.110 1298.913 1947.123 170.915 108.612 349.481 150.919 1932.836 159.430 359.959 343.933 119.873 355.043 111.794 380.666 293.102 170.618 111.335 190.195 162.795 168.513 128.742 349.811 174.990 0.000 185.994 1947.241 152.332 128.580 288.919 195.060 297.684 177.487 39.266 853.463 122.986 367.222 208.833 141.518 626.626 204.091 349.134 147.704 204.716 168.549 430.611 157.444 197.920 147.163 351.378 617.280 507.388 155.018 225.963 160.942 84.911 282.306 157.548 175.795 268.496 156.191 121.421 319.933 515.490 323.375 158.080 208.134 140.541 625.168 185.893 141.390 260.625 127.343 398.865 175.357 159.885 500.123 118.507 290.691 320.488 326.553 179.771 335.495 123.583 411.916 196.686 119.398 195.466 484.675 327.993 191.715 332.372 93.767 290.723 345.617 626.468 392.966
176.747 341.901 247.596 280.931 272.108 159.857 244.496 87.087 142.363 348.631 417.079 573.194 228.997 173.710 224.105 195.209 171.595 1803.451 121.016 303.727 142.181 220.417 139.244 512.972 321.000 255.080 1763.797 193.461 214.266 288.519 127.507 259.608 38.421 266.328 230.093 382.786 437.757 283.755 192.583 254.101 253.982 249.036 465.955 1186.180 1834.390 262.989 213.234 236.748 250.663 1820.103 259.174 247.226 399.777 175.718 242.310 216.416 267.933 180.369 270.362 215.956 41.103 262.539 273.135 228.486 237.078 274.734 180.356 0.000 1834.508 208.177 233.202 344.763 294.804 184.951 269.561 183.888 740.730 227.608 254.489 308.577 167.061 513.894 35.085 293.676 93.994 304.460 164.077 486.456 257.188 21.248 239.237 451.122 504.547 394.655 254.762 325.707 260.686 229.534 169.574 89.561 275.539 324.340 248.265 226.043 259.184 402.758 257.044 262.702 171.442 126.048 512.435 22.386 241.134 99.614 231.965 454.710 319.979 251.959 387.390 156.657 177.958 207.755 260.222 13.850 391.340 228.205 314.733 296.430 180.161 287.540 540.519 284.733 283.789 388.216 198.389 262.091 401.461 513.735 295.783
1887.176 1796.556 1935.903 2050.883 2042.060 1932.440 2004.721 1863.966 1789.462 2075.936 1513.038 1420.953 1749.976 1884.139 1996.688 1955.434 1944.178 38.794 1881.242 1862.598 1852.610 1980.642 1899.470 2214.300 2060.679 1943.387 80.526 1953.687 1902.574 2048.744 1887.732 1863.523 1810.826 2036.280 1990.318 2122.465 1996.908 1845.608 1952.808 2018.162 2014.207 2009.262 2201.605 2640.834 22.756 2032.941 1973.459 1757.728 2010.888 19.493 2019.399 1809.079 2139.456 1935.943 1763.290 1976.641 1829.786 1710.361 2030.587 1976.182 1823.465 2022.765 2033.360 1988.711 1758.057 2034.960 1940.582 1823.385 0.000 1968.402 1993.428 2084.442 2055.029 1714.943 2039.513 1944.113 2195.385 1987.833 1816.342 2068.802 1937.712 1396.591 1820.367 1981.984 1854.219 2064.686 1936.660 2222.106 2017.414 1815.749 2011.820 2211.347 1379.688 1649.306 2014.987 2085.932 2020.911 1989.759 1739.727 1871.922 2035.764 2064.019 2018.217 1986.268 1947.492 1625.322 1945.352 2022.927 1912.408 1905.279 1377.316 1814.126 2001.360 1808.577 1992.190 2152.867 2080.205 2021.911 1628.437 1927.308 1703.697 1737.747 1948.530 1826.233 2131.019 1988.430 1873.604 2056.656 1950.812 2057.492 2250.949 1973.040 2053.741 2127.896 1958.614 1950.399 2141.140 1383.909 1854.654
319.282 353.361 178.458 321.251 312.428 212.810 277.145 235.152 292.096 172.497 571.375 727.491 364.815 276.570 264.424 227.858 224.548 1957.748 136.118 307.815 344.756 248.188 148.472 336.838 144.865 196.276 1918.093 221.232 204.329 321.168 137.171 263.696 240.996 306.647 257.864 206.651 342.334 326.082 220.354 286.998 281.753 281.685 289.820 1236.345 1988.687 303.308 241.005 372.567 283.312 1974.399 291.823 308.389 223.643 154.825 378.129 244.187 310.260 334.665 303.011 243.728 231.758 295.188 300.906 261.135 372.896 307.383 173.456 227.557 1988.804 0.000 260.974 168.629 327.453 339.247 309.880 171.659 790.895 255.379 315.653 341.226 218.082 668.190 245.655 228.844 190.770 337.109 217.029 310.321 289.838 239.483 279.556 483.771 658.843 548.951 287.411 358.356 293.335 217.305 323.870 202.655 308.188 148.206 288.584 253.814 199.643 557.054 203.085 290.473 256.614 185.648 666.731 227.456 273.783 302.188 259.736 278.575 307.750 292.279 541.687 207.677 332.255 362.051 206.263 221.334 215.205 255.976 318.821 329.079 231.182 327.859 364.385 207.703 324.108 212.082 226.160 158.913 225.327 668.031 299.871
250.207 519.133 390.857 96.124 87.301 149.886 27.290 240.542 319.595 373.376 594.311 750.426 406.229 207.496 81.619 96.686 140.524 1980.683 196.854 480.959 277.617 17.638 209.208 537.717 345.745 399.431 1941.029 89.395 387.107 167.046 183.601 436.840 263.932 81.521 90.895 407.531 543.213 460.987 54.372 155.161 29.039 67.370 490.699 1363.412 2011.623 78.182 36.485 413.980 56.129 1997.335 49.889 424.458 424.522 200.462 419.542 85.414 445.165 357.601 97.222 91.513 254.694 80.873 80.468 42.679 414.310 93.068 134.642 250.493 2011.740 232.922 0.000 369.508 113.138 362.183 84.753 119.855 917.962 88.410 431.721 132.277 142.074 691.126 268.591 429.724 212.203 122.794 159.020 511.200 50.663 262.419 78.061 307.205 681.779 571.887 149.284 149.408 79.020 165.501 346.806 200.087 69.013 349.085 63.457 86.845 400.522 579.990 403.964 70.035 198.604 183.081 689.667 250.392 46.601 292.373 127.899 479.454 255.946 67.152 564.622 142.300 355.190 384.987 407.142 244.270 416.084 11.195 491.965 174.957 119.953 102.732 565.264 408.582 98.981 412.961 37.756 371.312 426.206 690.967 473.015
435.818 425.051 219.050 437.787 428.964 329.346 393.682 351.688 364.167 67.000 651.433 807.548 444.072 393.106 380.961 344.394 341.084 2037.805 252.654 379.506 427.315 364.725 265.009 231.341 33.986 186.544 1998.151 337.769 244.921 437.705 253.707 335.387 357.533 423.184 374.401 101.155 330.326 397.772 336.891 403.534 398.290 398.222 184.324 1308.035 2068.744 419.845 357.542 451.823 399.849 2054.457 408.360 383.799 118.146 271.362 457.385 360.724 381.950 414.723 419.547 360.264 348.295 411.725 417.443 377.671 452.153 423.920 289.993 344.094 2068.862 171.393 377.510 0.000 443.990 419.305 426.416 288.196 862.585 371.916 391.063 457.762 334.618 748.247 362.191 216.837 307.307 453.646 333.565 204.825 406.374 356.020 396.092 600.307 738.900 629.009 403.947 474.892 409.871 333.841 403.927 319.191 424.724 42.071 405.120 370.351 187.635 637.111 191.077 407.010 373.150 302.185 746.788 343.993 390.320 383.283 376.273 173.079 424.287 408.815 621.744 324.214 412.312 442.108 194.255 337.870 109.709 372.512 390.511 445.616 347.718 444.395 258.888 195.696 440.644 106.586 342.697 199.505 119.830 748.088 371.561
272.919 582.083 463.797 107.190 65.771 172.598 97.011 263.254 382.545 446.316 657.261 813.376 469.179 230.207 105.013 143.788 163.236 2043.633 269.794 543.909 300.328 113.973 282.148 610.657 418.685 472.371 2003.979 130.957 454.448 162.897 246.551 499.790 303.239 59.990 148.116 480.471 616.153 523.937 155.559 213.476 130.828 87.395 563.640 1426.362 2074.572 89.248 132.820 476.930 79.083 2060.285 87.594 487.408 497.462 273.403 482.492 113.493 508.115 420.551 44.765 127.217 282.158 25.814 126.601 119.010 477.260 70.338 207.582 301.235 2074.690 305.862 117.368 442.448 0.000 425.133 63.223 192.795 980.912 145.631 494.671 110.747 166.651 754.076 306.524 502.664 275.153 9.656 181.731 584.140 85.608 301.907 97.843 285.675 744.729 634.837 193.676 127.877 27.667 214.115 409.756 222.799 103.959 422.025 64.648 144.066 473.462 642.940 476.904 116.168 221.316 205.792 752.617 277.856 75.774 315.084 162.734 552.394 304.561 78.218 627.572 166.876 418.140 447.937 480.082 296.836 489.025 120.304 554.915 174.147 146.129 81.202 638.204 481.523 110.047 485.901 138.944 444.252 499.146 753.917 535.965
279.047 184.181 294.349 442.754 433.931 324.311 396.593 255.837 181.333 434.382 259.359 415.475 85.110 276.010 388.559 347.305 336.049 1645.732 273.113 250.223 244.481 372.513 291.341 572.746 419.125 301.834 1606.077 345.558 261.020 440.616 279.603 221.970 202.697 428.151 382.189 480.911 384.533 204.054 344.679 410.033 406.078 401.133 560.051 1028.460 1676.671 424.812 365.330 92.862 402.759 1662.383 411.270 167.525 497.903 327.814 98.424 368.512 188.232 14.300 422.458 368.053 215.336 414.636 425.231 380.582 93.191 426.831 332.453 215.256 1676.788 360.273 385.299 442.889 446.900 0.000 431.384 335.984 583.010 379.704 174.788 460.673 329.583 356.174 212.238 340.430 246.090 456.557 328.531 580.552 409.285 207.621 403.691 603.218 346.827 291.039 406.858 477.803 412.782 381.630 98.174 263.793 427.635 422.466 410.088 378.139 305.938 296.693 303.798 414.798 304.280 297.150 354.715 205.997 393.231 200.448 384.061 511.313 472.076 413.782 281.326 319.179 95.568 28.701 306.976 218.104 489.465 380.301 261.229 448.527 342.683 449.363 609.395 331.486 445.612 486.342 350.485 308.845 499.586 356.015 242.279
240.613 549.777 431.491 74.884 33.465 140.292 64.705 230.948 350.239 414.010 624.955 781.071 436.873 197.901 72.707 111.482 130.930 2011.328 237.488 511.603 268.022 81.667 249.842 578.351 386.379 440.065 1971.673 98.652 422.142 117.325 214.245 467.484 270.934 27.685 115.810 448.165 583.847 491.631 123.253 181.170 98.522 64.237 531.334 1394.056 2042.267 56.942 100.514 444.624 46.777 2027.979 55.288 455.102 465.156 241.097 450.186 81.187 475.809 388.245 70.689 94.911 249.852 77.740 94.295 86.704 444.954 89.935 175.276 268.929 2042.384 273.556 85.062 410.142 110.005 392.827 0.000 160.489 948.606 113.325 462.365 65.175 134.345 721.770 274.218 470.358 242.847 103.707 149.425 551.835 53.303 269.601 65.537 240.103 712.423 602.531 148.104 82.305 75.887 181.809 377.450 190.493 71.653 389.719 32.342 111.760 441.156 610.634 444.598 83.862 189.010 173.486 720.311 245.550 43.468 282.778 130.428 520.089 272.255 45.912 595.267 134.571 385.835 415.631 447.777 264.530 456.719 87.998 522.609 128.576 113.824 35.630 605.898 449.217 77.742 453.595 106.638 411.946 466.840 721.611 503.659
253.058 435.645 299.456 182.179 173.355 152.736 137.329 196.058 257.565 281.976 532.282 688.397 344.199 210.346 125.352 88.041 143.374 1918.654 105.453 390.099 280.467 109.116 117.808 446.316 254.344 308.031 1878.999 82.160 295.706 181.352 103.247 345.980 201.902 167.575 118.792 316.130 451.812 386.191 81.282 147.926 142.681 141.869 399.299 1301.382 1949.593 164.236 101.933 351.951 143.496 1935.305 152.007 349.662 333.121 109.062 357.512 105.115 370.369 295.571 163.195 104.656 192.664 155.372 161.834 121.318 352.280 167.567 44.947 188.464 1949.710 141.521 121.902 278.107 187.637 300.153 170.808 0.000 855.932 116.307 356.925 201.409 134.839 629.096 206.561 338.323 150.173 197.293 161.870 419.800 150.021 200.389 140.484 343.955 619.749 509.857 147.594 218.540 153.519 49.135 284.776 160.017 168.371 257.685 149.512 114.742 309.122 517.960 312.564 151.401 201.455 143.011 627.637 188.362 133.967 263.094 120.664 388.054 139.581 153.206 502.593 120.977 293.161 322.957 315.742 182.240 324.684 116.904 401.105 189.263 112.719 188.787 473.864 317.182 185.036 321.561 87.088 279.912 334.805 628.937 382.155
867.463 561.107 777.435 1031.171 1022.348 912.728 985.009 844.254 769.749 917.468 817.841 973.956 670.445 864.426 976.975 935.721 924.466 2204.213 861.529 627.149 832.898 960.930 879.757 1055.831 902.211 784.919 2164.559 933.974 744.106 1029.032 868.020 693.054 791.114 1016.568 970.606 963.997 761.459 755.439 933.096 998.450 994.495 989.549 1043.137 764.430 2235.152 1013.228 953.747 662.802 991.176 2220.865 999.687 741.467 980.988 904.956 680.629 956.929 739.617 690.649 1010.875 956.469 803.752 1003.052 1013.648 968.999 667.641 1015.247 920.869 803.673 2235.270 865.733 973.715 925.974 1035.317 695.230 1019.800 921.790 0.000 968.121 748.730 1049.090 918.000 914.656 800.655 823.516 834.506 1044.973 916.947 1063.638 997.701 796.037 992.107 1191.635 905.309 849.521 995.275 1066.220 1001.199 967.436 720.015 852.210 1016.052 905.551 998.504 966.556 789.024 855.175 786.883 1003.215 892.696 885.567 913.197 794.414 981.647 788.865 972.478 994.399 1057.881 1002.199 839.808 907.595 683.985 718.034 790.062 806.520 972.551 968.717 638.155 1036.943 931.100 1037.779 1092.481 814.572 1034.028 969.427 938.902 791.931 982.672 914.497 619.205
207.077 518.816 396.778 103.464 94.640 106.756 63.144 197.412 319.277 379.298 593.994 750.109 405.911 164.366 38.489 129.600 97.394 1980.366 202.776 480.642 234.487 47.363 215.130 543.639 351.666 405.353 1940.712 53.669 391.181 191.767 183.283 436.523 237.398 88.860 2.485 413.452 549.135 460.670 88.949 140.923 75.813 82.355 496.621 1363.094 2011.305 85.521 66.210 413.663 45.216 1997.018 53.727 424.140 430.444 206.384 419.225 42.284 444.848 357.284 112.208 48.383 216.317 95.859 59.991 89.044 413.992 108.054 140.564 235.393 2011.423 238.843 65.001 375.430 128.123 361.865 92.093 125.777 917.644 0.000 431.404 139.617 99.621 690.808 240.683 435.645 211.886 137.780 115.890 517.122 51.742 236.065 62.645 314.545 681.461 571.570 182.057 156.747 94.005 171.422 346.488 156.957 70.092 355.007 70.797 1.565 406.444 579.672 409.886 49.558 155.474 139.951 689.349 212.015 61.586 249.243 85.446 485.376 261.868 74.491 564.305 99.847 354.873 384.669 413.064 230.994 422.006 60.003 491.648 202.711 77.500 110.072 571.186 414.504 106.321 418.883 72.334 377.234 432.127 690.649 472.697
302.633 245.805 235.192 481.289 472.466 363.885 436.166 295.411 204.919 375.224 396.392 552.507 177.088 299.596 424.462 386.879 375.623 1782.764 292.026 200.259 268.067 412.087 304.380 513.588 359.968 242.676 1743.110 385.132 201.862 480.189 314.305 100.885 242.271 466.685 421.763 421.754 334.569 60.897 384.253 449.607 445.652 440.707 500.894 1128.789 1813.703 463.346 404.904 184.839 442.333 1799.416 450.844 21.205 438.745 332.667 190.401 408.086 45.075 159.649 462.032 407.627 254.910 454.210 464.805 420.156 185.168 466.405 351.298 254.830 1813.821 323.490 424.873 383.731 486.474 164.231 469.918 349.501 683.339 419.278 0.000 500.247 369.157 493.206 251.812 281.273 285.664 496.131 364.959 521.395 448.859 247.194 439.594 642.792 483.859 376.660 446.432 517.377 452.356 395.146 158.652 303.367 467.209 363.308 448.622 417.713 246.781 384.763 244.640 454.372 327.865 336.724 491.747 245.571 432.805 224.034 423.635 452.155 485.592 452.317 369.396 358.753 159.964 186.505 247.818 257.678 430.308 419.875 211.265 488.101 382.257 487.897 550.238 272.329 484.146 427.184 390.059 249.688 440.429 493.047 192.315
289.515 579.020 460.734 123.787 82.367 189.194 113.607 279.850 379.482 443.253 654.198 810.313 466.116 246.803 121.609 153.196 179.832 2040.570 266.731 540.846 316.925 130.570 279.085 607.594 415.622 469.308 2000.916 147.554 451.385 128.872 243.488 496.727 319.836 76.587 164.712 477.408 613.090 520.874 172.156 230.072 147.424 113.139 560.576 1423.299 2071.509 105.844 149.416 473.867 95.679 2057.222 104.190 484.345 494.399 270.340 479.429 130.089 505.052 417.488 119.591 143.813 298.755 126.643 143.197 135.606 474.197 138.838 204.519 310.380 2071.627 302.799 133.964 439.385 158.907 422.070 66.553 189.732 977.849 162.227 491.608 0.000 183.247 751.013 323.121 499.601 272.090 152.610 198.327 581.077 102.205 318.503 114.440 251.650 741.666 631.774 164.343 68.465 124.789 211.052 406.693 239.395 120.555 418.962 81.244 160.662 470.399 639.876 473.841 132.764 237.912 222.388 749.554 294.453 92.370 331.681 179.331 549.331 301.498 94.814 624.509 183.473 415.077 444.874 477.019 304.157 485.962 136.900 551.852 143.549 162.726 84.532 635.141 478.460 126.644 482.838 155.540 441.189 496.083 750.854 532.902
186.514 445.427 348.500 145.771 136.948 65.321 134.040 125.186 245.888 331.019 520.605 676.720 332.523 143.802 88.945 150.598 53.942 1906.977 140.252 407.253 213.924 128.059 158.480 495.360 303.388 357.074 1867.323 69.245 317.792 234.075 109.895 363.134 165.172 131.168 103.802 365.174 500.856 387.281 121.981 123.902 156.508 133.573 448.343 1289.706 1937.916 127.829 111.977 340.274 116.113 1923.629 124.624 350.752 382.165 158.106 345.836 83.967 371.459 283.895 163.425 83.508 144.091 147.076 140.686 156.040 340.603 159.271 138.702 163.167 1938.034 190.565 145.697 327.151 179.341 288.477 134.401 139.278 844.256 101.317 358.015 181.925 0.000 617.419 168.457 387.367 138.497 188.997 95.327 468.844 122.638 163.839 104.077 356.853 608.072 498.181 210.151 199.055 145.223 184.923 273.099 84.731 140.989 306.728 113.105 99.752 358.166 506.283 360.570 130.253 134.911 67.725 615.960 139.789 112.803 226.364 101.022 437.098 275.369 116.799 490.916 26.458 281.484 311.281 363.748 158.768 373.728 140.699 418.259 245.325 41.886 152.380 522.907 366.226 148.629 370.604 119.049 328.956 383.849 617.260 399.309
566.693 476.073 615.420 730.400 721.577 611.957 684.238 543.483 468.979 755.453 192.554 85.288 429.493 563.656 676.205 634.951 623.695 1370.168 560.759 542.115 532.127 660.159 578.987 893.817 740.196 622.904 1330.513 633.203 582.091 728.261 567.249 543.040 490.343 715.797 669.835 801.982 676.425 525.125 632.325 697.679 693.724 688.778 881.122 1320.351 1401.107 712.458 652.976 437.245 690.405 1386.819 698.916 488.596 818.973 615.460 442.807 656.158 509.303 389.878 710.104 655.699 502.982 702.282 712.877 668.228 437.574 714.477 620.099 502.902 1401.224 647.919 672.945 763.959 734.546 394.460 719.030 623.630 874.902 667.350 495.859 748.319 617.229 0.000 499.884 661.501 533.736 744.203 616.176 901.623 696.931 495.266 691.336 890.864 22.700 328.823 694.504 765.449 700.428 669.276 419.244 551.439 715.281 743.536 697.734 665.785 627.009 304.839 624.868 702.444 591.925 584.796 55.039 493.643 680.877 488.094 671.707 832.384 759.722 701.428 307.954 606.825 383.214 417.264 628.047 505.750 810.536 667.947 553.121 736.172 630.329 737.009 930.466 652.557 733.258 807.413 638.131 629.916 820.657 56.339 534.171
184.887 326.309 232.004 294.077 285.254 175.634 247.915 103.668 126.771 352.050 401.487 557.603 213.405 181.850 239.882 198.627 187.372 1787.860 124.435 288.135 150.321 223.836 142.663 510.400 324.419 239.488 1748.205 196.880 198.674 291.938 130.926 244.016 46.561 279.474 233.512 386.205 422.165 268.163 196.002 261.356 257.401 252.455 469.374 1170.588 1818.799 276.134 216.653 221.157 254.082 1804.511 262.593 231.634 403.196 179.137 226.718 219.835 252.341 164.777 273.781 219.375 57.684 265.958 276.554 231.905 221.486 278.153 183.775 35.085 1818.916 211.596 236.621 348.182 298.223 169.359 282.706 187.307 725.138 231.027 238.898 311.996 180.906 498.302 0.000 278.085 97.412 307.879 179.853 489.875 260.607 13.838 255.013 454.541 488.955 379.063 258.181 329.126 264.105 232.953 153.982 106.142 278.958 327.759 261.410 229.462 243.592 387.166 241.452 266.121 188.023 142.629 496.843 38.967 244.553 107.753 235.384 448.967 323.398 265.105 371.799 170.501 162.367 192.163 244.630 24.321 394.759 231.624 299.141 299.849 194.006 300.685 543.938 269.141 296.934 391.635 201.808 246.500 404.880 498.143 280.191
342.530 305.700 115.944 462.900 454.076 354.458 418.794 335.308 244.816 192.949 532.081 688.197 324.720 339.492 406.073 369.506 366.196 1918.454 277.767 260.154 307.964 389.837 290.121 331.313 176.884 98.050 1878.799 362.881 141.815 462.817 278.820 216.035 282.168 448.296 399.513 238.670 201.605 278.420 362.003 428.647 423.402 423.334 318.618 1188.683 1949.393 444.957 382.654 332.472 424.961 1935.105 433.472 264.448 255.662 296.474 338.033 385.836 262.598 295.371 444.660 385.377 294.806 436.837 442.555 402.784 332.801 449.032 315.105 294.727 1949.510 196.505 402.623 200.648 469.102 299.953 451.529 313.308 743.233 397.028 271.711 482.875 359.730 628.896 291.709 0.000 325.560 478.758 358.678 339.119 431.486 287.091 421.205 625.420 619.549 509.657 429.060 500.005 434.984 358.954 284.576 343.264 449.837 180.225 430.233 395.463 46.364 517.760 110.026 432.122 367.762 327.297 627.437 285.468 415.432 263.931 401.385 269.880 449.399 433.927 502.393 349.326 292.961 322.757 113.204 297.575 247.224 397.625 271.160 470.728 372.831 469.508 367.962 71.913 465.757 244.101 367.809 93.643 257.346 628.737 252.210
202.729 387.081 290.154 214.700 205.877 96.257 168.538 125.942 187.543 272.674 462.259 618.375 274.177 160.017 160.505 119.251 107.995 1848.632 81.906 348.907 230.139 144.459 100.134 437.014 245.042 298.729 1808.977 117.503 259.446 212.561 45.364 304.788 131.880 200.097 154.135 306.828 442.511 328.935 116.625 181.979 178.024 173.078 389.997 1231.360 1879.571 196.758 137.276 281.928 174.705 1865.283 183.216 292.406 323.820 99.760 287.490 140.458 313.113 225.549 194.404 139.999 122.642 186.582 197.177 152.528 282.258 198.777 104.399 118.441 1879.688 132.219 157.245 268.806 218.846 230.131 203.330 107.930 785.910 151.650 299.670 232.619 101.529 559.074 136.539 329.021 0.000 228.503 100.476 410.498 181.231 130.367 175.636 375.164 549.727 439.835 178.804 249.749 184.728 153.576 214.754 86.103 199.581 248.383 182.034 150.085 299.820 447.938 302.224 186.744 140.061 69.096 557.615 118.340 165.177 193.072 156.007 378.752 244.022 185.728 432.571 91.125 223.139 252.935 305.402 112.218 315.382 152.247 359.913 220.473 114.629 221.309 464.562 307.880 217.558 312.259 122.431 270.610 325.503 558.915 340.963
263.263 572.426 454.140 97.534 56.114 162.941 87.354 253.597 372.888 436.660 647.605 803.720 459.522 220.551 95.356 134.131 153.579 2033.977 260.138 534.253 290.672 104.317 272.492 601.001 409.028 462.715 1994.323 121.301 444.792 153.241 236.894 490.134 293.583 50.334 138.459 470.814 606.497 514.281 145.903 203.819 121.171 86.887 553.983 1416.705 2064.916 79.591 123.163 467.274 69.427 2050.629 77.938 477.751 487.806 263.746 472.836 103.837 498.459 410.895 98.653 117.560 272.502 100.390 116.945 109.353 467.603 112.585 197.926 291.578 2065.033 296.205 107.712 432.792 132.654 415.476 53.567 183.139 971.255 135.974 485.015 101.091 156.994 744.419 296.868 493.007 265.497 0.000 172.075 574.484 75.952 292.250 88.187 276.019 735.072 625.181 184.020 118.221 98.536 204.459 400.099 213.142 94.302 412.369 54.991 134.410 463.806 633.283 467.248 106.511 211.659 196.136 742.960 268.200 66.117 305.428 153.078 542.738 294.905 68.562 617.916 157.220 408.484 438.280 470.426 287.179 479.368 110.648 545.259 164.491 136.473 71.546 628.548 471.866 100.391 476.245 129.288 434.596 489.490 744.260 526.308
131.432 449.919 352.993 157.873 149.050 39.410 146.142 128.474 245.801 335.512 525.098 681.213 337.015 88.720 101.047 180.342 51.148 1911.470 144.744 411.746 158.842 145.780 162.972 499.853 307.881 361.567 1871.816 89.497 322.285 246.177 114.387 367.627 168.459 143.270 124.054 369.666 505.349 391.774 142.233 172.016 174.230 145.675 452.835 1294.198 1942.409 139.931 132.229 344.767 128.215 1928.121 136.726 355.244 386.658 162.598 350.329 104.220 375.952 288.387 175.527 103.760 147.378 159.178 158.408 168.141 345.096 171.373 166.353 166.455 1942.526 195.058 163.418 331.644 191.443 292.969 146.503 161.605 848.748 121.569 362.508 194.027 94.385 621.912 171.744 391.859 142.989 201.099 0.000 473.336 134.740 167.127 116.179 368.955 612.565 502.673 239.895 211.157 157.324 207.251 277.592 88.018 153.091 311.221 125.207 120.004 362.658 510.776 365.062 147.975 72.267 71.012 620.453 143.076 124.905 173.598 121.274 441.590 297.696 128.901 495.409 87.670 285.977 315.773 368.241 162.056 378.220 158.420 422.751 257.427 92.172 164.482 527.400 370.718 160.731 375.097 139.301 333.448 388.342 621.753 403.801
571.685 560.528 354.917 573.654 564.831 465.213 529.549 487.555 499.644 201.328 786.910 943.025 579.548 528.974 516.828 480.261 476.951 2173.282 388.522 514.982 562.792 500.592 400.876 45.612 179.764 322.411 2133.627 473.636 380.788 573.572 389.574 470.863 493.400 559.051 510.268 128.449 438.181 533.248 472.758 539.402 534.157 534.089 29.645 1443.512 2204.221 555.712 493.409 587.300 535.716 2189.933 544.227 519.276 118.654 407.229 592.862 496.591 517.426 550.199 555.415 496.131 484.162 547.592 553.310 513.538 587.629 559.787 425.860 479.961 2204.338 307.260 513.377 203.527 579.857 554.781 562.284 424.063 998.062 507.783 526.539 593.630 470.485 883.724 498.058 352.704 443.174 589.513 469.433 0.000 542.241 491.887 531.960 736.175 874.377 764.485 539.814 610.760 545.739 469.708 539.404 455.059 560.592 187.849 540.988 506.218 323.112 772.588 326.944 542.877 509.017 438.052 882.265 479.860 526.187 518.759 512.140 89.675 560.154 544.682 757.221 460.081 547.789 577.585 330.123 473.737 99.017 508.380 525.988 581.483 483.585 580.263 128.120 331.172 576.512 152.087 478.564 335.373 104.887 883.565 507.038
226.793 529.205 410.919 64.773 55.950 126.472 11.402 217.128 329.666 393.438 604.383 760.498 416.301 184.081 54.441 90.910 117.110 1990.755 216.916 491.031 254.202 41.139 229.270 557.779 365.807 419.493 1951.101 81.462 401.570 153.077 193.673 446.912 257.114 50.170 75.558 427.593 563.275 471.059 77.872 167.350 45.219 43.665 510.761 1373.484 2021.694 46.831 59.985 424.052 6.526 2007.407 1.986 434.530 444.584 220.524 429.614 67.367 455.237 367.673 73.517 76.176 236.033 57.168 54.044 40.365 424.382 69.363 154.704 255.109 2021.812 252.984 31.760 389.570 89.433 372.255 53.402 139.917 928.034 73.073 441.793 100.926 120.525 701.197 260.399 449.786 222.275 99.089 135.605 531.262 0.000 255.781 28.458 275.854 691.851 581.959 143.366 118.057 55.315 161.237 356.877 176.673 18.350 369.147 32.106 71.509 420.584 590.061 424.026 43.610 175.190 159.666 699.738 231.730 22.895 268.959 113.239 499.516 251.683 35.801 574.694 120.751 365.262 395.059 427.204 250.710 436.147 34.696 502.037 164.020 100.004 71.381 585.326 428.644 67.630 433.023 61.257 391.374 446.268 701.039 483.087
171.772 321.691 227.386 283.675 274.852 162.601 243.297 89.830 122.153 347.433 396.870 552.985 208.787 168.735 226.849 194.010 174.339 1783.242 119.818 283.518 137.206 219.218 138.045 505.782 319.801 234.870 1743.588 192.262 194.057 287.320 126.308 239.399 33.447 269.072 228.894 381.587 417.547 263.546 191.384 256.738 252.783 247.837 464.756 1165.970 1814.181 265.732 212.035 216.539 249.464 1799.893 257.975 227.016 398.578 174.519 222.101 215.217 247.724 160.159 269.163 214.758 43.847 261.341 271.936 227.287 216.868 273.536 179.158 21.248 1814.298 206.978 232.004 343.564 293.605 164.741 272.304 182.689 720.520 226.409 234.280 307.378 169.805 493.684 13.838 273.467 92.795 303.261 166.820 485.257 255.990 0.000 241.980 449.923 484.337 374.445 253.563 324.508 259.487 228.335 149.364 92.304 274.340 323.141 251.008 224.844 238.975 382.548 236.834 261.503 174.185 128.791 492.225 25.129 239.936 94.639 230.766 444.350 318.781 254.703 367.181 159.400 157.749 187.545 240.013 19.703 390.141 227.006 294.523 295.231 182.905 290.283 539.321 264.523 286.532 387.018 197.190 241.882 400.262 493.525 275.573
207.561 519.342 408.709 79.313 70.490 107.240 39.860 197.896 319.803 391.228 594.520 750.635 406.437 164.849 35.027 106.316 97.878 1980.892 214.167 481.168 234.970 56.823 227.060 555.569 363.597 417.283 1941.238 65.599 391.707 167.616 183.809 437.049 237.881 64.709 90.965 425.383 561.065 461.196 98.409 148.118 73.677 59.072 508.552 1363.620 2011.831 61.370 75.669 414.189 21.932 1997.544 30.443 424.666 442.374 218.315 419.751 48.135 445.374 357.810 88.924 61.859 216.800 72.575 69.450 68.823 414.518 84.770 152.494 235.877 2011.949 250.774 60.217 387.360 104.839 362.391 67.942 137.707 918.170 88.480 431.930 115.466 101.293 691.334 241.166 447.576 212.412 114.496 116.373 529.053 28.458 236.549 0.000 290.394 681.987 572.096 158.773 132.596 70.721 176.644 347.014 157.441 46.808 366.937 46.646 86.915 418.374 580.198 421.816 59.017 155.958 140.434 689.875 212.498 38.302 249.726 97.376 497.307 267.090 50.341 564.831 101.519 355.399 385.195 424.995 231.478 433.937 63.153 492.174 178.867 80.772 85.921 583.116 426.435 82.170 430.813 81.793 389.164 444.058 691.175 473.223
462.189 718.945 600.659 296.460 255.041 361.868 286.281 452.524 519.407 583.179 794.124 950.239 606.041 419.477 294.283 293.122 352.506 2180.496 406.656 680.772 489.598 303.243 419.011 747.519 555.547 609.233 2140.842 320.227 591.310 254.920 383.413 636.652 463.744 249.260 337.386 617.333 753.015 660.799 321.678 402.746 320.098 285.813 700.502 1563.224 2211.435 278.518 322.090 613.793 268.353 2197.147 276.864 624.270 634.324 410.265 619.355 302.763 644.978 557.413 285.462 316.487 454.506 299.316 315.871 290.648 614.122 307.267 344.444 450.306 2211.552 442.724 306.638 579.310 331.581 561.995 239.227 329.658 1117.774 334.901 631.534 254.064 355.921 890.938 468.403 639.526 412.015 325.283 371.001 721.003 274.878 462.231 287.113 0.000 881.591 771.699 304.268 271.194 297.463 350.978 546.618 412.069 293.229 558.887 253.918 333.336 610.325 779.802 613.767 305.438 410.586 395.062 889.479 450.204 265.044 504.354 352.004 689.257 441.423 267.488 764.435 356.146 555.003 584.799 616.945 444.082 625.887 309.574 691.777 236.399 335.399 257.206 775.067 618.385 299.317 622.764 312.364 581.115 636.008 890.779 672.827
555.192 464.572 603.919 718.899 710.076 600.456 672.737 531.982 457.478 743.952 181.054 93.428 417.992 552.155 664.704 623.450 612.194 1353.264 549.258 530.614 520.626 648.658 567.486 882.316 728.695 611.403 1313.610 621.703 570.590 716.760 555.748 531.539 478.842 704.296 658.334 790.481 664.924 513.624 620.824 686.178 682.223 677.278 869.621 1308.850 1384.204 700.957 641.475 425.744 678.904 1369.916 687.415 477.095 807.472 603.959 431.306 644.657 497.802 378.377 698.603 644.198 491.481 690.781 701.376 656.727 426.073 702.976 608.598 491.401 1384.321 636.418 661.444 752.458 723.045 382.959 707.529 612.129 863.401 655.849 484.358 736.818 605.728 22.700 488.383 650.000 522.235 732.702 604.675 890.122 685.430 483.765 679.835 879.363 0.000 317.322 683.003 753.948 688.927 657.775 407.743 539.938 703.780 732.035 686.233 654.284 615.508 293.338 613.368 690.943 580.424 573.295 38.136 482.142 669.376 476.593 660.206 820.883 748.221 689.927 296.453 595.324 371.713 405.763 616.546 494.249 799.035 656.446 541.620 724.672 618.828 725.508 918.965 641.056 721.757 795.912 626.630 618.415 809.156 39.436 522.670
442.103 378.606 493.744 605.810 596.987 487.367 559.648 418.893 344.389 633.777 154.582 391.068 319.564 439.065 551.615 510.361 499.105 1621.325 436.168 444.649 407.537 535.569 454.396 772.140 618.520 501.228 1581.670 508.613 460.415 603.671 442.659 421.364 365.753 591.207 545.245 680.306 578.959 403.449 507.735 573.089 569.134 564.188 759.446 1222.885 1652.264 587.867 528.386 327.315 565.815 1637.976 574.326 366.920 697.297 490.870 332.877 531.568 387.627 268.202 585.514 531.108 378.391 577.691 588.287 543.638 327.645 589.886 495.508 378.312 1652.381 523.329 548.354 642.283 609.956 272.784 594.439 499.040 777.435 542.760 374.183 623.729 492.639 331.767 375.294 539.825 409.145 619.612 491.586 779.947 572.340 370.676 566.746 766.274 322.420 0.000 569.914 640.859 575.838 544.686 297.568 426.849 590.691 621.860 573.143 541.195 505.333 36.192 503.192 577.854 467.335 460.206 330.308 369.053 556.286 363.504 547.117 710.708 635.131 576.838 20.825 482.234 246.162 295.588 506.371 381.160 688.860 543.357 455.655 611.582 505.739 612.418 808.790 530.881 608.667 685.736 513.541 508.240 698.981 331.608 436.704
333.721 524.701 406.414 179.996 171.173 233.399 133.834 263.655 325.162 388.934 599.879 755.994 411.796 291.009 174.110 98.877 224.037 1986.251 212.412 486.527 361.130 143.091 224.766 553.275 361.302 414.989 1946.597 162.823 397.066 156.359 189.169 442.408 269.500 165.392 190.318 423.088 558.771 466.555 127.433 228.589 172.281 138.374 506.257 1368.979 2017.190 162.053 135.907 419.548 140.001 2002.903 148.512 430.026 440.080 216.020 425.110 182.590 450.733 363.169 145.561 185.318 260.262 151.877 187.519 117.823 419.877 164.072 150.200 256.061 2017.308 248.479 151.501 385.066 184.142 367.751 161.047 135.413 923.530 187.833 437.289 176.416 215.502 696.693 274.158 445.281 217.771 193.798 241.988 526.758 146.526 267.987 161.933 318.961 687.346 577.455 0.000 193.546 150.024 156.733 352.373 227.615 164.877 364.643 147.329 186.268 416.080 585.557 419.522 177.086 281.573 210.608 695.234 255.960 130.472 330.692 201.327 495.012 247.179 151.024 570.190 188.574 360.758 390.554 422.700 249.837 431.642 150.878 497.533 151.462 193.381 167.196 580.822 424.140 182.853 428.519 118.120 386.870 441.764 696.534 478.583
308.498 598.002 479.716 142.769 101.350 208.177 132.590 298.833 398.464 462.236 673.181 829.296 485.098 265.786 140.592 172.179 198.815 2059.553 285.714 559.829 335.907 149.552 298.068 626.577 434.604 488.291 2019.899 166.536 470.368 147.855 262.470 515.710 338.818 95.569 183.695 496.390 632.073 539.857 191.138 249.055 166.407 132.122 579.559 1442.281 2090.492 124.827 168.399 492.850 114.662 2076.204 123.173 503.327 513.382 289.322 498.412 149.072 524.035 436.471 138.574 162.796 317.737 145.625 162.180 154.589 493.179 157.820 223.502 329.363 2090.609 321.781 152.947 458.368 177.890 441.052 85.536 208.715 996.831 181.210 510.591 68.465 202.230 769.995 342.103 518.583 291.072 171.592 217.310 600.060 121.187 337.486 133.422 270.632 760.648 650.757 183.326 0.000 143.772 230.035 425.675 258.378 139.538 437.945 100.227 179.645 489.382 658.859 492.824 151.747 256.895 241.371 768.536 313.435 111.353 350.663 198.313 568.314 320.481 113.797 643.492 202.455 434.060 463.856 496.002 323.139 504.944 155.883 570.835 162.532 181.709 103.515 654.124 497.442 145.626 501.821 174.523 460.172 515.065 769.836 551.884
281.101 590.265 471.979 115.372 86.533 180.779 105.192 271.436 390.726 454.498 665.443 821.558 477.360 238.389 113.195 151.970 171.417 2051.815 277.976 552.091 308.510 122.155 290.330 618.839 426.866 480.553 2012.161 139.139 462.630 181.636 254.733 507.972 311.421 80.753 156.298 488.652 624.335 532.119 163.741 221.658 139.009 63.435 571.821 1434.544 2082.754 97.429 141.002 485.112 87.265 2068.467 95.776 495.590 505.644 281.584 490.674 121.675 516.297 428.733 20.805 135.399 290.340 1.853 134.783 127.192 485.441 46.378 215.764 309.416 2082.872 314.044 125.550 450.630 49.116 433.315 83.986 200.977 989.094 153.813 502.853 131.510 174.832 762.257 314.706 510.845 283.335 58.772 189.913 592.322 93.790 310.088 106.025 306.438 752.910 643.019 203.274 148.640 0.000 222.297 417.937 230.980 112.141 430.207 82.705 152.248 481.644 651.121 485.086 124.350 229.498 213.974 760.798 286.038 83.955 323.266 170.916 560.576 312.743 86.400 635.754 175.058 426.322 456.119 488.264 305.018 497.206 128.486 563.097 189.547 154.311 101.965 646.386 489.704 118.229 494.083 147.126 452.434 507.328 762.098 544.147
296.111 478.698 342.509 196.064 187.241 195.790 149.902 239.111 300.618 325.029 575.335 731.450 387.252 253.399 168.405 100.614 186.428 1961.707 148.506 433.152 323.520 152.169 160.861 489.369 297.397 351.084 1922.053 125.213 338.759 193.925 146.300 389.033 244.955 181.461 161.845 359.183 494.866 429.244 124.335 190.979 185.734 154.442 442.352 1344.435 1992.646 178.121 144.986 395.004 156.069 1978.358 164.580 392.715 376.175 152.115 400.566 148.168 413.422 338.624 175.768 147.709 235.717 167.945 203.587 133.892 395.333 180.140 88.000 231.517 1992.763 184.574 164.955 321.161 200.210 343.206 184.693 46.543 898.985 159.360 399.979 213.983 177.892 672.149 249.614 381.376 193.226 209.866 204.923 462.853 162.594 243.442 178.001 356.528 662.802 552.910 160.168 231.113 166.092 0.000 327.829 203.070 180.945 300.738 163.397 157.795 352.175 561.013 355.617 193.154 244.508 186.064 670.690 231.415 146.540 306.147 163.717 431.107 125.157 167.092 545.646 164.030 336.214 366.010 358.795 225.293 367.737 159.957 444.158 201.836 155.772 202.672 516.917 360.235 198.921 364.614 130.141 322.965 377.858 671.990 425.208
265.788 246.433 277.471 429.495 420.672 311.052 383.333 242.578 168.074 417.504 321.611 477.726 103.291 262.751 375.300 334.046 322.790 1707.983 259.854 296.583 231.222 359.254 278.082 555.867 402.247 284.955 1668.329 332.298 244.142 427.356 266.344 205.091 189.438 414.892 368.930 464.033 430.893 187.176 331.420 396.774 392.819 387.873 543.173 1090.711 1738.922 411.553 352.071 111.042 389.500 1724.635 398.011 150.647 481.024 314.555 116.604 355.253 171.354 84.868 409.199 354.794 202.077 401.377 411.972 367.323 111.372 413.572 319.194 201.997 1739.040 347.014 372.040 426.010 433.641 89.450 418.125 322.725 645.262 366.445 157.910 447.414 316.324 418.425 198.979 323.552 232.831 443.298 315.271 563.674 396.026 194.361 390.431 589.959 409.078 301.879 393.599 464.544 399.523 368.371 0.000 250.534 414.376 405.587 396.828 364.880 289.060 309.982 286.919 401.539 291.020 283.891 416.966 192.738 379.972 187.189 370.802 494.435 458.817 400.523 294.615 305.920 85.183 112.254 290.098 204.845 472.587 367.042 307.588 435.267 329.424 436.104 592.517 314.608 432.353 469.463 337.226 291.967 482.708 418.266 288.638
201.151 391.197 296.892 215.753 206.930 94.679 204.022 48.865 191.658 337.721 466.375 622.490 278.293 158.440 158.927 183.415 106.417 1852.747 141.206 353.023 190.118 201.156 159.434 502.062 310.090 304.376 1813.093 142.343 263.562 276.725 116.597 308.904 88.850 201.150 176.899 371.876 487.052 333.051 180.789 188.923 229.606 203.555 455.045 1235.476 1883.686 197.811 185.074 286.044 186.095 1869.399 194.606 296.522 388.867 164.808 291.606 157.065 317.229 229.665 233.407 156.605 67.769 217.058 213.784 216.692 286.373 229.253 168.563 86.845 1883.804 197.267 218.794 333.853 249.323 234.247 204.383 172.094 790.026 174.414 303.785 251.907 101.883 563.189 92.135 342.972 114.183 258.979 98.899 475.546 192.620 87.517 174.059 426.835 553.842 443.951 242.968 269.037 215.204 217.740 218.869 0.000 210.971 313.430 183.087 172.849 308.480 452.053 306.340 203.351 106.264 60.870 561.730 63.467 182.785 150.042 174.119 443.800 308.185 186.781 436.686 91.479 227.254 257.051 309.518 82.447 380.430 213.796 364.029 284.636 114.983 222.362 529.609 334.028 218.611 377.306 186.595 311.387 390.551 563.031 345.079
245.091 539.856 417.191 83.071 74.247 144.769 14.236 235.426 340.318 399.710 615.035 771.150 426.952 202.379 77.185 101.561 135.407 2001.407 223.188 501.683 272.500 43.972 235.542 564.051 372.079 425.765 1961.753 103.129 412.221 166.761 204.324 457.563 275.411 68.467 112.108 433.865 569.547 481.710 80.706 181.495 55.373 54.316 517.034 1384.135 2032.346 65.128 62.819 434.704 43.076 2018.058 39.595 445.181 450.856 226.797 440.266 85.665 465.889 378.324 84.169 99.388 254.330 67.820 90.594 43.199 435.033 80.015 160.976 271.217 2032.463 259.256 34.593 395.842 100.084 382.906 71.700 146.189 938.685 109.623 452.445 119.224 138.822 711.849 278.696 456.058 232.926 109.741 153.903 537.535 37.609 274.078 65.008 294.152 702.502 592.610 154.018 136.354 65.966 171.889 367.529 194.970 0.000 375.419 50.404 108.059 426.856 600.713 430.298 80.160 193.488 177.964 710.390 250.028 33.547 287.256 134.906 505.789 262.334 54.098 585.346 139.048 375.914 405.710 433.477 264.993 442.419 37.529 512.688 174.672 118.301 89.679 591.598 434.917 85.928 439.295 64.091 397.646 452.540 711.690 493.738
420.259 409.492 203.490 422.228 413.405 313.787 378.122 336.129 348.608 51.441 635.874 791.989 428.512 377.547 365.401 328.835 325.525 2022.246 237.095 363.946 411.756 349.165 249.449 215.782 8.085 170.985 1982.591 322.210 229.361 422.145 238.148 319.827 341.973 407.625 358.841 85.596 314.767 382.212 321.331 387.975 382.730 382.662 168.764 1292.476 2053.185 404.285 341.982 436.264 384.289 2038.897 392.800 368.240 102.587 255.802 441.826 345.164 366.390 399.163 403.988 344.705 332.735 396.166 401.883 362.112 436.593 408.361 274.433 328.534 2053.302 155.833 361.951 42.190 428.430 403.745 410.857 272.636 847.026 356.356 375.503 442.203 319.059 732.688 346.632 201.277 291.747 438.086 318.006 189.265 390.815 340.460 380.533 584.748 723.341 613.449 388.388 459.333 394.312 318.282 388.368 303.632 409.165 0.000 389.561 354.791 172.076 621.552 175.518 391.450 357.591 286.626 731.229 328.433 374.761 367.723 360.713 157.519 408.728 393.256 606.185 308.654 396.753 426.549 178.696 322.311 94.150 356.953 374.952 430.056 332.159 428.836 243.329 180.136 425.085 91.026 327.137 183.946 104.271 732.529 356.002
219.240 528.404 410.118 53.511 44.688 118.919 43.332 209.575 328.866 392.637 603.582 759.698 415.500 176.528 51.334 90.109 109.557 1989.955 216.115 490.230 246.649 60.294 228.469 556.978 365.006 418.692 1950.300 77.278 400.769 141.815 192.872 446.111 249.560 38.908 94.437 426.792 562.474 470.258 101.880 159.797 77.149 42.864 509.961 1372.683 2020.894 35.569 79.141 423.251 25.404 2006.606 33.915 433.729 443.783 219.724 428.813 59.814 454.436 366.872 72.717 73.538 228.479 56.367 72.922 65.331 423.581 68.562 153.903 247.556 2021.011 252.183 63.689 388.769 88.632 371.454 42.140 139.116 927.233 91.952 440.992 89.665 112.972 700.397 252.845 448.985 221.474 98.288 128.052 530.462 31.930 248.228 44.164 264.592 691.050 581.158 142.565 106.795 54.514 160.436 356.077 169.120 50.280 368.346 0.000 90.387 419.783 589.261 423.225 62.489 167.637 152.113 698.938 224.177 22.095 261.405 109.055 498.716 250.882 24.539 573.893 113.198 364.462 394.258 426.404 243.157 435.346 66.625 501.236 153.065 92.451 60.120 584.525 427.844 56.369 432.222 85.265 390.573 445.467 700.238 482.286
205.513 517.251 395.214 101.899 93.076 105.191 61.579 195.848 317.712 377.733 592.429 748.544 404.347 162.801 36.924 128.035 95.829 1978.801 201.211 479.077 232.922 45.798 213.565 542.074 350.102 403.788 1939.147 52.104 389.616 190.202 181.719 434.958 235.833 87.296 4.050 411.888 547.570 459.105 87.385 139.358 74.248 80.791 495.056 1361.530 2009.740 83.956 64.645 412.098 43.651 1995.453 52.162 422.576 428.879 204.819 417.660 40.719 443.283 355.719 110.643 46.818 214.752 94.294 58.426 87.480 412.428 106.489 138.999 233.828 2009.858 237.279 63.437 373.865 126.558 360.301 90.528 124.212 916.080 1.565 429.839 138.052 98.056 689.244 239.118 434.081 210.321 136.215 114.325 515.557 50.177 234.500 61.080 312.980 679.897 570.005 180.492 155.182 92.440 169.858 344.923 155.392 68.527 353.442 69.232 0.000 404.879 578.107 408.321 47.993 153.910 138.386 687.785 210.450 60.021 247.678 83.881 483.811 260.303 72.927 562.740 98.282 353.308 383.105 411.499 229.430 420.441 58.439 490.083 201.146 75.936 108.507 569.621 412.939 104.756 417.318 70.769 375.669 430.563 689.085 471.133
312.360 275.530 85.775 432.730 423.907 324.289 388.624 305.138 214.646 194.279 501.912 658.027 294.550 309.323 375.904 339.337 336.027 1888.284 247.597 229.984 277.794 359.668 259.952 332.642 178.214 67.880 1848.630 332.712 111.646 432.647 248.650 185.865 251.998 418.127 369.343 240.000 204.477 248.250 331.834 398.477 393.233 393.165 319.948 1158.514 1919.223 414.787 352.484 302.302 394.791 1904.935 403.302 234.278 256.991 266.304 307.864 355.666 232.429 265.202 414.490 355.207 264.637 406.668 412.386 372.614 302.631 418.863 284.935 264.557 1919.340 166.336 372.453 201.977 438.932 269.783 421.359 283.138 713.064 366.858 241.542 452.705 329.561 598.726 261.539 43.712 295.391 448.589 328.508 340.449 401.317 256.922 391.035 595.250 589.379 479.487 398.890 469.835 404.814 328.784 254.406 313.094 419.667 181.554 400.063 365.294 0.000 487.590 79.856 401.952 337.592 297.128 597.267 255.298 385.263 233.761 371.215 271.210 419.230 403.758 472.223 319.157 262.791 292.587 83.034 267.405 248.554 367.455 240.990 440.559 342.661 439.338 369.292 28.812 435.587 245.431 337.639 63.473 258.675 598.567 222.040
452.052 388.098 503.693 615.759 606.936 497.316 569.597 428.842 354.337 643.726 130.643 367.128 329.513 449.014 561.563 520.309 509.054 1597.385 446.117 454.141 417.486 545.518 464.345 782.089 628.469 511.177 1557.731 518.562 470.364 613.620 452.608 431.313 375.702 601.156 555.194 690.255 588.450 413.398 517.684 583.038 579.083 574.137 769.395 1232.377 1628.324 597.816 538.335 337.264 575.764 1614.036 584.275 376.869 707.246 500.819 342.826 541.517 397.576 278.151 595.463 541.057 388.340 587.640 598.236 553.587 337.594 599.835 505.457 388.261 1628.441 533.278 558.303 652.232 619.905 282.733 604.388 508.989 786.927 552.709 384.132 633.678 502.588 307.827 385.243 549.774 419.094 629.561 501.535 789.896 582.289 380.625 576.695 776.223 298.480 36.236 579.863 650.808 585.787 554.635 307.517 436.798 600.640 631.809 583.092 551.144 515.282 0.000 513.141 587.803 477.284 470.155 306.368 379.002 566.235 373.453 557.066 720.657 645.080 586.787 15.367 492.183 256.111 305.537 516.320 391.108 698.809 553.306 465.146 621.531 515.688 622.367 818.739 540.830 618.616 695.685 523.490 518.189 708.930 307.668 446.196
357.759 320.930 103.279 410.177 401.353 301.735 366.071 324.077 260.045 193.987 547.311 703.426 339.950 354.722 353.350 316.783 313.473 1933.683 225.044 275.384 323.194 337.114 237.398 345.243 166.356 70.774 1894.029 310.158 129.150 410.094 226.097 231.265 297.398 395.573 346.790 228.142 271.313 293.650 309.280 375.924 370.679 370.611 311.311 1203.913 1964.622 392.234 329.931 347.701 372.238 1950.335 380.749 279.678 245.133 243.751 353.263 333.113 277.828 310.601 391.937 332.654 310.036 384.114 389.832 350.061 348.031 396.309 262.382 309.957 1964.740 143.782 349.900 190.119 416.379 315.183 398.806 260.585 758.463 344.305 286.941 430.152 307.007 644.126 306.939 128.202 279.696 426.035 305.955 331.812 378.763 302.321 368.482 572.697 634.779 524.887 376.337 447.282 382.261 306.231 299.805 291.581 397.114 169.696 377.510 342.740 93.710 532.989 0.000 379.399 345.540 274.574 642.667 300.698 362.709 279.161 348.662 283.810 396.676 381.204 517.622 296.603 308.190 337.987 3.178 310.260 236.696 344.902 286.390 418.005 320.108 416.785 381.892 119.258 413.034 233.572 315.086 83.735 246.817 643.967 267.439
248.712 522.490 394.214 121.646 112.823 148.390 52.811 239.047 322.952 376.733 597.668 753.783 409.586 206.000 80.123 104.419 139.028 1984.040 200.211 484.316 276.121 16.142 212.565 541.074 349.101 402.788 1944.386 89.180 390.463 182.191 186.958 440.197 267.289 107.042 89.399 410.887 546.570 464.344 57.729 154.945 54.560 92.892 494.056 1366.769 2014.979 103.703 34.989 417.337 81.651 2000.692 78.170 427.815 427.879 203.819 422.899 83.918 448.522 360.958 114.609 90.017 257.951 106.395 98.055 57.824 417.667 118.590 137.999 253.850 2015.097 236.279 33.781 372.865 138.659 365.540 110.275 123.212 921.319 86.914 435.078 157.799 141.255 694.483 271.948 433.080 215.560 148.316 157.524 514.557 76.184 265.776 103.583 332.727 685.136 575.244 157.016 174.929 104.541 168.858 350.163 198.591 94.535 352.442 88.979 85.350 403.879 583.346 407.321 0.000 197.109 181.585 693.024 253.649 72.122 290.877 127.080 482.811 259.303 92.674 567.979 141.481 358.547 388.344 410.499 247.627 419.441 28.783 495.322 190.102 119.135 128.254 568.621 411.939 124.503 416.318 41.113 374.669 429.563 694.324 476.372
97.576 433.179 331.501 201.419 192.596 82.955 189.688 135.607 211.944 379.057 519.009 675.124 330.926 54.864 144.592 223.887 94.693 1905.381 188.290 387.633 124.985 189.325 206.518 543.398 351.426 338.986 1865.727 133.043 298.172 289.722 157.933 343.514 174.985 186.815 167.599 413.212 521.662 367.661 185.779 215.561 217.775 189.220 496.381 1288.109 1936.320 183.476 175.774 338.678 171.760 1922.032 180.271 331.131 430.203 206.144 344.240 147.765 351.839 282.298 219.073 147.305 154.512 202.723 201.953 211.687 339.007 214.918 209.899 173.588 1936.437 238.603 206.964 375.189 234.988 286.880 190.048 205.151 842.659 165.114 338.395 237.572 137.931 615.823 178.878 377.582 186.535 244.644 74.824 516.882 178.286 174.260 159.724 412.500 606.476 496.584 283.440 254.702 200.870 250.796 271.503 95.152 196.636 354.766 168.752 163.550 343.090 504.687 340.950 191.520 0.000 113.174 614.364 150.210 168.451 139.741 164.820 485.136 341.242 172.447 489.320 131.215 279.888 309.684 344.128 169.189 421.766 201.966 398.639 300.972 135.717 208.027 570.945 368.638 204.276 418.642 182.846 345.997 431.887 615.664 379.689
191.395 425.371 328.444 205.997 197.174 84.923 194.266 84.780 225.833 310.964 500.549 656.665 312.467 148.684 149.171 156.657 96.661 1886.922 120.196 387.197 218.805 181.865 138.424 475.305 283.332 337.019 1847.267 130.655 297.736 249.968 89.839 343.078 124.766 191.394 165.212 345.118 480.801 367.225 154.032 177.235 215.431 193.799 428.287 1269.650 1917.861 188.055 173.387 320.219 176.339 1903.573 184.850 330.696 362.110 138.050 325.780 145.377 351.403 263.839 223.651 144.918 103.685 207.302 202.096 189.934 320.548 219.497 141.805 122.761 1917.978 170.509 194.651 307.096 239.567 268.421 194.627 145.337 824.200 162.726 337.960 242.151 90.195 597.364 128.051 367.311 118.441 249.223 89.143 448.788 182.864 123.433 164.303 412.570 588.017 478.125 216.210 259.281 205.448 190.982 253.044 44.325 201.215 286.673 173.331 161.162 338.110 486.228 340.514 191.663 110.725 0.000 595.905 99.382 173.029 185.958 162.432 417.042 281.428 177.025 470.861 79.791 261.429 291.225 343.692 118.362 353.672 189.653 398.203 257.879 103.295 212.606 502.852 346.170 208.855 350.549 159.837 308.900 363.793 597.205 379.253
565.939 475.318 614.666 729.646 720.823 611.203 683.484 542.729 468.225 754.699 191.800 93.555 428.739 562.902 675.451 634.197 622.941 1364.011 560.005 541.361 531.373 659.405 578.232 893.062 739.442 622.150 1324.357 632.449 581.336 727.507 566.495 542.286 489.589 715.043 669.081 801.228 675.671 524.371 631.571 696.925 692.970 688.024 880.368 1319.597 1394.950 711.704 652.222 436.491 689.651 1380.663 698.162 487.841 818.219 614.706 442.052 655.404 508.549 389.124 709.350 654.945 502.228 701.527 712.123 667.474 436.820 713.722 619.345 502.148 1395.068 647.165 672.190 763.205 733.792 393.706 718.275 622.876 874.147 666.596 495.105 747.565 616.475 51.927 499.130 660.747 532.982 743.448 615.422 900.869 696.177 494.512 690.582 890.110 35.024 328.068 693.750 764.695 699.674 668.522 418.490 550.685 714.527 742.782 696.979 665.031 626.255 304.085 624.114 701.690 591.171 584.042 0.000 492.889 680.122 487.340 670.953 831.629 758.967 700.674 307.200 606.071 382.460 416.510 627.292 504.996 809.782 667.193 552.367 735.418 629.575 736.254 929.712 651.803 732.503 806.658 637.377 629.162 819.903 39.151 533.416
166.208 331.362 237.057 258.546 249.723 137.472 245.715 64.701 131.824 349.850 406.540 562.655 218.458 163.171 201.719 196.427 149.210 1792.913 122.235 293.188 131.642 221.636 140.463 514.191 322.219 244.541 1753.258 185.135 203.727 289.738 128.725 249.069 27.883 243.942 219.692 384.005 427.218 273.216 193.802 231.715 255.201 246.347 467.173 1175.641 1823.852 240.603 214.452 226.209 228.887 1809.564 237.398 236.687 400.996 176.936 231.771 199.857 257.394 169.830 271.581 199.398 18.718 259.850 256.576 229.704 226.539 272.045 181.575 23.378 1823.969 209.396 234.421 345.982 292.115 174.412 247.175 185.107 730.191 217.207 243.950 294.699 144.675 503.355 31.168 283.137 95.212 301.771 141.691 487.674 235.413 26.550 216.851 452.341 494.008 384.116 255.980 311.829 257.997 230.752 159.035 67.175 253.763 325.559 225.879 215.642 248.645 392.219 246.505 246.143 149.056 103.662 501.896 0.000 225.578 89.075 216.912 454.020 321.198 229.574 376.851 134.271 167.420 197.216 249.683 18.980 392.559 229.423 304.194 297.649 157.776 265.154 541.738 274.194 261.403 389.435 199.608 251.552 402.680 503.196 285.244
236.192 511.719 393.433 74.172 65.349 135.871 28.010 226.527 312.181 375.953 586.898 743.013 398.815 193.480 68.286 73.424 126.509 1973.270 199.430 473.546 263.602 64.679 211.785 540.293 348.321 402.008 1933.616 94.231 384.085 138.624 176.187 429.427 256.518 59.569 103.210 410.107 545.790 453.574 96.895 176.749 76.079 26.180 493.276 1355.998 2004.209 56.230 83.525 406.567 34.177 1989.921 42.688 417.044 427.099 203.039 412.129 76.766 437.752 350.188 56.032 90.490 245.432 39.683 81.695 48.646 406.896 51.878 137.219 243.080 2004.326 235.498 55.300 372.085 71.947 354.769 62.801 122.432 910.548 100.725 424.308 110.326 129.924 683.712 261.177 432.300 204.789 81.604 145.004 513.777 40.703 255.005 56.109 285.253 674.365 564.474 125.881 127.456 37.829 143.752 339.392 186.072 59.053 351.662 41.505 99.160 403.099 572.576 406.541 71.262 184.589 169.065 682.253 241.130 0.000 278.358 126.008 482.031 234.198 45.200 557.209 130.150 347.777 377.573 409.719 236.856 418.661 58.236 484.552 146.535 109.403 80.781 567.841 411.159 77.030 415.538 84.797 373.889 428.782 683.553 465.601
109.537 330.476 228.798 288.193 279.370 176.924 276.462 142.476 87.773 368.831 416.305 572.420 228.223 106.500 231.367 251.185 188.662 1802.678 176.993 284.930 74.971 276.100 195.221 507.194 353.574 236.282 1763.023 219.817 195.469 344.496 183.483 240.811 73.638 273.590 254.374 415.360 418.959 264.958 248.559 302.335 304.549 275.994 494.500 1185.406 1833.617 270.250 262.549 235.974 258.534 1819.329 267.045 228.428 432.351 231.694 241.536 234.539 249.136 179.595 305.847 234.080 96.493 289.498 288.727 284.462 236.304 301.693 236.333 96.413 1833.734 264.153 289.179 377.337 321.762 184.177 276.822 239.864 739.956 251.889 235.692 324.346 222.451 513.120 93.395 274.879 149.970 331.418 171.864 515.001 265.060 88.777 246.498 499.274 503.773 393.881 310.738 341.476 287.644 285.510 168.800 144.950 283.410 356.914 255.526 250.324 240.387 401.984 238.246 278.294 134.770 181.437 511.661 87.154 255.225 0.000 251.594 445.762 375.956 259.221 386.616 212.046 177.185 206.981 241.425 99.261 423.914 284.181 295.935 352.407 222.492 294.801 543.844 265.935 291.050 420.790 254.365 243.294 434.035 512.961 276.985
206.101 507.077 381.867 135.222 126.399 105.780 118.031 186.837 307.539 364.387 582.256 738.371 394.173 163.390 78.396 129.602 96.418 1968.628 187.864 468.904 233.511 102.250 200.219 528.727 336.755 390.442 1928.974 38.758 378.117 222.913 171.545 424.784 226.822 120.619 75.390 398.541 534.224 448.931 91.494 126.012 130.700 123.024 481.710 1351.356 1999.567 117.280 81.490 401.925 100.103 1985.279 108.614 412.402 415.533 191.473 407.487 58.159 433.110 345.545 152.876 57.699 205.741 136.527 114.878 140.409 402.254 148.722 125.653 224.818 1999.684 223.932 116.694 360.519 168.791 350.127 123.851 110.866 905.906 72.904 419.666 171.375 87.883 679.070 230.107 420.734 200.147 178.448 114.914 502.211 106.628 225.490 93.527 346.303 669.723 559.831 189.155 188.506 134.673 156.511 334.750 146.382 124.979 340.096 102.555 71.340 391.533 567.934 394.975 104.445 154.498 129.375 677.611 201.439 102.254 248.267 0.000 470.465 246.957 106.250 552.567 88.109 343.135 372.931 398.153 220.419 407.095 111.696 479.909 230.824 65.762 141.830 556.275 399.593 138.079 403.972 88.562 362.323 417.216 678.911 460.959
527.059 490.229 314.999 546.238 537.415 437.797 502.133 460.139 429.345 173.912 716.611 872.726 509.249 501.558 489.412 452.845 449.535 2102.983 361.106 444.683 492.493 473.176 373.460 66.654 152.348 292.524 2063.329 446.220 340.870 546.156 362.158 400.564 465.984 531.635 482.852 89.775 367.882 462.949 445.342 511.986 506.741 506.673 53.959 1373.213 2133.922 528.296 465.993 517.001 508.300 2119.634 516.811 448.977 114.705 379.813 522.563 469.175 447.128 479.901 527.999 468.716 456.746 520.176 525.894 486.123 517.330 532.371 398.444 452.545 2134.039 279.844 485.961 176.111 552.441 484.482 534.868 396.647 927.763 480.367 456.241 566.214 443.069 813.425 470.642 282.497 415.758 562.097 442.017 74.460 514.825 464.471 504.544 708.759 804.078 694.187 512.399 583.344 518.323 442.292 469.105 427.643 533.176 160.433 513.572 478.802 252.813 702.289 284.326 515.461 481.601 410.636 811.966 452.444 498.771 448.460 484.724 0.000 532.738 517.266 686.922 432.665 477.490 507.286 287.504 446.322 112.103 480.964 455.689 554.067 456.169 552.847 103.303 260.873 549.096 102.001 451.148 292.697 103.077 813.266 436.739
389.374 571.961 435.773 289.327 280.504 289.053 243.165 332.374 393.881 418.292 668.598 824.713 480.516 346.662 261.669 193.878 279.691 2054.970 241.770 526.416 416.784 245.433 254.124 582.633 390.661 444.347 2015.316 218.477 432.023 287.188 239.564 482.296 338.219 274.724 255.109 452.447 588.129 522.508 217.599 284.242 278.998 247.705 535.616 1437.699 2085.909 271.385 238.249 488.267 249.332 2071.622 257.843 485.978 469.438 245.379 493.829 241.431 506.686 431.888 269.031 240.972 328.981 261.209 296.850 227.155 488.596 273.404 181.264 324.780 2086.027 277.838 258.218 414.424 293.473 436.470 277.957 139.806 992.249 252.623 493.242 307.246 271.156 765.412 342.877 474.640 286.490 303.130 298.186 556.116 255.858 336.706 271.265 449.791 756.065 646.174 253.431 324.376 259.355 127.974 421.092 296.334 274.208 394.001 256.660 251.059 445.438 654.276 448.880 286.417 337.771 279.327 763.953 324.679 239.804 399.411 256.980 524.370 0.000 260.355 638.909 257.293 429.477 459.274 452.058 318.556 461.001 253.220 537.421 295.099 249.035 295.936 610.180 453.499 292.185 457.877 223.405 416.228 471.122 765.254 518.471
229.114 538.277 419.991 63.385 20.149 128.792 53.205 219.448 338.739 402.511 613.456 769.571 425.373 186.402 61.207 99.982 119.430 1999.828 225.989 500.104 256.523 70.168 238.343 566.852 374.879 428.566 1960.174 87.152 410.643 117.276 202.745 455.985 259.434 14.369 104.310 436.665 572.348 480.132 111.754 169.670 87.022 52.738 519.834 1382.556 2030.767 45.442 89.014 433.125 35.278 2016.479 43.789 443.602 453.657 229.597 438.687 69.688 464.310 376.746 70.639 83.411 238.353 66.241 82.796 75.204 433.454 78.436 163.777 257.429 2030.884 262.056 73.563 398.643 98.505 381.327 17.601 148.990 937.106 101.825 450.866 65.125 122.845 710.270 262.719 458.858 231.347 92.208 137.926 540.335 41.803 258.101 54.038 240.053 700.923 591.032 148.054 82.256 64.387 170.310 365.950 178.993 60.153 378.220 20.842 100.261 429.657 599.134 433.099 72.362 177.510 161.987 708.811 234.051 31.968 271.279 118.929 508.589 260.756 0.000 583.767 123.071 374.335 404.131 436.277 253.030 445.219 76.499 511.110 128.526 102.324 35.580 594.399 437.717 66.242 442.096 95.139 400.447 455.340 710.111 492.159
436.684 372.731 488.326 600.392 591.569 481.949 554.230 413.474 338.970 628.358 133.758 370.243 314.146 433.647 546.196 504.942 493.687 1600.500 430.750 438.773 402.118 530.151 448.978 766.722 613.102 495.810 1560.846 503.195 454.996 598.253 437.240 415.946 360.335 585.789 539.827 674.888 573.083 398.031 502.317 567.671 563.716 558.770 754.028 1217.010 1631.439 582.449 522.968 321.897 560.397 1617.151 568.908 361.501 691.879 485.452 327.459 526.150 382.209 262.784 580.096 525.690 372.973 572.273 582.869 538.220 322.226 584.468 490.090 372.894 1631.556 517.911 542.936 636.865 604.538 267.366 589.021 493.622 771.560 537.342 368.765 618.311 487.221 310.942 369.876 534.407 403.727 614.194 486.168 774.529 566.922 365.258 561.328 760.856 301.595 20.869 564.496 635.441 570.420 539.267 292.150 421.431 585.273 616.442 567.725 535.777 499.915 15.367 497.774 572.436 461.917 454.787 309.483 363.635 550.868 358.086 541.699 705.289 629.713 571.420 0.000 476.816 240.744 290.170 500.952 375.741 683.442 537.938 449.779 606.164 500.321 607.000 803.372 525.463 603.249 680.318 508.123 502.822 693.563 310.783 430.829
186.270 435.600 338.673 145.527 136.704 55.495 133.796 115.360 236.062 321.193 510.778 666.894 322.696 143.558 88.700 124.140 44.115 1897.151 130.425 397.426 213.679 127.814 148.653 485.533 293.561 347.248 1857.496 69.000 307.965 217.451 100.068 353.307 155.345 130.923 103.557 355.347 491.030 377.454 121.515 102.864 156.264 133.328 438.516 1279.879 1928.090 127.584 111.732 330.448 115.868 1913.802 124.379 340.925 372.339 148.279 336.009 83.723 361.632 274.068 163.181 83.263 134.264 146.831 140.442 155.795 330.777 159.026 112.244 153.341 1928.207 180.738 145.452 317.325 179.096 278.650 134.156 112.820 834.429 101.072 348.189 181.680 28.541 607.593 158.630 377.540 128.670 188.752 88.099 459.017 122.394 154.013 103.832 356.608 598.246 488.354 183.693 198.810 144.978 158.465 263.273 74.904 140.744 296.902 112.860 99.507 348.339 496.457 350.743 130.009 127.684 57.898 606.134 129.962 112.559 216.537 95.348 427.271 248.911 116.555 481.090 0.000 271.658 301.454 353.921 148.942 363.901 140.454 408.432 225.362 41.641 152.135 513.081 356.399 148.384 360.778 118.804 319.129 374.022 607.434 389.482
224.989 212.653 276.630 388.696 379.873 270.253 342.534 201.779 127.274 416.663 287.831 443.946 102.450 221.951 334.500 293.246 281.991 1674.203 219.054 278.695 190.423 318.455 237.282 555.026 401.406 284.114 1634.549 291.499 243.300 386.557 225.545 204.250 148.639 374.093 328.131 463.192 413.005 186.335 290.621 355.975 352.020 347.074 542.332 1056.931 1705.142 370.753 311.272 110.201 348.701 1690.855 357.212 149.805 480.183 273.756 115.763 314.454 170.513 51.088 368.400 313.994 161.277 360.577 371.173 326.524 110.530 372.772 278.394 161.198 1705.260 306.215 331.240 425.169 392.842 55.670 377.325 281.926 611.482 325.646 157.069 406.615 275.525 384.645 158.180 322.711 192.031 402.498 274.472 562.833 355.226 153.562 349.632 549.160 375.298 249.828 352.800 423.745 358.724 327.571 80.454 209.735 373.577 404.746 356.029 324.081 288.219 257.931 286.078 360.740 250.221 243.092 383.186 151.939 339.172 146.390 330.003 493.593 418.017 359.724 242.564 265.120 0.000 78.474 289.256 164.045 471.746 326.242 289.701 394.468 288.625 395.304 591.676 313.767 391.553 468.622 296.427 291.126 481.867 384.486 270.751
292.040 212.882 306.299 455.747 446.924 337.304 409.585 268.830 194.326 446.332 288.060 444.175 100.027 289.003 401.552 360.298 349.042 1674.432 286.106 278.924 257.474 385.506 304.334 584.696 431.075 313.783 1634.778 358.550 272.970 453.608 292.596 233.919 215.690 441.144 395.182 492.861 413.234 216.004 357.672 423.026 419.071 414.126 572.001 1057.161 1705.371 437.805 378.323 107.778 415.752 1691.084 424.263 179.475 509.852 340.807 113.340 381.505 200.182 43.000 435.451 381.046 228.329 427.629 438.224 393.575 108.107 439.824 345.446 228.249 1705.489 373.266 398.292 454.838 459.893 28.701 444.377 348.977 611.711 392.697 186.738 473.666 342.576 384.874 225.231 352.380 259.083 469.550 341.523 592.502 422.278 220.613 416.683 616.211 375.528 319.740 419.851 490.796 425.775 394.623 110.123 276.786 440.628 434.415 423.081 391.132 317.888 325.394 315.748 427.791 317.272 310.143 383.415 218.990 406.224 213.441 397.054 523.263 485.069 426.775 310.027 332.172 111.435 0.000 318.926 231.097 501.415 393.294 289.930 461.520 355.676 462.356 621.345 343.436 458.605 498.292 363.478 320.795 511.536 384.716 270.980
360.938 324.108 106.458 413.355 404.532 304.914 369.249 327.256 263.224 197.165 550.489 706.605 343.128 357.901 356.528 319.962 316.652 1936.862 228.222 278.562 326.372 340.292 240.576 348.421 169.534 73.952 1897.207 313.337 132.329 413.272 229.275 234.443 300.576 398.751 349.968 231.320 274.491 296.828 312.458 379.102 373.857 373.789 314.489 1207.091 1967.801 395.412 333.109 350.880 375.416 1953.513 383.927 282.856 248.311 246.929 356.442 336.291 281.006 313.779 395.115 335.832 313.215 387.292 393.010 353.239 351.209 399.487 265.560 313.135 1967.918 146.960 353.078 193.297 419.557 318.361 401.984 263.763 761.642 347.483 290.119 433.330 310.186 647.304 310.117 131.380 282.874 429.213 309.133 334.990 381.942 305.499 371.660 575.875 637.957 528.065 379.515 450.460 385.439 309.409 302.984 294.759 400.292 172.874 380.688 345.918 96.888 536.168 3.178 382.577 348.718 277.752 645.845 303.876 365.887 282.339 351.840 286.988 399.854 384.383 520.801 299.781 311.369 341.165 0.000 313.438 239.874 348.080 289.568 421.183 323.286 419.963 385.071 122.436 416.212 236.751 318.264 86.913 249.995 647.145 270.618
181.275 332.175 237.870 276.602 267.779 155.528 238.272 82.757 132.636 342.408 407.353 563.468 219.271 178.238 219.776 188.985 167.266 1793.725 114.793 294.001 146.709 214.193 133.021 506.748 314.776 245.354 1754.071 187.238 204.540 282.295 121.283 249.882 42.950 261.999 223.869 376.562 428.031 274.029 186.359 249.772 247.758 242.813 459.731 1176.454 1824.664 258.660 207.010 227.022 244.439 1810.377 252.950 237.500 393.554 169.494 232.584 210.192 258.207 170.643 264.138 209.733 36.774 256.316 266.911 222.262 227.352 268.511 174.133 13.850 1824.782 201.953 226.979 338.540 288.580 175.225 265.231 177.664 731.004 221.384 244.763 302.353 162.732 504.167 24.321 283.950 87.770 298.237 159.747 480.232 250.965 19.703 234.907 444.898 494.821 384.929 248.538 319.483 254.462 223.310 159.847 85.231 269.315 318.117 243.935 219.819 249.458 393.031 247.318 256.478 167.112 121.718 502.708 18.056 234.911 104.142 225.741 448.486 313.756 247.630 377.664 152.327 168.232 198.029 250.496 0.000 385.116 221.981 305.007 290.207 175.832 283.210 534.296 275.007 279.459 381.993 192.165 252.365 395.237 504.009 286.057
477.105 466.338 260.337 479.074 470.251 370.633 434.969 392.975 405.454 106.748 692.720 848.835 485.359 434.393 422.248 385.681 382.371 2079.092 293.941 420.792 468.602 406.012 306.296 128.358 85.184 227.831 2039.438 379.056 286.208 478.992 294.994 376.673 398.820 464.471 415.688 33.869 371.613 439.059 378.178 444.821 439.577 439.509 81.341 1349.322 2110.031 461.132 398.829 493.110 441.135 2095.744 449.647 425.086 24.073 312.648 498.672 402.011 423.237 456.010 460.834 401.551 389.582 453.012 458.730 418.958 493.439 465.207 331.280 385.381 2110.149 212.680 418.797 108.947 485.276 460.592 467.703 329.483 903.872 413.203 432.350 499.049 375.905 789.534 403.478 258.124 348.594 494.933 374.852 101.841 447.661 397.307 437.379 641.594 780.187 670.296 445.234 516.179 451.158 375.128 445.214 360.478 466.011 93.269 446.407 411.638 228.922 678.398 232.364 448.297 414.437 343.472 788.075 385.280 431.607 424.570 417.560 110.937 465.574 450.102 663.031 365.501 453.599 483.395 235.542 379.157 0.000 413.799 431.798 486.903 389.005 485.682 155.905 236.983 481.931 61.205 383.984 240.792 24.843 789.375 412.848
244.356 518.134 389.857 117.290 108.466 144.034 48.455 234.690 318.595 372.377 593.312 749.427 405.229 201.644 75.767 100.062 134.672 1979.684 195.855 479.960 271.765 11.786 208.209 536.717 344.745 398.432 1940.030 84.823 386.107 177.834 182.602 435.841 262.933 102.686 85.043 406.531 542.214 459.988 53.372 150.589 42.648 88.535 489.700 1362.412 2010.623 99.347 30.633 412.981 77.294 1996.336 73.814 423.459 423.523 199.463 418.543 79.562 444.166 356.602 110.252 85.661 253.595 102.038 69.273 53.467 413.310 114.233 133.643 249.494 2010.741 231.922 29.424 368.509 134.303 361.184 105.919 118.856 916.963 82.558 430.722 153.443 136.899 690.126 267.591 428.724 211.204 143.959 153.168 510.201 71.828 261.420 99.227 328.371 680.779 570.888 152.660 170.573 100.185 164.501 345.806 194.235 90.178 348.086 84.623 80.993 399.523 578.990 402.965 58.839 192.753 177.229 688.667 249.293 67.766 286.521 122.724 478.455 254.947 88.317 563.623 137.125 354.191 383.987 406.143 243.270 415.085 0.000 490.966 185.746 114.779 123.898 564.265 407.583 120.147 411.962 36.757 370.313 425.206 689.967 472.016
376.633 137.161 245.282 539.228 530.405 430.787 495.123 369.411 278.919 385.314 438.364 594.479 290.968 373.596 482.402 445.835 442.525 1824.736 354.096 11.006 342.067 466.166 366.450 523.678 370.058 252.766 1785.082 439.210 211.952 539.146 355.148 160.900 316.271 524.625 475.842 431.844 198.564 223.285 438.332 504.975 499.731 499.663 510.984 1020.144 1855.675 521.286 458.983 283.324 501.290 1841.387 509.801 209.313 448.835 372.803 301.152 462.165 207.464 311.171 520.989 461.705 328.910 513.166 518.884 479.112 288.163 525.361 391.434 328.830 1855.792 333.580 478.951 393.821 545.431 315.753 527.857 389.637 574.695 473.357 216.577 559.203 436.059 535.178 325.812 291.362 359.664 555.087 435.006 531.484 507.815 321.194 497.533 701.749 525.831 470.043 505.388 576.334 511.312 435.282 318.679 377.367 526.165 373.398 506.561 471.792 256.870 475.698 254.730 508.451 401.865 403.626 533.719 319.571 491.761 298.034 477.714 462.245 525.728 510.256 460.331 425.655 304.507 338.557 257.908 331.678 440.397 473.953 0.000 547.057 449.159 545.837 560.328 282.419 542.086 437.274 444.138 259.777 450.519 535.019 56.309
351.988 568.069 449.783 186.259 144.839 251.666 155.782 307.024 368.531 432.303 643.248 799.363 455.165 309.276 184.081 142.246 242.304 2029.620 255.780 529.896 379.397 186.459 268.135 596.643 404.671 458.358 1989.966 206.192 440.435 54.215 232.537 485.777 312.868 139.059 227.184 466.457 602.139 509.924 170.802 271.957 201.804 160.323 549.626 1412.348 2060.559 168.316 179.276 462.917 158.152 2046.271 166.663 473.394 483.448 259.389 468.479 192.562 494.102 406.537 134.587 206.285 303.630 153.538 205.670 139.772 463.246 156.391 193.568 299.430 2060.676 291.848 181.025 428.434 204.507 411.119 129.026 178.782 966.898 224.699 480.658 143.863 245.719 740.062 317.527 488.650 261.139 214.163 260.800 570.127 164.677 311.355 176.912 235.675 730.715 620.823 147.483 160.993 155.391 200.102 395.742 270.983 183.027 408.012 143.716 223.135 459.449 628.926 462.891 195.237 300.385 253.977 738.603 299.328 152.421 374.060 241.803 538.381 290.547 157.287 613.559 231.943 404.127 433.923 466.069 293.206 475.011 183.700 540.901 0.000 225.198 138.192 624.191 467.509 189.116 471.888 161.488 430.239 485.132 739.903 521.951
186.533 460.404 363.477 123.705 114.882 69.974 111.974 140.163 260.865 345.996 535.582 691.697 347.500 143.821 66.879 137.292 58.595 1921.954 155.229 422.230 213.942 105.262 173.457 510.337 318.365 372.051 1882.300 46.448 332.769 212.009 124.872 378.111 180.149 109.102 81.005 380.151 515.833 402.258 99.184 102.864 133.712 111.507 463.320 1304.683 1952.893 105.763 89.180 355.251 94.047 1938.606 102.558 365.729 397.142 173.083 360.813 61.170 386.436 298.872 141.359 60.711 159.068 125.010 117.889 133.973 355.581 137.205 133.343 178.144 1953.011 205.542 122.900 342.128 157.274 303.454 112.334 118.556 859.233 78.520 372.992 159.859 41.209 632.396 183.434 402.344 153.474 166.931 95.345 483.821 100.572 178.816 82.010 334.786 623.050 513.158 196.846 176.989 123.156 164.202 288.076 99.708 118.922 321.705 91.038 76.955 373.143 521.260 375.547 107.456 134.930 82.702 630.937 154.766 90.737 228.698 78.225 452.075 254.647 94.733 505.893 41.435 296.461 326.258 378.725 173.745 388.705 117.902 433.236 223.259 0.000 130.313 537.884 381.203 126.562 385.581 96.252 343.933 398.826 632.238 414.286
242.197 551.361 433.075 76.469 35.049 141.876 66.289 232.532 351.823 415.595 626.540 782.655 438.457 199.485 74.291 113.066 132.514 2012.912 239.072 513.188 269.607 83.252 251.427 579.935 387.963 441.650 1973.258 100.236 423.727 132.176 215.829 469.069 272.518 29.269 117.394 449.749 585.431 493.216 124.838 182.754 100.106 65.821 532.918 1395.640 2043.851 58.526 102.098 446.209 48.361 2029.563 56.872 456.686 466.740 242.681 451.771 82.771 477.394 389.829 85.539 96.495 251.437 79.325 95.879 88.288 446.538 91.520 176.860 270.513 2043.968 275.140 86.646 411.726 111.589 394.411 32.501 162.074 950.190 114.909 463.950 80.025 135.929 723.354 275.803 471.942 244.431 105.292 151.010 553.419 54.887 271.185 67.122 254.953 714.007 604.115 162.954 97.156 77.471 183.394 379.034 192.077 73.237 391.304 33.926 113.344 442.741 612.218 446.183 85.446 190.594 175.070 721.895 247.135 45.052 284.363 132.013 521.673 273.839 47.496 596.851 136.155 387.419 417.215 449.361 266.114 458.303 89.582 524.193 143.426 115.408 0.000 607.483 450.801 79.326 455.180 108.223 413.531 468.424 723.195 505.243
624.273 587.443 411.687 630.424 621.601 521.983 586.319 544.325 526.559 258.098 813.825 969.940 606.464 585.743 573.598 537.031 533.721 2200.197 445.292 541.898 589.707 557.362 457.646 111.335 236.534 379.181 2160.543 530.406 437.558 630.342 446.344 497.779 550.170 615.821 567.038 185.219 465.097 560.164 529.528 596.171 590.927 590.859 94.087 1470.427 2231.136 612.482 550.179 614.215 592.486 2216.849 600.997 546.191 175.423 463.999 619.777 553.361 544.342 577.115 612.185 552.901 540.932 604.362 610.080 570.308 614.545 616.557 482.630 536.731 2231.254 364.030 570.147 260.297 636.627 581.697 619.054 480.833 1024.977 564.553 553.455 650.399 527.255 910.639 554.828 379.711 499.944 646.283 526.202 114.588 599.011 548.657 588.729 792.945 901.292 791.401 596.584 667.530 602.509 526.478 566.319 511.829 617.361 244.619 597.757 562.988 350.027 799.503 381.540 599.647 565.787 494.822 909.180 536.630 582.957 545.675 568.910 102.435 616.924 601.452 784.136 516.851 574.704 604.500 384.719 530.507 155.787 565.150 552.903 638.253 540.355 637.033 0.000 358.088 633.282 199.215 535.334 389.911 161.657 910.480 533.953
328.296 291.466 111.323 458.278 449.455 349.837 414.173 321.074 230.582 219.827 517.848 673.963 310.486 325.259 401.452 364.885 361.575 1904.220 273.146 245.920 293.730 385.216 285.500 358.191 203.762 93.429 1864.565 358.260 137.194 458.196 274.198 201.801 267.934 443.675 394.892 265.548 230.025 264.186 357.382 424.026 418.781 418.713 345.496 1174.450 1935.159 440.336 378.033 318.238 420.340 1920.871 428.851 250.214 282.540 291.853 323.800 381.215 248.364 281.137 440.039 380.755 280.573 432.216 437.934 398.162 318.567 444.411 310.484 280.493 1935.276 191.884 398.001 227.526 464.481 285.719 446.908 308.687 729.000 392.407 257.477 478.254 355.109 614.662 277.475 69.260 311.327 474.137 354.057 365.997 426.865 272.857 416.584 620.799 605.315 495.423 424.438 495.384 430.363 354.332 270.342 329.030 445.216 207.103 425.612 390.842 28.812 503.526 105.405 427.501 353.528 322.676 613.203 271.234 410.811 249.697 396.764 296.758 444.778 429.306 488.159 344.705 278.727 308.523 108.583 283.341 274.102 393.004 256.926 466.107 368.209 464.887 394.840 0.000 461.136 270.979 363.188 89.022 284.224 614.503 237.976
278.133 587.297 469.011 66.414 70.587 177.812 102.225 268.468 387.759 451.531 662.476 818.591 474.393 235.421 110.227 149.002 168.450 2048.848 275.008 549.123 305.543 119.188 287.363 615.871 423.899 477.585 2009.194 136.172 459.662 167.714 251.765 505.004 308.454 64.807 153.330 485.685 621.367 529.151 160.774 218.690 136.042 101.757 568.854 1431.576 2079.787 40.599 138.034 482.145 84.297 2065.499 92.808 492.622 502.676 278.617 487.706 118.707 513.330 425.765 121.078 132.431 287.373 115.261 131.815 124.224 482.474 127.456 212.796 306.449 2079.904 311.076 122.582 447.662 147.525 430.347 68.040 198.010 986.126 150.845 499.886 115.564 171.865 759.290 311.739 507.878 280.367 142.646 186.945 589.355 90.823 307.121 103.058 290.492 749.943 640.051 198.493 132.694 113.407 219.330 414.970 228.013 109.173 427.239 71.281 149.280 478.677 648.154 482.119 121.382 226.530 211.006 757.831 283.071 80.988 320.299 167.949 557.609 309.775 50.438 632.787 172.091 423.355 453.151 485.297 302.050 494.239 125.518 560.129 178.964 151.344 86.019 643.418 486.737 0.000 491.116 144.158 449.467 504.360 759.131 541.179
471.569 460.803 254.801 473.538 464.715 365.097 429.433 387.439 399.918 101.212 687.184 843.299 479.823 428.857 416.712 380.145 376.835 2073.556 288.406 415.257 463.066 400.476 300.760 161.230 79.648 222.295 2033.902 373.520 280.672 473.456 289.458 371.138 393.284 458.935 410.152 29.919 365.488 433.523 372.642 439.286 434.041 433.973 133.707 1343.786 2104.495 455.596 393.293 487.574 435.600 2090.208 444.111 419.550 54.849 307.113 493.136 396.475 417.701 450.474 455.299 396.015 384.046 447.476 453.194 413.422 487.904 459.671 325.744 379.845 2104.613 207.144 413.261 103.411 479.741 455.056 462.168 323.947 898.336 407.667 426.814 493.514 370.369 783.998 397.942 252.588 343.058 489.397 369.317 154.208 442.125 391.771 431.844 636.059 774.651 664.760 439.698 510.644 445.623 369.592 439.678 354.943 460.476 87.733 440.872 406.102 223.387 672.862 226.828 442.761 408.901 337.936 782.539 379.744 426.071 419.034 412.024 99.798 460.038 444.566 657.495 359.965 448.063 477.860 230.007 373.621 59.116 408.264 426.262 481.367 383.469 480.147 197.880 231.447 476.396 0.000 378.448 235.257 51.627 783.840 407.312
231.511 484.319 356.043 124.833 116.010 131.189 55.999 212.896 284.781 338.562 559.498 715.613 371.415 188.799 62.922 63.305 121.827 1945.870 162.040 446.146 258.920 24.971 174.395 502.903 310.931 364.617 1906.216 61.263 352.293 149.660 148.787 402.027 229.118 110.230 72.198 372.717 508.399 426.174 19.558 127.028 58.536 87.307 455.886 1328.598 1976.809 106.891 17.788 379.167 69.649 1962.521 78.160 389.644 389.708 165.649 384.729 66.717 410.352 322.787 108.632 68.411 219.880 100.810 84.424 51.847 379.496 113.005 99.828 215.680 1976.926 198.108 37.756 334.694 133.074 327.369 113.463 85.041 883.148 69.713 396.908 160.987 113.941 656.312 233.777 394.910 177.389 142.731 140.323 476.387 76.175 227.605 87.078 312.263 646.965 537.073 115.903 178.117 98.956 130.687 311.992 172.440 94.525 314.271 92.167 68.148 365.709 545.176 369.150 73.991 179.908 155.434 654.853 215.578 75.310 273.676 99.766 444.641 221.133 95.861 529.809 114.167 320.377 350.173 372.329 209.456 381.271 32.759 457.151 157.571 91.821 131.442 530.450 373.769 127.691 378.148 0.000 336.499 391.392 656.153 438.201
313.741 276.911 29.381 411.042 402.219 302.601 366.937 306.519 216.026 203.914 503.292 659.407 295.931 310.703 354.216 317.649 314.339 1889.664 225.910 231.365 279.175 337.980 238.264 358.916 176.283 55.254 1850.010 311.024 55.252 410.960 226.962 187.246 253.379 396.439 347.656 238.069 242.099 249.631 310.146 376.790 371.545 371.477 321.238 1159.894 1920.603 393.100 330.797 303.683 373.104 1906.316 381.615 235.659 255.060 244.617 309.244 333.979 233.809 266.582 392.803 333.519 266.017 384.980 390.698 350.926 304.012 397.175 263.248 265.938 1920.721 153.709 350.765 200.046 417.245 271.164 399.672 261.451 714.444 345.171 242.922 431.018 307.873 600.107 262.920 98.019 280.562 426.901 306.821 341.739 379.629 258.302 369.348 573.563 590.760 480.868 377.202 448.148 383.127 307.096 255.787 292.447 397.980 179.623 378.376 343.606 63.527 488.970 89.968 380.265 338.973 275.440 598.648 256.679 363.575 235.142 349.528 297.483 397.542 382.070 473.603 297.469 264.171 293.968 93.146 268.785 246.623 345.768 242.371 418.871 320.973 417.651 395.565 89.075 413.900 243.499 315.952 0.000 256.744 599.948 223.420
486.986 476.219 270.218 488.955 480.132 380.514 444.849 402.856 415.335 116.629 702.601 858.716 495.239 444.274 432.129 395.562 392.252 2088.973 303.822 430.673 478.483 415.892 316.176 135.531 95.064 237.712 2049.319 388.937 296.088 488.872 304.875 386.554 408.700 474.352 425.568 26.637 364.086 448.939 388.059 454.702 449.457 449.389 88.513 1359.203 2119.912 471.012 408.709 502.991 451.016 2105.624 459.527 434.967 21.747 322.529 508.553 411.891 433.117 465.890 470.715 411.432 399.462 462.893 468.610 428.839 503.320 475.088 341.160 395.262 2120.029 222.560 428.678 118.828 495.157 470.472 477.584 339.363 913.753 423.083 442.231 508.930 385.786 799.415 413.359 268.004 358.474 504.814 384.733 109.014 457.542 407.187 447.260 651.475 790.068 680.176 455.115 526.060 461.039 385.009 455.095 370.359 475.892 103.149 456.288 421.519 238.803 688.279 242.245 458.177 424.318 353.353 797.956 395.160 441.488 434.450 427.440 98.396 475.455 459.983 672.912 375.381 463.480 493.276 245.423 389.038 21.328 423.680 441.679 496.783 398.886 495.563 163.078 246.863 491.812 71.086 393.864 250.673 0.000 799.256 422.729
564.409 473.789 613.137 728.117 719.294 609.674 681.955 541.199 466.695 753.169 190.271 97.318 427.210 561.372 673.921 632.667 621.412 1362.482 558.475 539.831 529.844 657.876 576.703 891.533 737.913 620.621 1322.828 630.920 579.807 725.978 564.965 540.757 488.060 713.514 667.552 799.699 674.141 522.842 630.042 695.396 691.441 686.495 878.839 1318.068 1393.421 710.174 650.693 434.961 688.122 1379.133 696.633 486.312 816.690 613.177 440.523 653.875 507.020 387.595 707.821 653.415 500.698 699.998 710.594 665.945 435.291 712.193 617.815 500.619 1393.538 645.636 670.661 761.676 732.263 392.176 716.746 621.347 872.618 665.067 493.576 746.036 614.946 50.397 497.601 659.217 531.452 741.919 613.893 899.339 694.647 492.983 689.053 888.581 33.494 326.539 692.221 763.166 698.145 666.992 416.961 549.156 712.998 741.253 695.450 663.502 624.725 302.555 622.585 700.161 589.642 582.513 36.322 491.360 678.593 485.811 669.424 830.100 757.438 699.145 305.670 604.541 380.931 414.980 625.763 503.466 808.252 665.663 550.837 733.889 628.046 734.725 928.183 650.274 730.974 805.129 635.848 627.632 818.374 0.000 531.887
351.534 112.062 220.183 514.129 505.306 405.688 470.024 344.312 253.820 360.215 413.265 569.380 265.869 348.497 457.303 420.736 417.426 1799.637 328.997 46.582 316.968 441.067 341.351 498.579 344.959 227.667 1759.983 414.111 186.853 514.047 330.049 135.801 291.172 499.526 450.743 406.745 156.152 198.186 413.233 479.876 474.632 474.564 485.885 995.045 1830.576 496.187 433.884 258.225 476.191 1816.288 484.702 184.214 423.736 347.704 276.053 437.066 182.365 286.072 495.890 436.606 303.811 488.067 493.785 454.013 263.064 500.262 366.335 303.731 1830.693 308.481 453.852 368.722 520.332 290.654 502.758 364.538 549.596 448.258 191.478 534.104 410.960 510.079 300.713 251.129 334.565 529.988 409.907 506.385 482.716 296.095 472.434 676.650 500.732 444.944 480.289 551.235 486.213 410.183 293.580 352.268 501.066 348.299 481.462 446.693 231.771 450.599 229.631 483.352 376.766 378.527 508.620 294.472 466.662 272.935 452.615 437.146 500.629 485.157 435.232 400.556 279.408 313.458 232.809 306.579 415.298 448.854 57.588 521.958 424.060 520.738 535.229 257.320 516.987 412.175 419.039 234.678 425.420 509.920 0.000
NODE_COORD_SECTION
1 -8232.444620 -3421.170218
2 -4134.767785 -8579.815314
3 -8761.628330 -8139.345183
4 -11763.716979 -3131.853760
5 -12192.048175 -3022.696969
6 -9921.774688 -3510.087066
7 -11784.683521 -3528.465993
8 -9003.407338 -4675.761773
9 -7551.942477 -5552.301126
10 -11079.331634 -9972.471650
11 -2858.762252 -2414.929904
12 157.010085 -673.792553
13 -5187.877797 -6629.366764
14 -8636.112588 -3087.860723
15 -11286.734962 -3360.557733
16 -11934.887009 -4352.199024
17 -10080.075761 -3536.086069
18 -17928.933557 16157.209827
19 -9690.881673 -5679.114406
20 -5570.360474 -9043.708589
21 -7634.238229 -4167.320748
22 -11539.798927 -3688.447919
23 -9900.746688 -5660.090609
24 -12827.549191 -12250.164134
25 -11491.552411 -9623.347154
26 -9349.188045 -8465.535825
27 -17324.001156 16786.461173
28 -10932.230411 -3831.439572
29 -8514.784030 -8034.138191
30 -13138.404554 -3534.648626
31 -9934.599783 -5327.014274
32 -6378.878324 -8528.334360
33 -8185.296293 -5268.070354
34 -12167.796688 -3001.644468
35 -11257.389983 -3655.485360
36 -12200.934876 -10875.898034
37 -6649.192834 -10820.686814
38 -5944.472525 -8086.301768
39 -11471.329556 -4132.404871
40 -10679.000641 -3866.692000
41 -11603.369055 -3516.898648
42 -11957.588626 -3352.210683
43 -12935.227021 -12099.967748
44 14373.197911 -17499.628911
45 -18333.787344 15995.802039
46 -11809.538934 -3174.989574
47 -11350.556672 -3778.063640
48 -5037.158501 -6707.851360
49 -11686.562645 -3397.112431
50 -18199.972761 15930.024126
51 -11711.853832 -3465.365556
52 -6066.372035 -7695.320350
53 -12389.024988 -10826.269717
54 -10032.323342 -6639.886960
55 -5071.523649 -6632.569154
56 -11010.538105 -3581.825551
57 -5973.134002 -8077.607096
58 -5349.818123 -6004.361495
59 -12093.400313 -3259.243919
60 -10973.415010 -3617.051243
61 -8467.897731 -5041.364122
62 -12043.715118 -3276.638908
63 -11442.252775 -3588.678055
64 -11851.214370 -3873.422341
65 -5185.020482 -6791.440085
66 -12039.169436 -3351.894736
67 -10905.090077 -5084.025664
68 -8455.313656 -5337.878867
69 -18258.659646 16055.044056
70 -10552.730636 -7324.284006
71 -11647.119457 -3568.751228
72 -11709.223199 -9407.434184
73 -12009.237646 -3229.471589
74 -5432.002042 -6044.418075
75 -12314.611945 -2964.342615
76 -11254.619207 -5105.050048
77 1649.122849 -12032.994254
78 -11263.062953 -3668.073165
79 -6050.768612 -7717.167291
80 -12477.159990 -2670.197206
81 -10352.501097 -3966.850150
82 -406.756975 -1061.664368
83 -8333.780004 -5402.721269
84 -8735.745400 -8979.090990
85 -9746.039924 -5012.347681
86 -12032.607388 -3216.304250
87 -9542.789821 -3338.282674
88 -12903.837672 -12182.581712
89 -11716.834104 -3462.994489
90 -8419.555492 -5388.387318
91 -11586.421588 -3174.951385
92 -15362.467163 -1813.775424
93 -261.698028 -1191.186268
94 -4649.300251 -3028.027947
95 -12350.912459 -4434.914976
96 -12087.622794 -2450.898847
97 -12024.075454 -3282.835473
98 -11634.011584 -5255.719404
99 -6285.661962 -6327.356315
100 -9156.437243 -4296.069899
101 -11693.879130 -3562.421381
102 -11458.822932 -9619.789317
103 -11904.681598 -3227.121567
104 -11266.484904 -3676.065010
105 -8901.690038 -8788.034628
106 -4494.901593 -3021.901481
107 -9274.860965 -8601.997723
108 -11485.262941 -3594.929038
109 -8857.861050 -3456.177917
110 -9600.230369 -4261.238298
111 -0.768506 -1221.386092
112 -8458.935119 -5181.741613
113 -11858.902028 -3390.203502
114 -7482.079169 -4774.498537
115 -10798.841442 -3855.830970
116 -12304.864121 -12335.318875
117 -11318.226436 -6136.510207
118 -12099.820669 -3087.360534
119 -4533.949957 -3116.424015
120 -10321.634556 -4060.005582
121 -5836.226146 -5861.804937
122 -5612.643641 -6022.681173
123 -9257.986127 -8606.763685
124 -8516.962186 -5372.714746
125 -12486.807569 -10968.437845
126 -11584.287792 -3598.896965
127 -5623.178262 -9018.441409
128 -13435.261287 -3711.320929
129 -10544.043523 -3738.807033
130 -12219.638063 -3073.211564
131 -13589.195840 -13238.856701
132 -8983.417283 -8728.258077
133 -11830.385722 -3097.498007
134 -12094.832883 -10899.935516
135 -11480.285707 -3949.131582
136 -9013.626442 -8197.094295
137 -12396.096835 -11013.961491
138 -20.356058 -1279.132621
139 -5644.609084 -9324.255993
DEMAND_SECTION
1 0
2 2
3 39
4 26
5 31
6 37
7 41
8 60
9 18
10 82
11 56
12 91
13 31
14 67
15 15
16 9
17 26
18 10
19 74
20 46
21 55
22 1
23 85
24 91
25 89
26 9
27 9
28 15
29 43
30 18
31 60
32 24
33 23
34 22
35 8
36 79
37 14
38 44
39 48
40 44
41 16
42 31
43 73
44 41
45 39
46 32
47 40
48 31
49 40
50 38
51 15
52 14
53 81
54 96
55 25
56 15
57 9
58 46
59 12
60 43
61 24
62 26
63 29
64 46
65 45
66 32
67 96
68 46
69 2
70 56
71 16
72 99
73 28
74 4
75 12
76 77
77 25
78 43
79 10
80 2
81 33
82 70
83 24
84 47
85 64
86 6
87 86
88 65
89 34
90 26
91 32
92 2
93 96
94 71
95 36
96 44
97 34
98 84
99 22
100 87
101 21
102 73
103 13
104 26
105 2
106 95
107 42
108 40
109 76
110 93
111 59
112 3
113 7
114 90
115 17
116 65
117 71
118 37
119 56
120 36
121 14
122 17
123 10
124 49
125 51
126 13
127 26
128 11
129 26
130 46
131 70
132 21
133 26
134 75
135 30
136 47
137 87
138 91
139 3
DEPOT_SECTION
1
-1
EOF
