NAME : mamut-warsaw-n110-k8-poi
COMMENT : Mamut2026 shortest metric; city warsaw; No of trucks: 8 (lower bound, fleet not fixed); 3-decimal seconds/meters; ENU ref in mamut-warsaw-n110-k8-poi.vrp.json
TYPE : CVRP
DIMENSION : 111
EDGE_WEIGHT_TYPE : EXPLICIT
EDGE_WEIGHT_FORMAT : FULL_MATRIX
CAPACITY : 770
EDGE_WEIGHT_SECTION
0.000 24660.314 27102.967 24068.874 20008.818 22507.776 28574.561 29511.541 25206.874 27388.232 27249.329 30059.300 44377.448 29903.927 24859.131 24920.882 24706.347 23101.063 26771.200 25215.541 25145.395 19289.535 21991.732 19105.163 21077.423 19257.729 34778.877 25088.235 27613.330 27183.120 23957.742 25323.843 27010.986 22328.262 40104.619 24847.992 18505.476 22720.415 38980.699 36116.049 24498.304 24551.330 28046.871 27234.818 18058.566 24194.945 24950.924 31707.762 18708.930 38473.843 27639.326 25092.100 40270.808 26538.295 29212.265 17206.019 20432.454 27708.106 31087.668 26897.335 27399.024 39110.086 23845.254 27640.355 33206.521 22874.150 13218.919 32630.787 24218.750 24272.739 17821.924 21716.174 27041.278 1410.318 25314.509 32207.222 38900.899 21092.375 33916.398 27951.843 20959.182 40064.514 31741.464 20026.913 25564.813 33966.948 25646.106 33661.410 25350.557 30774.395 32303.922 25483.776 20296.017 29381.263 29770.535 27068.719 26425.340 10094.689 33152.319 39474.475 23757.709 27701.087 35263.345 20401.857 41935.306 27297.583 30662.436 41883.399 31903.598 30657.291 23969.417
24225.801 0.000 20302.136 4530.737 8445.395 4547.845 13332.067 6791.476 1401.239 4845.931 4707.028 8679.372 27194.210 7639.170 8451.312 4079.504 14796.399 1972.291 4228.899 3400.330 4304.017 8874.051 8561.960 6193.476 7574.044 7383.922 12058.812 12423.581 5733.681 4918.363 2641.210 3508.632 4625.796 2719.453 17628.778 4006.614 6465.573 3660.735 29557.060 21515.245 917.767 7858.491 4591.859 6905.657 6787.713 4656.808 3074.307 9408.826 8015.122 16209.086 7512.011 4522.435 17794.967 4517.844 8120.703 17172.051 4590.693 6861.204 10364.613 5390.977 14285.328 29686.447 7854.629 5098.054 11714.211 4087.147 14008.182 11636.830 689.279 8282.115 7407.157 4490.957 13219.696 24693.190 4457.294 25406.391 18021.245 4871.317 16391.785 5763.506 7891.929 20305.486 10507.577 4967.765 1759.179 11246.883 12187.561 12667.453 1544.923 23704.890 11309.964 3668.565 7200.599 7116.506 7050.470 3978.935 4745.441 15493.404 12156.700 18594.822 3097.197 6978.032 17703.902 6408.905 24752.068 5162.163 8781.446 24700.161 10360.149 7937.226 4411.151
27256.211 19910.362 0.000 23190.846 25418.087 17930.615 11350.040 19717.616 19855.528 19953.604 19633.339 17767.822 22180.215 18891.895 13686.015 16714.901 5882.339 19527.893 19789.750 17409.025 15958.705 12894.679 15153.835 20895.763 24821.160 14427.760 23547.697 8319.767 16538.084 17863.004 17919.640 17382.322 19015.099 18929.118 30275.666 16150.651 22033.089 21661.171 14051.287 13332.444 20728.300 13476.084 20998.667 16269.437 21534.948 23316.918 17937.767 20745.051 24550.785 24222.027 15526.259 15882.986 30441.856 17454.450 17475.165 15623.989 19292.980 16426.268 17107.340 16171.962 32258.468 13805.476 12732.599 20393.987 19042.854 22060.287 14565.082 26860.003 20114.241 12212.486 22974.673 17139.014 31192.836 27742.219 16105.395 7379.693 34123.570 21150.118 17043.646 16876.597 14586.350 36407.810 17076.075 19670.052 20781.827 23893.772 8710.989 27051.991 20985.416 4094.771 27412.289 17282.618 14111.754 18667.515 19976.609 20087.270 16975.826 17493.374 18480.456 34697.146 22090.383 16090.362 18390.593 23383.364 23521.077 17366.768 23906.209 23469.169 17739.931 20785.959 23071.260
23774.075 5200.116 23102.119 0.000 6427.098 7961.517 17148.437 8429.486 4382.936 6885.717 6746.814 11669.709 30894.055 9786.214 12267.682 8194.352 18730.957 5385.963 6051.699 7177.456 8418.865 12988.899 12676.808 6706.799 5062.411 10994.250 11694.896 16486.735 8724.017 7730.464 6756.058 7285.758 6665.582 5482.818 16871.036 8121.461 6249.815 1564.853 33491.617 25240.122 3654.304 11674.862 5952.532 10429.165 6611.398 341.729 6529.320 11046.836 5996.825 17594.141 11035.518 8637.283 17037.226 7508.180 11111.039 19581.553 5794.224 10151.443 13728.140 8617.792 11773.695 33621.004 11969.477 6920.854 14307.793 2147.197 16246.311 9397.205 4879.523 12396.962 7191.399 7650.397 10708.063 24241.463 8443.799 28206.374 15781.620 3937.544 19382.122 8661.644 12006.777 17332.756 13497.913 6209.616 4090.212 10838.546 16122.118 10427.828 3347.514 26773.547 9070.339 7445.690 11315.446 9055.716 8688.479 5657.564 7735.778 17731.533 15147.036 16355.196 1600.012 10349.981 20694.239 4390.608 28451.913 8115.174 7428.853 28400.005 12953.730 9575.236 345.325
19687.306 8753.735 25288.062 6701.068 0.000 10181.347 20954.958 14288.949 8905.504 12350.196 12211.292 16183.637 34817.101 15143.434 16074.203 11702.395 22419.291 8625.174 11733.163 11023.222 11926.908 15427.346 15773.657 6091.120 2271.239 13180.193 17989.474 20046.473 13237.945 12422.627 10264.101 11131.523 12130.061 7852.373 22207.684 11629.505 4304.274 6251.414 37165.794 29138.136 8196.934 15481.382 12089.331 14528.549 5226.162 6827.140 10697.198 16906.298 1573.764 23713.350 15134.902 12145.326 22373.873 12022.108 15624.967 21733.088 7035.358 14484.095 17987.504 13013.868 9717.768 37295.181 15477.520 12602.318 19218.476 5421.439 17076.785 15257.719 8312.170 15905.006 3129.336 9836.340 8652.136 20154.694 12080.185 30392.317 20187.012 4621.215 23896.050 13267.770 14841.196 21350.628 18011.841 7047.888 9263.443 17133.125 19810.452 16722.407 9049.187 28959.490 14896.014 11291.456 14149.865 14620.770 14547.942 11476.407 12249.705 14020.556 19660.964 20760.589 7349.605 14600.924 25208.166 2554.053 32374.959 12666.427 13723.432 32323.052 17864.413 15434.698 6601.612
22218.942 4631.744 17909.200 7966.325 10193.566 0.000 13737.150 9772.579 4675.851 7517.343 7378.439 11205.167 27954.945 10164.965 8856.394 5702.286 15127.090 3034.686 6900.310 5476.579 5926.800 8048.483 8473.099 5702.850 9596.639 5801.331 15039.915 12754.272 8259.475 7444.158 4263.993 5584.881 7272.024 3688.954 20609.880 5629.396 6808.568 6436.650 29786.932 21920.327 4967.012 8263.574 7962.768 8483.946 6342.035 8092.397 5211.962 11968.799 9326.264 18734.881 9168.111 6145.218 20776.070 6970.644 10427.680 14388.633 4100.067 8937.453 12303.082 7467.225 17033.947 29916.319 8185.319 7769.465 14240.006 6835.766 11053.391 15341.149 4358.155 8612.805 7750.152 771.545 15968.315 22686.330 6224.089 23013.455 21833.714 5925.597 17493.895 8289.301 7540.638 24117.954 12956.878 4477.140 5602.150 14227.985 12518.251 16424.765 5756.480 21580.628 15122.433 5744.813 6849.307 9642.301 10031.572 7197.830 6964.274 12538.613 14367.733 22407.290 6476.927 8950.215 18840.842 8158.843 25512.803 7687.958 12387.354 25460.896 12885.944 10918.329 7846.739
28898.345 13585.507 11223.397 17470.270 21419.075 14144.346 0.000 12185.574 13160.463 13024.450 12704.186 7997.623 17436.146 11184.332 5738.644 10390.046 6116.368 13635.852 12860.596 10825.629 9633.851 11296.163 8828.980 16928.359 20698.293 12179.141 13781.410 6054.549 9206.268 10797.172 11594.785 10759.365 12085.945 14617.357 20819.220 9780.492 18034.077 16812.279 19744.643 8696.196 14033.235 6089.080 14069.513 7958.790 17567.544 17596.341 11483.710 12582.442 20551.773 14455.741 7215.612 9558.131 20985.410 10405.627 8014.400 19187.283 15325.576 8115.621 7337.141 9106.130 27409.576 19874.030 7437.213 13464.834 9276.568 17211.395 16207.215 19232.458 13789.386 6419.015 18975.661 13937.154 26343.945 29384.352 9587.997 17024.116 25867.543 17151.106 7893.294 9780.935 10025.600 28874.827 7309.789 15702.648 14086.762 15096.955 4387.996 19140.720 14290.352 13891.683 19879.306 10919.298 10674.175 11601.683 12444.567 13158.116 9909.994 19135.507 8714.170 26441.120 16223.459 7779.715 9240.241 19384.352 15912.203 10300.937 16374.167 15860.295 7973.644 13253.918 17350.684
29363.751 7067.585 19770.314 7860.131 13934.927 9758.565 11904.545 0.000 5663.407 3307.080 3059.676 5899.811 25070.610 2971.541 7672.707 5747.523 14135.982 7905.012 2996.455 5127.129 5394.042 11491.002 9298.642 12318.527 12570.240 11102.760 6239.976 11891.760 3941.896 3116.609 6006.005 5120.539 3442.308 8841.910 11809.941 5197.008 12590.624 8530.298 28896.642 19605.530 6536.179 7079.887 2701.772 5834.190 12912.764 7574.582 4689.907 3589.990 13504.654 10397.126 6127.774 5318.323 11976.131 4129.998 5954.779 20747.653 10715.744 5513.195 8569.342 4786.268 19281.524 29026.029 8409.799 2791.146 7127.449 9462.600 17903.789 8246.577 7271.464 8147.055 13532.208 9701.677 18215.892 29831.139 4658.894 24874.569 14739.142 10651.849 13338.352 3437.239 10052.809 17023.382 6629.907 11092.816 6041.077 5428.047 11527.143 8404.188 5918.509 23044.472 8027.861 5280.472 10651.886 1598.870 258.993 3293.974 3949.427 19683.422 8563.464 15312.718 7507.575 5484.843 14650.469 11898.437 22628.468 3620.431 5292.782 22576.560 5773.387 2118.390 7828.084
25109.713 1759.981 20008.337 4433.228 8918.638 4702.486 12791.486 5833.710 0.000 3479.316 3340.413 7312.757 26537.103 6272.555 7910.731 3811.415 14374.005 2848.933 2862.284 2820.505 4035.929 8605.962 8293.872 7262.448 7807.473 7115.834 11101.045 12129.783 4367.066 3551.748 2373.122 2928.807 3259.181 3785.832 16671.011 3738.525 7349.484 3723.824 29134.666 20883.171 872.772 7317.910 3634.092 6072.213 7711.067 4559.300 2172.368 8076.390 8488.365 14842.471 6678.566 4254.347 16837.200 3151.229 6754.088 16903.962 5659.665 5794.491 9371.188 4260.841 14518.757 29264.053 7586.541 3731.438 10347.596 4320.576 14060.098 11111.708 1857.164 8014.026 8291.069 4645.598 13453.125 25577.101 4086.847 25112.592 17604.273 5344.560 15025.170 4396.891 7623.841 19888.513 9140.962 6036.738 926.299 10289.116 11765.167 12195.324 1129.888 23282.495 10892.992 3088.739 6932.510 5749.891 6092.703 3021.168 3378.826 15696.497 10790.085 18177.849 3062.996 5993.029 16337.287 6882.148 24094.961 3795.548 8157.913 24043.054 8993.534 6979.459 4313.642
26852.793 4556.627 20006.141 6080.645 12071.088 7247.607 12789.289 3042.158 3152.450 0.000 820.967 6838.110 26293.776 4886.471 7908.534 4138.807 14371.808 5394.054 485.497 3448.388 4281.665 9882.286 8539.608 9807.569 10790.754 8591.802 8309.494 12127.587 4266.558 2830.721 3802.913 3441.799 1458.025 6330.953 13879.460 3984.262 10079.666 6750.813 29132.469 20864.853 4025.222 7315.713 1193.831 6070.016 10401.806 5795.096 3010.869 5659.508 11640.814 12466.644 6452.436 4500.083 14045.649 3291.690 6279.441 18379.930 8204.786 5792.294 8896.541 4258.644 17502.038 29261.856 7832.277 777.174 9195.212 7473.026 15536.066 8348.858 4760.506 8259.763 11021.250 7190.719 16436.406 27320.181 4131.270 25110.396 14841.423 8497.010 14550.523 3761.901 8444.093 17125.664 8634.244 8581.859 4078.749 7497.565 11762.970 9432.474 4006.192 23280.299 8130.143 3601.731 8408.478 3668.389 3301.152 783.016 3421.803 17172.465 10315.438 15415.000 5728.089 5809.505 15862.640 10034.597 23851.634 3215.431 5395.064 23799.726 7841.149 4187.908 6048.599
27270.144 4973.978 19704.494 6497.996 12488.439 7664.958 12487.642 3389.723 3569.801 658.223 0.000 6536.463 25992.129 4584.824 7606.887 3837.160 14070.161 5811.405 902.848 3146.741 3980.018 9580.639 8237.961 10224.920 11208.105 9009.153 8657.058 11825.940 3964.911 2529.074 4025.320 3140.152 1156.378 6748.304 14227.024 3682.615 10497.017 7168.164 28830.822 20563.206 4442.573 7014.067 1778.831 5768.370 10819.157 6212.447 2709.222 6007.073 12058.165 12814.209 6150.789 4198.437 14393.214 2990.043 5977.794 18797.281 8622.137 5490.647 8594.894 3956.997 17919.389 28960.209 7530.630 1284.502 9106.403 7890.377 15953.417 8696.423 5177.857 7958.116 11438.601 7608.070 16853.757 27737.532 3829.623 24808.749 15188.988 8914.361 14248.876 3460.254 8142.446 17473.228 8332.597 8999.210 4496.100 7845.129 11461.323 9780.039 4423.543 22978.652 8477.707 3300.085 8741.523 4015.953 3648.716 1200.368 3120.156 17589.816 10013.791 15762.564 6145.440 5507.858 15560.993 10451.948 23549.987 2913.784 5742.628 23498.079 7752.340 4535.472 6465.950
29904.090 8429.044 17329.548 11540.062 16202.139 11120.024 7101.361 5564.353 7283.501 6510.664 6190.399 0.000 20258.555 3468.306 5466.928 6286.428 12252.609 9266.471 6346.810 6066.742 5814.571 11243.134 8775.951 13679.986 15090.974 11693.414 7716.322 10498.993 3164.872 4875.088 7307.863 6013.175 5572.159 10203.369 14754.132 5674.115 13952.083 11007.325 25850.793 14802.346 8156.273 5854.524 7555.727 3380.511 14274.223 11254.513 5991.765 5810.795 15771.866 9306.051 3051.446 5738.851 14920.321 5069.611 972.762 20499.784 12077.203 3243.556 2994.887 4359.939 21802.258 25980.180 7440.892 6951.047 3506.564 11604.077 17655.921 12706.740 8632.923 7178.148 14893.667 10978.923 20736.626 30371.478 5430.341 23160.357 19802.455 12628.061 8515.303 3719.459 9972.570 22253.606 2187.547 12454.276 8209.800 9031.866 9643.771 12898.728 8413.389 19997.833 13258.085 6173.107 10621.145 4640.167 5823.346 6644.329 4811.228 20223.761 4265.932 20376.031 10346.496 2831.658 9827.420 14165.648 17816.413 4423.974 9752.946 17764.506 2203.641 6632.697 11473.721
44451.340 26842.309 22873.029 30838.055 34826.445 27911.941 18090.053 24394.662 26528.248 25865.373 25545.109 20189.974 0.000 23410.237 19763.697 23646.847 21646.162 27041.822 25701.520 24201.023 23174.990 25539.902 23072.719 30695.954 33955.094 26402.083 24788.164 23271.941 22448.808 24164.957 24851.586 24134.760 24926.869 27980.180 31839.952 23034.535 31728.894 30069.081 24318.669 9306.009 27401.020 20151.292 26762.305 21174.102 31335.139 30609.222 24859.105 24155.385 34246.589 22442.248 20613.987 23099.271 32006.142 23781.022 20223.488 34796.553 29093.171 21358.160 19474.626 22481.524 40666.378 24448.056 21737.660 26305.757 19042.663 30468.197 31952.689 29907.606 27046.188 21474.917 32670.478 27704.749 39600.746 44937.348 22839.132 25477.248 36874.297 30845.923 12527.785 23023.475 24269.339 39673.074 18831.068 29470.244 27454.547 25497.355 21552.508 30099.594 27658.137 23017.645 30677.553 24214.565 24917.914 24403.271 24653.656 25999.039 23285.388 34688.503 16957.040 37447.873 29591.244 21178.089 11166.333 32789.955 3584.037 23668.722 26953.812 3578.044 19243.695 25463.006 30718.469
29560.957 7288.913 18708.100 9571.938 15062.008 9979.893 10433.068 2717.824 6143.370 4542.540 4222.275 3424.132 23599.133 0.000 6610.494 5864.358 13073.768 8126.340 4378.686 5243.963 5506.356 11149.827 8682.644 12539.855 13950.843 11299.967 6475.570 10829.546 2538.075 3278.336 6167.732 5237.374 3604.035 9063.239 13275.875 5313.843 12811.952 9867.194 27834.429 18134.053 7016.142 6017.673 5086.408 4437.860 13134.092 9286.389 4851.634 3308.319 14631.735 9160.626 4317.679 5430.636 13442.065 4246.832 3712.436 20406.478 10937.072 4030.553 6329.537 3778.128 20662.127 27963.816 7347.585 4982.923 5797.823 10463.946 17562.614 9860.212 7492.792 7084.842 13753.536 9923.005 19596.495 30028.346 4775.728 23812.355 17123.779 11487.930 11869.254 2165.741 9879.264 19408.019 5181.323 11314.145 7069.669 6480.559 10464.930 10052.199 7273.258 21982.259 10412.498 5397.306 10527.838 1667.724 2976.818 4676.206 4066.261 19880.629 7233.837 17697.355 9206.365 3900.433 13181.371 13025.518 21156.991 2979.120 6906.417 21105.083 4443.760 3786.168 9539.892
25391.512 8493.983 13588.263 12375.988 16420.513 9145.785 5560.295 7557.502 8066.181 7930.168 7609.903 5346.664 19577.211 6731.781 0.000 5298.522 7953.931 8668.880 7766.314 5731.347 4561.621 6480.074 4012.892 11929.798 15606.769 7342.255 11752.188 5709.709 4377.970 5702.890 6503.261 5665.083 6991.663 9631.855 18115.552 4686.210 13035.516 11720.756 22714.592 13727.267 8938.953 1091.464 8975.231 3582.267 12568.983 12502.059 6389.428 8584.937 15553.212 14293.372 2839.089 4485.901 18281.742 5311.345 4787.995 15736.725 10327.015 3739.097 6749.450 4011.848 22318.053 22843.979 2677.833 8370.551 8493.885 12119.872 12892.861 14699.889 8697.863 2415.089 13977.100 8938.592 21252.421 25877.520 4493.714 18692.519 21963.456 12152.545 9116.161 4716.483 5209.511 24247.696 7174.868 10704.087 8992.480 11733.658 5345.093 14891.877 9196.070 16862.422 15252.175 5825.016 5858.086 6507.401 7816.495 8063.834 4815.712 15628.675 8814.101 22537.032 11129.177 3403.191 10463.108 14385.791 17135.070 5206.654 11746.095 17083.162 7157.377 8625.845 12256.401
24802.165 4095.164 16981.857 8362.210 12079.301 5822.118 10017.410 5690.676 4040.330 4138.406 3818.142 6449.655 23873.932 6017.027 5136.655 0.000 11476.121 4294.678 3974.552 1593.827 983.739 6643.182 5241.682 8606.130 11207.950 6541.174 10958.012 9103.303 3790.123 3156.585 2104.442 1567.124 3199.901 5233.036 16527.977 686.335 8981.749 7321.936 26236.782 18200.588 4913.102 4543.834 5183.469 3625.173 9245.316 8488.282 2122.569 7870.183 11499.445 14586.943 4341.132 1202.157 16694.167 2376.638 5602.620 15899.833 7003.347 4098.461 7478.023 2863.891 17919.233 26366.169 4534.351 4578.790 9596.876 7721.052 13055.969 11880.940 4299.043 4961.836 9923.334 5614.925 16853.601 25269.553 1281.028 22086.112 18373.505 8098.778 13412.881 4001.728 5204.988 20657.745 8131.819 7380.420 4966.629 10146.082 8867.283 12964.556 5170.219 20384.612 11662.224 1467.420 5804.065 5560.398 5949.669 4272.072 2360.940 15121.837 9542.674 18947.081 6982.975 4091.442 14759.828 10042.810 21431.790 3233.183 8927.145 21379.882 8293.953 6836.425 8242.624
24424.316 14432.668 6268.039 18699.714 22266.235 14818.251 5815.514 13967.669 14377.834 14340.335 14020.071 12217.015 21027.550 13141.948 7889.423 11237.206 0.000 14483.013 14176.481 11931.331 10481.011 8611.797 9676.141 17775.520 21545.453 11315.393 18162.355 3504.184 10788.137 12113.057 12441.945 11904.627 13401.830 15464.517 24525.719 10672.957 18881.237 17659.440 17088.671 12179.779 15250.606 7726.137 15385.398 10452.618 18414.705 18825.786 12460.072 14995.105 21398.933 19844.725 9709.440 10405.292 24691.909 11721.512 11658.346 14601.460 16172.737 10609.449 12726.125 10422.015 28256.737 17218.058 7616.334 14780.719 14665.551 18058.556 11733.186 21110.056 14636.547 6734.792 19822.822 14026.650 27191.105 24910.323 10627.701 11372.294 28373.623 17998.266 13282.278 11126.650 10476.863 30657.863 12698.772 16549.809 15304.133 18143.825 2894.170 21302.044 15507.722 9939.467 21662.342 11804.924 10421.620 12917.568 14226.662 14474.001 11225.879 14661.478 14103.154 28947.199 17320.479 10273.543 14629.225 20231.513 21301.187 11616.822 18156.262 21249.279 13362.628 15036.013 18580.128
23023.530 2210.232 19257.792 5499.940 8648.298 2818.843 13189.690 8038.548 2941.820 5783.312 5644.409 9471.137 27263.525 8430.934 8308.935 4148.818 14639.809 0.000 5166.280 3742.548 4373.332 8194.494 8144.833 4817.703 8046.720 6704.365 13305.884 12266.991 6525.445 5710.127 2710.525 3850.850 5537.993 1513.220 18875.850 4075.928 5263.301 4160.706 29400.470 21372.868 2377.525 7716.115 6213.929 7014.766 5456.888 5626.012 3477.931 10234.769 7780.996 17000.850 7730.725 4591.750 19042.039 5236.613 8831.429 15737.226 3214.920 7203.422 10706.831 5733.195 14758.003 29529.857 7698.039 6035.434 12505.976 4559.822 12401.984 12937.767 1768.668 8125.524 6204.885 2761.955 13692.371 23490.918 4670.621 24362.047 19322.182 4380.330 16802.474 6555.270 7212.372 21606.423 11299.341 3591.992 3381.249 12493.955 12030.971 13968.390 3166.993 22929.220 12610.902 4010.783 6521.042 7908.270 8297.542 5463.799 5230.244 13887.206 12771.482 19895.759 3887.439 7320.250 18149.421 6613.576 24821.383 5953.927 10082.383 24769.475 11151.913 9184.298 5380.354
27069.688 4773.522 20355.388 5994.109 12068.905 7464.502 13138.537 3286.823 3369.344 1013.017 1195.644 7187.358 26643.023 5235.719 8257.782 4488.055 14721.056 5610.949 0.000 3797.636 4630.913 10231.534 8888.856 10024.464 10704.218 8808.697 8554.159 12476.834 4615.805 3179.969 4019.807 3791.047 1807.273 6547.847 14124.124 4333.509 10296.560 6664.276 29481.717 21214.100 4242.116 7664.961 1275.671 6419.264 10618.701 5708.560 3338.649 5904.173 11638.632 12711.309 6801.683 4849.331 14290.314 3640.938 6628.689 18596.825 8421.681 6141.542 9245.789 4607.892 17415.502 29611.104 8181.525 871.408 9439.877 7596.578 15752.961 8593.523 4977.401 8609.011 11238.145 7407.614 16349.870 27537.076 4480.517 25459.643 15086.088 8713.904 14899.771 4111.149 8793.340 17370.328 8942.334 8798.753 4042.223 7742.230 12112.218 9677.139 3919.655 23629.547 8374.807 3950.979 8625.373 3913.053 3545.817 999.911 3771.050 17389.359 10664.685 15659.664 5641.553 6158.753 16211.888 10032.415 24200.882 3564.678 5639.728 24148.974 8085.814 4432.573 5962.062
24936.987 3076.283 17557.304 7099.770 11060.420 5653.147 10398.774 4927.139 2789.963 3365.088 3044.824 5989.015 24227.876 5287.934 5518.019 1416.328 11981.293 3913.711 3201.235 0.000 1559.185 7159.806 5817.129 8327.226 10189.069 6675.997 10194.475 9678.750 3075.608 2427.493 1598.992 365.961 2426.584 4850.609 15764.440 1261.782 8599.322 6303.055 26741.954 18573.943 3662.735 4925.198 4410.152 3762.986 8921.462 7225.841 878.417 7123.360 10630.147 13857.851 4369.339 1777.604 15930.630 1751.724 5346.539 16416.457 6724.443 3718.533 7221.942 2248.305 16900.352 26871.341 5109.798 3805.472 9056.139 6702.171 13572.593 11107.622 3280.162 5537.283 9540.906 5445.955 15834.720 25404.375 1524.001 22661.559 17600.187 7486.342 13521.678 3272.636 5721.613 19884.428 7817.220 7101.515 3716.262 9382.546 9372.455 12191.238 3919.852 20889.784 10888.907 525.893 6320.690 4796.861 5186.133 3498.754 1745.354 15256.659 9286.593 18173.764 5852.959 3835.361 14833.795 9023.929 21785.734 2504.090 8153.828 21733.826 7702.076 6072.889 6980.183
24658.657 3951.656 16206.930 8218.703 11935.793 5678.610 9242.483 5207.603 3896.822 3994.898 3674.634 5935.664 23359.940 5533.954 4361.728 756.195 10701.194 4151.170 3831.045 1450.320 0.000 6499.674 4466.755 8462.623 11064.442 6397.667 10474.939 8328.376 3301.668 2673.512 1960.934 1423.616 3056.394 5089.528 16044.904 191.945 8838.242 7178.429 25461.855 17425.661 4769.594 3768.908 5039.961 3111.181 9101.808 8344.774 1979.061 7387.110 11355.937 14103.870 3827.140 348.132 16211.094 2116.092 5088.629 15756.325 6859.840 3584.470 6964.031 2375.436 17775.726 25591.242 3759.424 4435.282 9082.885 7577.545 12912.461 11737.432 4155.535 4186.910 9779.826 5471.417 16710.094 25126.046 767.036 21311.186 18229.997 7955.271 12898.890 3518.655 5061.481 20514.237 7617.827 7236.912 4823.122 9663.009 8092.356 12821.048 5026.711 19609.685 11518.716 1323.913 5660.557 5077.325 5466.596 4128.564 1877.867 14978.329 9028.682 18803.574 6839.467 3577.450 14245.837 9899.303 20917.798 2750.110 8783.638 20865.891 7779.962 6353.353 8099.116
19374.849 8893.609 12935.958 12897.544 15124.784 7637.313 10749.104 11338.875 8838.775 9786.605 9466.341 11282.313 25512.861 11102.554 5994.543 6407.425 8824.076 8675.389 9622.752 7242.027 6631.938 0.000 3127.144 10602.461 14527.858 2933.125 16122.961 9205.964 8748.742 8804.785 6885.976 7215.323 8848.101 8635.816 22176.176 6334.535 11739.787 11367.869 24801.592 18932.282 9711.547 5686.742 10831.669 8870.309 11241.646 13023.615 7770.768 12955.710 14257.483 19672.470 8774.738 6850.356 22342.366 8024.838 10541.207 9720.062 8999.678 9283.281 12416.609 8382.620 21965.166 24930.979 4980.666 10226.989 14429.534 11766.985 6876.198 17529.139 9097.488 5408.151 12681.371 6845.712 20899.534 19860.857 6929.227 18040.213 24021.704 10856.816 15051.810 9087.255 2094.594 26305.945 13070.406 9376.750 9765.075 15794.282 9313.598 18612.755 9968.664 16607.386 17310.424 7115.620 2039.352 10878.173 11597.869 9920.271 8009.139 9612.012 14481.261 24595.281 11781.420 9289.768 16398.757 13090.062 23070.719 8881.382 14575.345 23018.811 13093.026 12484.625 12777.957
21780.745 8424.734 15206.376 12691.780 15661.519 8386.790 8527.308 9325.695 8369.900 8594.015 8273.751 9060.516 23291.064 8880.757 3772.746 5214.834 9700.639 8206.513 8430.162 6049.436 4738.439 2869.307 0.000 11170.803 15064.592 4359.231 13901.164 7327.821 6526.946 6791.604 6417.101 6022.733 7655.510 9156.907 20162.996 4930.384 12276.521 11651.506 24461.300 16710.485 9242.672 3464.946 9639.078 6648.512 11809.988 12817.852 6578.178 10733.913 14794.217 17450.673 6552.942 4662.719 20329.186 6234.184 8319.410 12125.958 9568.020 7061.484 10194.813 6160.824 22248.803 24590.687 2758.869 9034.399 12207.738 12050.622 9282.094 16336.549 8628.613 3186.355 13218.105 8179.598 21183.171 22266.752 4885.128 20310.631 22829.114 11393.550 12830.014 6865.459 1598.743 25113.354 10848.609 9945.093 9296.199 13781.101 7091.801 16939.320 9499.788 18609.130 16117.833 5923.029 2264.436 8656.377 9584.688 8727.681 5995.959 12017.908 12259.464 23402.690 11312.545 7067.971 14176.961 13626.796 20848.922 6738.503 13382.754 20797.014 10871.230 10471.444 12572.194
18338.918 6640.695 20891.296 7007.374 5733.730 5784.582 16673.817 12508.566 7411.838 10253.329 10114.426 13941.154 30891.612 12900.951 11793.062 8618.836 18063.757 5081.444 9636.297 8212.566 8843.349 11030.580 11409.766 0.000 6802.335 8783.427 17588.269 15690.939 10995.462 10180.145 7180.542 8320.868 10008.010 4308.643 22764.410 8545.946 1791.864 5380.206 32769.028 24856.994 6807.988 11200.241 10644.392 11420.613 646.909 7133.446 7947.948 14704.786 4433.842 21470.868 12104.778 9061.767 22930.599 9706.631 13301.446 17370.730 2116.443 11673.440 15176.849 10203.212 14304.830 32898.415 11121.986 10505.451 16975.993 5533.941 14035.488 15290.578 6199.131 11549.472 2599.173 5439.574 13312.494 18806.306 9140.638 25995.551 21674.993 3869.460 20430.562 11025.288 10477.305 23887.568 15769.359 1710.902 7811.712 16731.919 15454.919 16321.201 7597.456 24562.724 14963.713 8480.800 9785.974 12378.287 12767.559 9933.816 9700.261 12672.168 17241.500 22248.570 6417.500 11790.268 21777.509 5849.902 28449.470 10423.945 13322.227 28397.563 15621.930 13654.315 6907.917
20845.559 7960.789 24495.117 5396.137 2126.856 9388.402 20162.013 12984.017 8080.231 11399.629 11260.726 15358.364 34024.156 14300.126 15281.258 10909.450 21626.345 7832.229 10565.611 10230.276 11133.963 14634.400 14980.712 6957.680 0.000 12387.248 16684.543 19253.527 12412.672 11597.354 9471.156 10338.578 11179.494 7059.428 21367.017 10836.560 5462.526 5176.245 36372.849 28345.191 7371.661 14688.437 10784.400 13735.603 6235.454 5522.209 9904.253 15601.367 2732.017 22408.503 14341.957 11352.381 21533.206 11196.835 14799.694 20974.550 6242.413 13691.150 17194.559 12220.923 8805.464 36502.236 14684.575 11434.766 18393.203 4466.422 17639.308 14386.852 7519.225 15112.061 4287.588 9043.395 7739.832 21312.947 11287.240 29599.372 19346.346 3859.079 23070.777 12442.498 14048.251 20509.961 17186.568 6657.804 8438.170 15828.193 19017.507 15417.475 7803.509 28166.545 14055.347 10498.511 13356.920 13610.247 13243.011 10171.476 11424.433 15178.809 18835.691 19919.922 6044.673 13807.978 24382.894 1705.496 31582.014 11841.154 12418.501 31530.107 17039.140 14129.767 5296.680
19229.149 7386.105 14376.074 10585.325 12812.565 5325.094 11670.509 10932.271 7331.271 8808.962 8670.059 11480.030 26355.096 11324.657 6915.948 6341.612 11702.190 6922.371 8191.930 6636.271 6566.125 2984.234 4537.671 8290.242 12215.638 0.000 16199.607 10471.023 9065.315 8603.850 5378.472 6744.573 8431.716 6323.597 21769.572 6268.721 9427.568 9055.650 26253.806 19853.687 8204.043 6528.978 9467.601 8655.547 8929.427 10711.396 6371.653 13128.491 11945.263 19894.573 9371.506 6512.829 21935.762 7959.024 10632.995 10855.508 6687.459 9128.836 12508.397 8318.064 19652.947 26383.193 5902.071 9061.084 14627.251 9454.766 8011.644 16632.768 7589.984 6329.556 10369.152 4533.493 18587.315 19696.537 6735.238 19480.329 23125.333 8544.597 15894.046 9403.828 3556.521 25409.573 13162.194 7064.531 8257.570 15387.677 10235.003 17716.384 8461.159 18047.502 16414.052 6904.505 2480.298 10801.993 11191.264 8489.449 7846.069 9548.821 14573.049 23698.909 9484.861 9121.817 17240.993 10777.843 23912.954 8718.312 13678.973 23861.046 13324.328 12078.020 10465.738
34461.571 12189.527 23798.213 11554.667 17686.363 14880.507 13570.026 5796.224 11043.984 8819.173 8571.769 7933.733 25251.804 6666.654 11852.743 10809.865 18316.018 13026.954 8508.548 10189.470 10456.383 16392.077 13924.894 17423.679 16321.676 16200.581 0.000 16071.796 7877.334 8178.950 11068.346 10182.881 8504.649 13963.852 8046.994 10259.350 16966.695 12281.734 32319.459 21271.012 11916.756 11259.923 8213.864 9777.119 17328.278 11269.118 9752.248 3992.028 17256.089 7120.124 9984.391 10380.664 8213.183 9192.339 8789.134 25648.728 15837.686 9369.812 10234.824 9020.378 22347.735 32448.846 12589.835 8303.239 6731.923 13214.036 22804.864 5552.845 12393.406 12327.092 17908.280 14823.619 21674.563 34928.960 9721.235 29054.605 12630.411 14846.893 13508.551 7505.000 15115.150 15552.124 8295.389 16214.759 11553.170 1417.341 15707.180 5461.106 11430.602 26466.499 6822.796 10342.813 15714.227 6277.363 5816.549 8806.067 9011.768 24781.243 8356.384 13203.988 12508.011 9341.460 14820.668 15649.872 22809.662 8100.965 4471.064 22757.754 7176.884 4964.275 11463.704
25028.215 12018.556 8258.518 16285.602 19852.123 12577.395 5457.666 11825.809 11963.722 12061.798 11741.533 10643.344 22354.657 11000.089 5794.209 8823.094 3465.400 12068.901 11897.944 9517.219 8066.899 9215.696 7262.029 15361.408 19131.341 10612.190 16020.496 0.000 8646.278 9971.198 10027.833 9490.515 11123.293 13050.405 22383.860 8258.845 16467.126 15245.328 19906.409 13506.886 12836.494 5584.278 13106.861 8767.844 16000.593 16411.674 10045.960 12853.245 18984.821 19486.876 8135.769 7991.180 22550.050 9562.644 10084.675 15317.153 13758.625 9035.778 12046.130 8280.156 25842.625 20035.796 4840.793 12502.181 13790.565 15644.444 12337.086 18968.197 12222.435 4320.680 17408.710 12370.202 24776.993 25514.222 8213.589 13362.773 26231.764 15584.154 12924.430 8984.791 8458.648 28516.004 12340.924 14135.697 12890.021 16001.965 2020.482 19160.185 13093.610 11929.946 19520.483 9390.812 9107.223 10775.709 12084.803 12195.463 9084.020 15265.378 13745.305 26805.340 14906.367 8699.872 14271.377 17817.401 20943.338 9474.962 16014.402 20891.431 12454.057 12894.153 16166.016
27342.600 5264.172 16170.025 8428.436 13037.268 7955.152 8953.174 3609.950 4118.629 3982.616 3662.351 3214.101 22475.499 2752.717 4072.419 3440.138 10535.693 6101.600 3818.762 2901.870 2968.281 8611.752 6144.569 10515.115 11926.103 9081.609 7804.636 8291.471 0.000 1755.338 4142.991 2893.288 3044.111 7038.498 14168.000 2827.825 10787.211 7842.453 25296.354 16821.567 4991.401 3479.598 5027.679 2010.609 11109.352 8554.507 2826.894 4637.385 12606.994 11322.634 2616.963 2892.561 14334.190 1904.740 2655.431 17868.403 8912.332 1695.834 5272.532 1240.053 18637.386 25425.741 4809.510 4423.000 6248.940 8439.205 15024.539 10752.337 5468.051 4546.767 11728.795 7898.265 17571.754 27809.988 2319.197 21274.281 18015.904 9463.189 10926.514 768.931 7341.189 20300.144 5042.305 9289.404 5044.928 7786.106 7926.855 10944.325 5248.518 19444.184 11304.623 3053.221 7989.763 2559.849 3868.943 4116.282 1646.357 17662.272 6691.428 18589.480 7181.625 1894.373 12238.630 11000.777 20033.358 1259.102 7798.543 19981.450 4894.877 4678.293 8308.849
26992.831 4811.601 17548.495 7860.982 12584.696 7502.581 10331.643 3135.631 3666.058 2831.584 2511.320 4749.022 24077.260 3230.718 5450.888 3093.045 11914.162 5649.028 2667.730 2472.651 2739.564 8836.524 6644.164 10062.543 11473.531 8731.841 8251.125 9669.941 1720.076 0.000 3690.420 2466.061 1893.079 6585.927 13972.932 2542.530 10334.640 7389.882 26674.823 18423.328 4538.830 4858.067 3876.647 3612.370 10656.780 7575.433 2374.322 5083.874 12154.423 11800.634 4218.724 2663.845 14139.121 1475.520 4190.352 18093.175 8459.760 3308.241 6807.453 2131.790 18184.815 26804.210 5936.833 3271.968 7318.961 7986.634 15249.311 10557.269 5015.480 5925.236 11276.224 7445.693 17119.183 27460.220 2004.416 22652.750 17066.683 9010.618 12461.435 1215.420 7398.331 19350.923 6545.155 8836.833 4592.357 7591.037 9305.324 10749.256 4795.946 20822.653 10355.402 2625.994 7997.408 2873.381 3394.624 2965.250 1294.949 17312.503 8226.349 17640.259 6729.053 3491.672 13773.551 10548.206 21635.119 666.148 7603.474 21583.211 5964.898 4281.380 7828.936
24398.105 2749.075 18027.522 6918.135 10733.212 4628.743 10868.992 5553.799 2596.255 3731.592 3592.689 6986.388 24865.290 5946.185 5988.237 1813.237 12451.511 3000.682 3323.478 1257.799 2029.403 7556.716 6287.347 7412.756 9861.861 6137.115 10821.135 10148.968 4040.696 3225.378 0.000 1366.101 3053.244 3939.040 16391.101 1732.000 7687.753 5975.847 27212.172 19052.170 3469.027 5395.416 4599.149 4561.991 8009.894 7044.207 993.182 7750.020 10205.449 14516.101 5277.950 2247.822 16557.290 2751.864 6346.680 15925.243 5809.973 4718.673 8222.082 3248.446 16573.144 27341.559 5580.016 4192.632 10021.227 6374.963 13081.379 11734.282 2952.954 6007.501 8629.338 4421.550 15507.512 24865.494 1994.219 23131.777 18226.847 6804.782 14404.239 4070.521 6118.522 20511.088 8814.592 6187.045 3522.554 10009.206 9842.673 12817.898 3726.143 21360.002 11515.567 1526.034 5953.791 5423.521 5812.793 3620.997 2745.495 14717.777 10286.733 18800.424 5636.886 4835.501 15751.186 8696.721 22423.148 3469.178 8780.488 22371.240 8667.164 6699.549 6798.549
24734.090 3305.351 17378.008 7413.357 11289.488 5660.106 10219.478 4987.777 3103.550 3426.178 3105.914 5901.702 24140.562 5314.128 5338.723 1237.032 11801.997 4069.231 3262.325 449.403 1379.890 6980.511 5637.833 8444.119 10418.136 6473.099 10255.112 9499.454 3087.224 2453.686 1828.060 0.000 2487.674 5007.589 15825.078 1082.486 8756.303 6532.123 26562.658 18402.656 3976.322 4745.903 4471.242 3675.672 9078.443 7539.428 1107.484 7167.284 10859.214 13884.044 4282.026 1598.308 15991.268 1664.410 5259.226 16237.162 6841.336 3631.219 7134.628 2160.992 17129.420 26692.045 4930.502 3866.562 9023.704 6931.239 13393.298 11168.712 3509.230 5357.987 9697.887 5452.914 16063.788 25201.478 1344.705 22482.263 17661.277 7715.410 13434.365 3298.829 5542.317 19945.518 7729.907 7218.409 4029.849 9443.183 9193.159 12252.328 4233.438 20710.488 10949.997 322.996 6141.394 4857.498 5246.770 3559.844 1658.041 15053.762 9199.279 18234.854 6166.546 3748.047 14746.482 9252.997 21698.421 2530.284 8214.918 21646.513 7669.641 6133.526 7293.770
26781.366 4476.881 19140.072 6250.075 12059.981 7167.861 11923.220 3628.016 3141.342 938.505 799.601 5972.041 25427.707 4020.402 7042.465 3272.738 13505.739 5314.308 774.651 2582.320 3415.596 9016.217 7673.539 9727.823 10948.816 8520.375 8895.352 11261.518 3400.489 1964.652 3460.898 2575.730 0.000 6251.206 14465.318 3118.193 9999.920 6865.166 28266.400 19998.784 4014.114 6449.645 2050.322 5203.948 10322.060 5964.525 2144.800 5824.237 11629.707 12590.318 5586.367 3634.015 14631.507 2425.621 5413.372 18272.868 8125.040 4926.226 8030.472 3392.575 17660.099 28395.787 6966.209 1564.784 8541.981 7461.918 15429.004 8976.704 4680.760 7393.694 10941.504 7110.973 16594.467 27248.754 3265.201 24244.327 15469.269 8485.902 13684.454 2895.832 7578.024 17753.509 7768.175 8502.112 4067.641 8083.423 10896.901 10060.320 4175.621 22414.230 8757.988 2735.663 8177.101 3497.738 3887.010 1072.170 2555.734 17101.037 9449.369 16042.845 5897.518 4943.436 14996.571 10023.490 22985.565 2349.362 6022.909 22933.657 7187.918 4773.766 6218.028
23333.410 2520.113 19870.499 5809.821 8958.178 3529.734 13749.756 8381.302 3284.574 6126.065 5987.162 9813.890 27606.278 8773.687 8869.001 4491.572 15208.467 954.180 5509.033 4085.302 4716.085 8912.344 8862.684 5301.084 8356.600 7422.216 13648.637 12835.650 6868.198 6052.881 3053.278 4193.604 5880.747 0.000 19218.603 4418.682 5573.181 4470.586 29969.128 21932.934 2687.405 8276.181 6523.809 7357.519 5895.321 5935.892 3820.684 10577.522 8090.877 17343.604 8073.478 4934.503 19384.793 5579.367 9174.182 16349.933 3698.301 7546.176 11049.585 6075.948 15067.883 30098.515 8266.697 6378.188 12848.729 4869.702 13014.691 13247.648 2078.548 8694.183 6514.765 3472.846 14002.252 23800.798 5013.374 24974.754 19632.063 4690.210 17145.228 6898.024 7930.223 21916.303 11642.095 4075.374 3691.129 12836.708 12599.629 14278.271 3476.873 23541.927 12920.782 4353.536 7238.892 8251.024 8640.295 5806.552 5572.997 14499.913 13114.236 20205.639 4197.320 7663.004 18492.175 6923.456 25164.136 6296.681 10392.263 25112.229 11494.666 9527.051 5690.234
39943.168 17742.444 30101.881 16770.911 21660.639 20433.424 20615.357 11349.142 16596.901 14372.090 14124.686 14979.063 32266.048 13303.109 18004.275 16362.782 24467.549 18579.872 14061.465 15742.387 16009.301 22106.261 19913.901 22639.923 20439.948 21753.498 8359.841 22223.327 14273.463 13731.868 16621.263 15735.798 14057.566 19516.770 0.000 15812.267 22182.939 17497.977 39228.210 28316.342 17469.673 17411.454 13766.782 16165.757 22544.522 16485.361 15305.166 11419.195 22265.800 10103.220 16459.341 15933.581 571.038 14745.256 15834.464 31362.912 21390.603 15844.762 17280.155 15171.909 25129.032 39357.597 18741.366 13856.156 14001.354 18430.280 28519.048 8512.223 17946.323 18478.623 23124.523 20376.536 24455.860 40410.556 15274.152 35206.136 8118.029 20063.137 20522.796 13768.806 20668.067 11219.260 15340.719 21767.676 17106.087 7921.036 21858.711 7278.579 16983.519 33376.039 9267.564 15895.730 21267.144 11972.334 11369.466 14358.984 14564.685 30334.160 15625.815 8750.302 17724.254 15816.410 21834.912 20866.116 29823.906 14133.366 9687.307 29771.998 14469.997 10517.192 16679.947
24514.775 3807.774 16343.585 8074.820 11791.911 5534.727 9379.138 5035.259 3752.940 3851.016 3530.752 5763.320 23187.597 5361.610 4498.383 612.313 10837.849 4007.287 3687.162 1306.437 345.466 6355.791 4603.410 8318.740 10920.560 6253.784 10302.595 8465.031 3129.325 2501.169 1817.052 1279.734 2912.511 4945.646 15872.561 0.000 8694.359 7034.546 25598.510 17544.285 4625.712 3905.562 4896.079 2938.838 8957.925 8200.892 1835.179 7214.767 11212.055 13931.527 3654.796 563.885 16038.750 1943.748 4916.285 15612.442 6715.957 3412.126 6791.688 2203.092 17631.843 25727.897 3896.079 4291.400 8910.541 7433.662 12768.578 11593.550 4011.653 4323.564 9635.943 5327.535 16566.211 24982.163 594.693 21447.840 18086.115 7811.388 12726.546 3346.312 4917.598 20370.355 7445.484 7093.030 4679.239 9490.666 8229.011 12648.885 4882.828 19746.339 11374.834 1180.030 5516.675 4904.981 5294.253 3984.682 1705.524 14834.447 8856.339 18659.691 6695.585 3405.107 14073.493 9755.420 20745.455 2577.767 8639.755 20693.547 7607.618 6181.009 7955.234
18175.770 6963.864 22067.500 6630.505 4543.826 6960.786 17817.146 12831.734 7489.795 10576.498 10437.595 14264.322 32034.942 13224.120 12936.391 8942.004 19207.086 5404.613 9959.466 8535.734 9166.517 12206.784 12553.095 2048.854 5612.432 9959.631 17211.399 16834.268 11318.631 10503.313 7503.711 8644.036 10331.179 4631.812 22387.540 8869.114 0.000 5003.337 33945.232 26000.324 6781.226 12343.570 10675.124 11807.952 1183.896 6756.576 8271.117 15027.955 3243.939 21794.036 12523.910 9384.936 22553.730 10029.799 13624.614 18546.934 3183.236 11996.608 15500.017 10526.381 13188.223 34074.619 12265.316 10828.620 17299.162 5157.072 15211.692 14913.709 6522.299 12692.801 1409.269 6615.778 12122.591 18643.158 9463.807 27171.755 21298.124 3418.967 21573.891 11348.456 11620.635 23510.699 16092.527 3118.415 7847.735 16355.050 16598.248 15944.332 7633.479 25738.928 14586.843 8803.968 10929.304 12701.456 13090.728 10062.200 10023.430 12509.020 17564.668 21871.700 6040.630 12113.436 22920.838 4659.998 29592.800 10747.113 12945.357 29540.892 15945.099 13977.484 6531.048
22574.727 4125.002 21684.010 1756.704 6264.878 6577.296 16370.840 8603.887 3764.605 7019.499 6880.595 11042.738 30232.983 9919.996 11490.084 7118.276 17835.172 4234.492 6185.481 6439.103 7342.789 11823.294 11600.733 5271.482 5052.898 9576.142 12337.599 15462.354 8097.046 7281.728 5679.983 6547.405 6799.363 4064.710 17513.740 7045.386 4814.498 0.000 32595.833 24554.017 3056.035 10897.264 6404.270 9802.194 5176.081 1882.776 5902.349 11221.237 5834.604 18028.373 10408.547 7561.208 17679.929 6881.209 10484.068 18163.444 4358.908 9524.472 13101.169 7990.821 11764.182 32725.220 10893.402 7054.635 14077.577 1450.811 14828.202 10039.908 3728.052 11320.887 5756.082 6232.288 10698.550 23042.115 7496.067 26788.265 16424.323 2809.574 18755.151 8126.872 10930.702 18636.898 12870.942 4774.299 4122.544 11481.249 15226.334 11070.531 3423.379 25355.439 9713.043 6707.337 10239.371 9230.117 8862.880 5791.346 7108.807 16313.424 14520.065 16997.900 1577.096 9723.010 20067.268 4228.387 27790.841 7525.529 8071.557 27738.933 12723.514 9749.637 1657.247
38722.015 28576.485 13737.777 32843.531 36410.052 29135.324 19230.569 28111.486 28521.651 28484.152 28163.888 25648.352 23173.937 27285.766 22033.240 25381.024 16514.942 28626.830 28320.299 26075.148 24624.829 24360.483 23819.958 31919.337 35689.271 25893.564 31428.226 19513.272 24931.954 26256.874 26585.763 26048.445 27545.648 29608.334 38466.036 24816.774 33025.055 31803.257 0.000 16720.565 29394.423 21869.954 29529.215 24596.436 32558.522 32969.603 26603.890 29138.922 35542.750 32102.557 23853.258 24549.109 38632.226 25865.329 25665.128 28057.318 30316.554 24753.266 24987.870 24565.832 42400.554 556.358 21760.152 28924.536 26923.384 32202.373 26030.886 35253.874 28780.364 20878.609 33966.639 28604.818 41334.922 39208.023 24771.518 11298.750 42517.440 32142.084 24651.827 25270.467 25016.577 44801.681 24956.604 30693.626 29447.950 32287.642 17593.059 35445.861 29651.539 11037.020 35806.160 25948.741 25577.558 27061.385 28370.479 28617.818 25369.696 28959.178 26360.986 43091.017 31464.296 24417.360 25998.774 34375.330 25164.155 25760.639 32300.079 25158.162 25620.460 29179.830 32723.945
36414.252 21632.909 13997.627 25628.655 29617.046 22681.227 9186.247 19185.263 21318.849 20655.973 20335.709 14997.312 9226.468 18200.837 14275.524 18437.447 12621.752 21832.422 20492.120 18991.623 17965.591 19833.044 17365.861 25465.240 28745.694 20716.022 20781.099 14247.531 17239.408 18955.557 19642.186 18925.360 19717.469 22770.781 27818.909 17825.135 26519.494 24859.681 17729.194 0.000 22191.621 14625.961 21552.905 15964.702 26104.425 25399.822 19649.705 19582.131 29037.190 19063.360 15404.587 17889.871 27985.099 18571.622 15014.088 26421.561 23862.457 16148.761 14336.830 17272.125 35456.978 17858.581 16000.090 21096.357 15663.776 25258.797 23723.122 26232.147 21836.788 14955.895 27461.078 22474.034 34391.346 36900.259 17629.732 18887.772 32867.232 25636.523 9718.534 17814.075 18562.480 35874.515 14309.477 24239.529 22245.148 22096.644 12528.098 26140.408 22448.737 16428.169 26878.994 19005.165 19211.055 19193.871 19444.256 20789.639 18075.989 26651.414 13578.152 33440.808 24381.844 15968.690 9625.960 27580.555 11216.686 18459.322 23373.856 11210.693 14973.333 20253.606 25509.069
25120.808 2205.467 21413.722 3612.970 8929.733 6065.796 14196.870 6102.307 1411.485 4517.919 4379.016 8718.142 27942.487 7418.416 9316.115 5199.401 15779.389 3490.242 3683.901 4225.889 5423.915 9993.948 9681.858 7711.427 7818.568 8503.820 11369.643 13535.168 5772.450 4957.132 3761.108 4334.191 4297.784 4237.404 16939.608 5126.511 7360.579 3734.919 30540.050 22288.555 0.000 8723.295 3902.690 7477.598 7722.162 3739.041 3577.753 8719.657 8499.459 15526.793 8083.951 5642.333 17105.798 4556.613 8159.472 18291.948 6108.644 7199.875 10776.573 5666.225 14529.852 30669.437 8974.527 4553.056 11752.981 4331.671 15448.084 10719.063 2297.475 9402.012 8302.163 6008.908 13464.220 25588.196 5492.231 26517.977 17103.478 5355.655 16430.555 5802.275 9011.827 19387.718 10546.346 6485.716 1070.010 10557.714 13170.551 11749.686 855.072 24687.880 10392.197 4494.123 8320.496 6728.537 6361.301 3289.766 4784.210 17011.355 12195.469 17677.054 2765.935 7398.414 17742.672 6893.242 25500.346 5200.932 7863.679 25448.438 10398.918 7248.057 3493.383
24397.398 7775.304 13025.603 11705.381 15608.871 8334.143 5808.752 6886.895 7395.575 7259.561 6939.297 6238.929 20469.476 6061.175 1054.190 4579.843 7391.271 7825.649 7095.708 5060.740 3823.648 5485.960 3018.777 11118.156 14888.090 6368.938 11081.582 5147.049 3707.363 5032.283 5784.582 4994.477 6321.057 8807.153 17444.946 4015.593 12223.874 11002.076 22151.931 13991.929 8268.347 0.000 8304.625 3828.930 11757.341 11831.453 5718.822 7914.331 14741.569 14631.091 3731.354 3747.928 17611.136 4640.739 5499.828 14742.611 9515.373 4241.902 7375.231 3341.242 21599.373 22281.318 1683.718 7699.945 9386.150 11401.192 11898.747 14029.283 7979.183 1405.767 13165.458 8126.950 20533.741 24883.405 3823.108 18129.858 21292.850 11340.903 10008.426 4045.876 4215.396 23577.090 8029.027 9892.445 8321.874 11063.051 4782.433 14221.270 8525.463 16299.761 14581.569 5147.560 4863.971 5836.795 7145.889 7393.227 4145.105 14634.561 9439.882 21866.426 10458.570 4248.389 11355.373 13574.149 18027.334 4536.048 11075.488 17975.427 8049.642 7955.239 11585.795
27760.380 5464.214 21046.081 5615.767 11690.564 8155.194 13734.373 2804.224 3983.115 1703.710 1886.336 7731.394 26900.438 4803.125 8948.474 5178.747 15411.748 6301.641 1393.084 4488.328 5321.605 10922.226 9579.548 10715.156 10325.877 9499.389 8071.560 13167.527 5306.498 3870.661 4710.499 4481.739 2497.965 7238.540 13641.525 5024.202 10412.410 6285.935 30172.409 21435.358 4695.011 8355.654 0.000 7109.957 10773.993 5330.218 4029.341 5421.574 11260.291 12228.710 7492.376 5540.023 13807.715 4331.630 7319.381 19287.517 9112.373 6832.234 9936.481 5298.584 17037.160 30301.796 8872.217 1345.895 8957.277 7218.237 16443.653 7592.935 5668.093 9299.703 11353.994 8098.306 15971.528 28227.768 5171.210 26150.336 14085.500 8407.485 15168.180 4801.841 9484.033 16369.740 8459.735 9489.446 4057.785 7259.630 12802.910 8676.551 3935.217 24320.239 7374.219 4641.671 9316.065 3430.454 3063.217 1554.246 4461.743 18080.052 10393.292 14659.076 5263.211 6849.445 16480.297 9654.073 24458.296 4255.371 4639.140 24406.388 7603.215 3949.973 5583.721
27345.008 6163.140 16290.207 9944.224 14147.277 8364.960 7866.314 5125.738 5634.417 5498.404 5178.139 3636.752 21420.774 4009.466 3716.781 3442.546 10502.462 6837.521 5334.550 3307.192 2970.689 8731.934 6264.751 11148.973 13275.926 9084.017 9227.129 8411.653 1554.977 3271.126 4647.285 3240.929 4559.899 7775.879 15683.788 2830.233 11524.592 9358.241 25263.123 15732.833 6507.189 3599.780 6543.467 0.000 11788.158 10070.295 3965.274 6059.878 13717.004 12464.868 1528.228 2894.969 15849.978 2887.191 2789.717 17988.585 9546.190 1285.558 4665.119 1587.693 19987.209 25392.510 4929.692 5938.787 6783.973 9789.028 15144.721 12268.125 6367.019 4666.949 12466.177 8157.768 18921.578 27812.396 2634.830 21394.462 19531.692 10573.199 10959.724 2129.644 7461.370 21815.932 5318.916 9923.263 6560.716 9232.119 7893.624 12460.113 6764.306 19410.952 12820.411 3400.861 8109.945 4075.637 5384.731 5632.070 2391.557 17664.680 6729.770 20105.268 8697.413 1278.539 12276.973 12110.786 18978.633 2774.890 9314.331 18926.725 5463.899 6194.081 9824.637
17978.227 7044.732 21415.870 6784.644 5267.406 6309.156 17198.391 12912.603 7643.935 10657.367 10518.463 14345.191 31416.186 13304.989 12317.636 9022.873 18588.331 5485.481 10040.334 8616.603 9247.386 11555.154 11934.340 1046.597 6336.011 9308.001 17365.539 16215.513 11399.500 10584.182 7584.580 8724.905 10412.048 4712.680 22541.680 8949.983 1325.540 5157.476 33293.602 25381.568 6935.365 11724.815 10829.263 11888.821 0.000 6910.716 8351.986 15108.823 3967.518 21874.905 12604.779 9465.805 22707.869 10110.668 13705.483 17895.304 2641.017 12077.477 15580.886 10607.249 13911.802 33422.989 11646.560 10909.489 17380.030 5311.211 14560.062 15067.848 6603.168 12074.046 2132.848 5964.148 12846.170 18445.615 9544.676 26520.125 21452.263 3573.106 20955.136 11429.325 11001.879 23664.838 16173.396 2235.476 8001.874 16509.189 15979.493 16098.471 7787.618 25087.298 14740.983 8884.837 10310.548 12782.325 13171.596 10216.339 10104.298 12311.477 17645.537 22025.840 6194.770 12194.305 22302.083 5383.577 28974.044 10827.982 13099.497 28922.137 16025.968 14058.353 6685.187
23938.834 5364.875 23266.878 285.549 6591.858 8126.276 17313.197 8105.786 4547.695 6562.017 6423.114 11414.153 30869.819 9462.514 12432.441 8359.111 18895.716 5550.722 5727.999 7342.215 8583.624 13153.658 12841.567 6863.345 5227.170 11159.010 11371.196 16651.494 8842.601 7406.764 6920.817 7450.517 6341.882 5647.577 16547.336 8286.221 6406.361 1721.400 33656.376 25404.882 3819.063 11839.621 5628.832 10593.924 6767.944 0.000 6694.079 10723.136 6161.584 17270.441 11028.479 8802.042 16713.526 7672.940 10855.484 19746.312 5950.771 10316.202 13472.584 8782.551 11938.454 33785.763 12134.236 6597.154 13984.093 2311.956 16411.070 9073.505 5044.282 12561.722 7347.945 7815.156 10872.822 24406.222 8608.558 28371.133 15457.920 4102.303 19126.566 8337.944 12171.536 17009.056 13210.287 6366.162 4254.971 10514.846 16286.878 10104.128 3512.273 26938.306 8746.639 7610.450 11480.206 8732.016 8364.779 5333.864 7900.537 17896.292 14891.480 16031.496 1764.771 10385.548 20438.683 4555.367 28427.677 7791.474 7105.154 28375.769 12630.030 9251.536 510.085
24709.323 2793.388 18166.924 6512.982 10777.525 5370.253 11008.394 4560.617 2203.176 2998.567 2678.302 5993.206 24837.496 4953.003 6127.639 2025.948 12590.913 3630.816 2811.220 867.279 2168.806 7769.427 6426.749 8044.331 9906.174 6448.332 9827.953 10288.370 3047.514 2232.196 1316.098 975.581 2060.062 4567.714 15397.919 1871.402 8316.427 5927.000 27351.574 19183.564 3075.948 5534.819 4043.630 4372.606 8638.568 6639.054 0.000 6756.838 10347.252 13522.919 4978.959 2387.224 15564.108 1831.677 5434.536 16236.460 6441.548 4328.153 7831.562 2857.925 16617.458 27480.961 5719.418 3438.950 9028.045 6419.277 13392.596 10741.101 2997.267 6146.903 9258.012 5163.060 15551.826 25176.711 2133.621 23271.179 17233.666 7203.447 13705.619 3077.339 6331.233 19517.906 7821.410 6818.620 3129.475 9016.024 9982.075 11824.717 3333.064 21499.404 10522.385 1135.513 6265.009 4430.339 4819.611 3108.740 2059.274 15028.995 9470.533 17807.242 5266.171 4444.981 15017.736 8741.035 22395.354 2475.996 7787.306 22343.446 7673.982 5706.367 6393.396
31384.730 9112.685 20693.186 10740.789 16815.585 11803.666 11905.667 3166.051 7967.142 6187.738 5940.334 6026.006 24074.266 3409.490 8595.579 7713.355 15058.853 9950.113 5877.113 7092.960 7359.874 13134.912 10667.730 14363.628 15450.898 13123.739 3622.576 12814.632 4620.170 5102.109 7991.504 7086.371 5427.808 10887.011 11033.523 7162.840 14635.724 11410.956 29819.514 19606.653 8839.915 8002.759 5582.430 6519.955 14957.865 10455.240 6675.407 0.000 16385.312 7999.891 6727.226 7284.154 11199.713 6095.829 6314.311 22391.563 12760.845 6112.648 8570.465 5763.213 22162.182 29948.901 9332.671 5671.804 5554.385 12287.718 19547.699 8510.329 9316.565 9069.927 15577.309 11746.778 21096.550 31852.118 6624.725 25797.441 15869.969 13311.703 12331.013 4247.836 11864.349 18275.796 6376.261 13137.917 8893.442 4100.077 12450.015 8702.316 8799.167 23967.344 9280.275 7246.303 12512.924 3218.043 3186.376 6174.632 5915.258 21704.402 7178.846 16443.545 10388.233 6084.296 13643.130 14779.095 21632.124 4843.801 5556.534 21580.216 5047.552 3471.240 10708.742
18432.041 8311.155 24457.532 6475.152 1618.387 9350.817 20207.178 13847.870 8462.924 11907.616 11768.713 15741.057 34374.522 14700.855 15326.422 11259.816 21597.118 7794.644 11290.584 10580.642 11484.329 14596.815 14943.127 4835.855 2775.258 12349.663 17646.114 19224.300 12795.366 11980.048 9821.522 10688.944 11687.481 7021.843 22752.699 11186.925 3049.009 5808.835 36335.264 28390.355 7754.355 14733.602 11648.253 14085.969 3970.898 6601.224 10254.618 16465.220 0.000 23270.771 14692.322 11702.747 22918.888 11579.529 15182.388 20477.823 5835.619 14041.516 17544.925 12571.289 10262.783 36464.651 14655.347 12159.739 18775.896 4978.860 15821.520 15348.423 7869.591 15082.833 1874.071 9005.810 9197.152 18899.429 11637.606 29561.787 20732.028 3710.846 23453.470 12825.191 14010.666 21895.643 17569.262 5792.624 8820.864 16789.764 18988.279 16379.046 8606.608 28128.960 15021.557 10848.877 13319.335 14178.191 14106.863 11035.329 11807.126 12765.291 19218.385 21305.604 6932.436 14158.344 24765.587 2114.002 31932.380 12223.848 13380.072 31880.473 17421.834 14993.620 6375.695
38136.264 15864.219 24592.093 17486.475 23618.171 18555.199 14363.906 9970.700 14718.676 12992.387 12744.983 9296.317 22539.606 9011.857 14382.015 14439.664 19927.799 16701.647 12681.762 13819.269 14081.662 19725.133 17257.950 21115.162 22253.484 19875.273 6690.524 19404.853 11113.381 11853.643 14743.038 13812.680 12179.341 17638.545 10108.579 13889.149 21387.258 18213.542 33113.339 19104.330 15591.448 14592.979 12387.079 12295.597 21709.398 17200.926 13426.941 8059.453 23187.897 0.000 11966.533 14005.943 10212.847 12822.139 9909.736 28981.784 19512.378 12158.643 9847.331 12353.434 28936.463 33242.726 15922.891 12476.453 6662.958 19039.252 26137.920 12141.573 16068.098 15660.148 22328.842 18498.311 27899.135 38603.652 13351.034 30545.302 16301.428 20063.236 10796.353 10741.047 18454.570 19402.659 8283.901 19889.451 15644.975 8006.069 18199.428 12049.834 15603.816 27260.379 13411.524 13972.613 19103.145 10022.692 9991.025 12979.281 12641.567 28455.935 7134.132 16875.004 17192.882 11756.415 12108.470 21581.680 20097.464 11554.426 10402.872 20045.556 7824.266 10413.311 17395.512
27792.602 6875.116 15694.133 10656.199 14859.253 9128.909 7254.492 5512.586 6346.393 5920.045 5599.781 2507.575 20970.955 3968.720 3104.959 4206.494 9890.640 7601.469 5756.192 4019.168 3734.637 8881.164 6413.981 11912.922 13987.902 9726.906 9436.677 8137.024 2266.952 3983.101 5397.825 3952.904 4981.541 8539.827 16070.636 3594.182 12288.541 10070.217 24651.301 15121.011 7219.165 3492.554 6965.108 1300.577 12552.107 10663.894 4677.249 6269.427 14428.979 11454.283 0.000 3658.918 16236.826 3599.166 1948.905 18137.815 10310.139 1176.305 4199.530 2299.669 20699.185 24780.688 5078.923 6360.429 5654.796 10501.004 15293.951 12654.973 7078.995 4816.179 13230.125 8921.716 19633.553 28278.610 3370.071 20798.388 19918.540 11285.175 10219.988 2841.620 7610.601 22202.780 4335.779 10687.211 7272.692 9441.667 7281.802 12846.961 7476.281 18799.130 13207.259 4112.837 8259.176 4462.485 5771.579 6053.711 3103.533 18029.765 5984.902 20492.116 9409.389 564.102 11532.105 12822.762 18528.814 3486.866 9701.179 18476.906 4318.288 6580.929 10536.613
24992.205 4299.789 16131.211 8566.835 12283.926 6026.742 9166.764 5131.883 4244.955 4343.031 4022.766 5859.944 23284.220 5458.234 4286.008 1104.327 10625.475 4499.302 4179.177 1798.452 348.132 6847.806 4391.035 8810.755 11412.574 6731.214 10399.219 8252.657 3225.948 2597.793 2309.066 1771.748 3404.526 5437.661 15969.185 540.078 9186.374 7526.561 25386.136 17349.941 5117.727 3693.188 5388.094 3035.462 9449.940 8692.907 2327.193 7311.391 11704.070 14028.151 3751.420 0.000 16135.374 2040.372 5012.909 16104.457 7207.972 3508.750 6888.312 2299.716 18123.858 25515.523 3683.704 4783.414 9007.165 7925.677 13260.593 12085.564 4503.668 4111.190 10127.958 5819.549 17058.226 25459.593 691.317 21235.466 18578.129 8303.403 12823.170 3442.936 5409.613 20862.370 7542.108 7585.044 5171.254 9587.290 8016.637 12745.509 5374.843 19533.965 11866.849 1672.045 6008.690 5001.605 5390.877 4476.696 1802.147 15311.877 8952.963 19151.706 7187.600 3501.731 14170.117 10247.435 20842.079 2674.390 9131.770 20790.171 7704.242 6277.633 8447.249
40109.357 17908.634 30268.071 16937.100 21810.824 20599.614 20781.546 11515.331 16763.091 14538.280 14290.876 15145.253 32371.681 13469.298 18170.464 16528.971 24633.739 18746.061 14227.655 15908.577 16175.490 22272.450 20080.090 22806.112 20590.134 21919.688 8526.031 22389.517 14439.653 13898.057 16787.453 15901.987 14223.756 19682.959 571.038 15978.456 22349.129 17664.167 39394.399 28482.532 17635.863 17577.644 13932.971 16331.947 22710.711 16651.551 15471.355 11585.385 22415.985 10208.853 16625.531 16099.771 0.000 14911.446 16000.654 31529.101 21556.793 16010.952 17446.344 15338.099 25279.218 39523.786 18907.556 14022.346 14167.544 18596.469 28685.237 8662.409 18112.513 18644.813 23290.713 20542.726 24606.045 40576.746 15440.342 35372.326 7759.534 20229.326 20628.428 13934.996 20834.257 10860.765 15506.909 21933.865 17272.277 8087.226 22024.900 7428.765 17149.709 33542.229 9417.750 16061.920 21433.334 12138.524 11535.656 14525.174 14730.875 30500.350 15792.005 8391.807 17890.444 15982.600 21940.545 21032.305 29929.539 14299.556 9853.497 29877.631 14636.186 10683.382 16846.137
26145.321 4080.387 17456.297 7673.491 12064.524 6771.367 10239.446 3752.110 3363.685 3300.658 2980.394 4811.826 24021.902 4078.461 5358.690 2271.302 11821.965 4917.814 3136.805 1580.883 2197.607 8014.781 6102.207 9331.329 11171.158 7884.330 9019.445 9577.743 1866.135 1218.019 2949.472 1574.294 2362.154 5854.712 14589.411 2000.573 9603.425 7087.509 26582.625 18367.969 4236.457 4765.870 4345.721 3557.012 9925.566 7799.563 1633.374 5931.617 11634.250 12648.377 4163.365 2121.887 14755.601 0.000 4253.157 17271.432 7728.546 3293.560 6870.257 1759.910 17882.442 26712.012 5394.876 3741.042 7846.665 7684.261 14427.568 11043.192 4284.266 5822.362 10545.010 6714.479 16816.810 26612.709 1462.458 22560.552 17535.757 8490.445 12524.239 2063.162 6576.588 19819.997 6640.031 8105.618 4289.984 8207.516 9213.127 11365.735 4493.573 20730.455 10824.476 1734.226 7175.664 3621.832 4011.103 3434.324 752.991 16464.992 8289.154 18109.333 6426.681 3492.098 13836.356 10028.033 21579.760 1294.617 8089.397 21527.852 6492.603 4897.859 7553.905
29159.477 7969.935 17311.490 11080.953 15743.030 10441.503 7235.042 5644.095 6824.392 6051.555 5731.291 1007.362 20401.108 3809.054 4722.316 5541.815 11507.997 8807.362 5887.701 5341.807 5069.959 10498.521 8031.338 13220.878 14631.866 10948.802 8606.323 9754.381 2705.763 4415.979 6720.464 5275.543 5113.050 9744.261 15644.133 4929.503 13492.974 10548.216 25984.475 14936.028 7697.164 5109.911 7096.618 2635.898 13815.114 10795.404 5532.656 6151.543 15312.757 9954.070 2306.834 4994.239 15810.322 4610.502 0.000 19755.172 11618.094 2498.944 3065.793 3622.308 21343.149 26113.862 6696.279 6491.939 4154.583 11144.968 16911.308 12786.483 8173.814 6433.536 14434.558 10234.310 20277.517 29626.866 4692.710 22415.745 20050.050 12168.952 8719.775 3260.350 9227.958 22334.290 2835.567 11995.167 7750.691 9474.210 8899.159 12978.470 7954.281 20131.515 13338.769 5435.476 9876.533 4593.995 5903.089 6185.221 4352.119 19479.149 4484.689 20623.626 9887.388 2372.549 10031.892 13706.540 17958.966 3964.865 9832.688 17907.058 2851.660 6712.439 11014.612
16602.032 17664.523 15826.313 19922.179 21288.851 14661.949 19183.345 20863.306 17609.689 19087.380 18948.477 20806.744 34794.820 20626.984 15518.974 15931.855 14937.550 16259.226 18470.348 16766.457 16156.369 9949.378 12651.575 17627.096 21552.493 11159.094 25647.391 15697.018 18273.173 18329.215 15656.890 16739.754 18372.532 15660.452 31700.607 15858.965 18764.422 18392.504 28561.016 25947.049 18164.552 15211.173 19746.019 18394.740 18266.281 20048.251 16650.072 22480.141 19988.964 29196.901 18299.169 16374.787 31866.797 17549.268 20065.638 0.000 16024.313 18807.711 21941.040 17907.051 28679.057 28690.403 14505.096 19339.502 23953.965 18791.620 6121.883 26911.186 17555.695 14932.582 19101.958 13870.347 27924.170 17038.566 16453.658 20667.138 33403.751 17881.451 24576.241 18611.686 11619.025 35687.991 22594.836 16401.386 18535.988 25318.712 16254.890 27994.802 18739.577 19234.311 26692.470 16640.050 10955.860 20402.604 21122.299 18767.867 17533.570 8491.846 24005.691 33977.328 18821.716 18814.198 25923.188 20114.698 32595.149 18405.813 23957.392 32543.242 22617.457 22009.056 19802.593
20311.769 4783.730 19334.197 5931.694 7061.749 4227.483 15116.718 10651.601 5554.873 8396.364 8257.461 12084.189 29334.514 11043.986 10235.963 6761.871 16506.658 3224.479 7779.332 6355.601 6986.384 9473.481 9852.667 1972.850 6464.822 7226.329 15918.936 14133.840 9138.497 8323.179 5323.577 6463.902 8151.045 2451.678 21488.902 6688.980 3039.412 4304.526 31211.930 23299.896 4951.023 9643.142 8787.427 9627.818 2612.035 6057.766 6090.983 12847.821 5815.666 19613.903 10343.777 7204.802 21655.091 7849.666 11444.481 15813.631 0.000 9816.474 13319.883 8346.247 14189.147 31341.317 9564.888 8648.486 15119.028 4458.261 12478.389 14214.898 4342.166 9992.373 3980.996 3882.475 13123.515 20779.157 7283.673 24438.452 20599.313 2793.780 18873.463 9168.323 8920.206 22811.888 13912.393 747.140 5954.746 15107.007 13897.820 15245.521 5740.490 23005.626 13888.032 6623.835 8228.876 10521.322 10910.594 8076.851 7843.296 13963.611 15384.534 21172.890 5154.023 9933.303 20220.410 5027.026 26892.372 8566.979 12246.547 26840.464 13764.965 11797.350 5832.237
27732.920 6486.397 16148.408 10045.915 14470.534 8752.872 7708.768 5158.147 5736.109 5565.607 5245.343 2992.870 21229.219 3864.576 3559.235 3830.458 10344.916 7225.432 5401.753 3630.449 3358.601 9119.845 6652.663 11536.885 13543.582 9471.929 9082.239 8591.299 1617.479 3340.481 5009.106 3564.186 4627.102 8163.791 15716.198 3218.145 11912.504 9459.933 25105.576 15575.286 6608.881 3946.830 6610.670 924.540 12176.070 10171.987 4288.530 5914.988 14040.260 11939.578 1370.682 3282.881 15882.388 3210.447 2347.882 18376.496 9934.102 0.000 4223.284 1910.950 20254.866 25234.963 5317.604 6005.991 6114.872 10056.685 15532.632 12300.535 6690.276 5054.860 12854.088 8545.680 19189.234 28200.308 2981.352 21252.663 19564.102 10896.456 10523.021 2184.853 7849.282 21848.342 4821.075 10311.174 6662.408 9087.229 7736.078 12492.522 6865.997 19253.406 12852.821 3724.118 8497.857 4108.047 5417.141 5699.273 2714.814 18052.592 6287.935 20137.678 8799.104 623.500 11835.138 12434.043 18787.077 2876.582 9346.740 18735.169 4760.809 6226.491 9926.329
31060.260 10098.538 17384.188 13561.737 18082.675 12342.286 7156.001 8124.880 9305.176 8532.339 8212.075 2873.678 19230.663 6289.838 6623.099 7442.598 12719.894 10837.573 8368.486 7242.590 6970.742 12399.304 9932.121 15126.299 17112.650 12849.585 9820.322 11655.164 5186.547 6896.763 8621.247 7176.326 7593.835 11775.931 16858.132 6830.286 15524.645 13029.000 25905.434 14856.987 10177.948 7010.694 9577.402 4536.681 15765.484 13276.188 7900.671 8422.381 17652.401 9815.482 4207.617 6895.022 17024.321 6822.588 2976.371 21655.955 13523.516 4399.727 0.000 5523.091 23823.933 26034.821 8597.062 8972.723 4668.985 13625.752 18812.091 15267.267 10302.417 8334.319 16466.229 12135.093 22758.302 31527.649 6593.493 23337.397 21906.455 14508.597 7487.410 5741.135 11128.741 24815.074 2669.529 13900.588 10231.476 10919.584 10799.942 15179.631 10435.065 20052.474 15819.553 7336.259 11777.316 7074.779 8383.873 8666.005 6326.955 21379.932 3722.322 22480.031 12368.172 4392.708 8799.527 16046.184 16788.521 6445.650 12313.473 16736.613 3510.691 9193.223 13495.397
26443.010 4909.740 16321.954 8722.348 12893.877 7369.027 9105.102 4470.759 4412.542 4305.861 3985.596 4293.552 22879.895 3689.279 4224.347 2543.224 10687.622 5747.168 4142.007 2053.792 2189.743 8286.703 6094.343 10153.039 12022.526 8182.019 8709.686 8443.400 1347.860 2053.608 3432.450 1987.529 3367.356 6684.066 15028.810 1992.709 10432.779 8136.366 25448.282 17225.963 5285.314 3631.527 5350.924 2415.005 10754.920 8848.420 2711.874 5542.435 12463.604 12259.195 3021.359 2114.023 15194.999 1633.791 3734.882 17543.354 8550.256 2370.552 5873.961 0.000 18733.810 25577.669 4961.439 4746.244 7328.391 8535.629 14699.490 11613.146 5113.619 4698.695 11374.364 7161.834 17668.178 26910.398 1454.594 21426.209 18540.960 9319.799 12005.965 1673.981 6848.509 20825.200 6121.756 8927.329 5338.841 8646.915 8078.783 11805.134 5542.430 19596.112 11829.679 2147.461 7447.586 3420.658 4729.752 4439.526 1138.157 16762.682 7770.879 19114.536 7475.537 2487.380 13318.081 10857.387 20437.753 1553.015 8659.352 20385.846 5974.328 5539.103 8602.762
27018.927 14493.439 32007.759 11760.689 9487.490 16901.044 26694.662 19348.569 14444.782 17764.180 17625.277 21722.915 40556.805 20664.677 21813.907 17442.099 28158.995 14558.315 16930.163 16762.926 17666.612 22147.042 21924.555 14610.006 7900.513 19899.890 22248.416 25786.177 18777.224 17961.906 16003.805 16871.228 17544.045 14388.458 25854.146 17369.209 12823.160 11540.797 42919.655 34877.840 13736.213 21221.086 17148.952 20268.253 13745.049 11886.760 16436.902 21965.919 10092.651 28773.055 20874.606 17885.030 26020.335 17561.387 21164.246 28487.192 13803.557 20204.649 23727.208 18670.999 0.000 43049.042 21217.224 17799.317 24757.755 10830.974 24408.406 18308.465 14051.874 21644.710 11648.222 16556.037 1868.671 27486.315 17819.889 37112.014 21977.150 11420.222 29435.329 18807.049 21254.525 22086.190 23551.120 14218.948 14802.722 21629.553 25550.157 19835.392 14168.060 35679.187 17611.742 17031.160 20563.194 19974.799 19607.562 16536.028 17788.984 21352.177 25200.243 23407.010 12409.225 20340.628 30747.445 9527.129 38114.664 18205.706 18783.053 38062.756 23403.692 20494.319 11661.232
38790.129 28644.598 13805.890 32911.645 36478.166 29203.437 19298.683 28179.599 28589.764 28552.266 28232.001 25716.465 23242.050 27353.879 22101.353 25449.137 16583.055 28694.944 28388.412 26143.262 24692.942 24428.596 23888.071 31987.450 35757.384 25961.678 31496.340 19581.386 25000.067 26324.987 26653.876 26116.558 27613.761 29676.448 38534.150 24884.887 33093.168 31871.370 512.638 16788.679 29462.536 21938.067 29597.329 24664.549 32626.635 33037.716 26672.003 29207.035 35610.864 32170.670 23921.371 24617.222 38700.339 25933.443 25733.241 28125.432 30384.667 24821.379 25055.983 24633.946 42468.667 0.000 21828.265 28992.649 26991.497 32270.486 26098.999 35321.987 28848.477 20946.722 34034.752 28672.931 41403.036 39276.136 24839.631 11193.138 42585.554 32210.197 24719.940 25338.580 25084.691 44869.794 25024.718 30761.739 29516.063 32355.755 17661.173 35513.974 29719.653 10931.409 35874.273 26016.854 25645.671 27129.499 28438.593 28685.931 25437.809 29027.291 26429.099 43159.130 31532.409 24485.473 26066.887 34443.443 25232.268 25828.752 32368.192 25226.275 25688.574 29247.943 32792.058
24470.938 7848.844 12629.358 12115.891 15682.412 8407.683 7395.993 8484.444 7794.010 7892.086 7571.822 7929.202 22159.749 7749.442 2641.431 4653.383 7708.587 7899.190 7728.233 5347.508 3897.188 5559.500 3092.317 11191.696 14961.630 6442.478 12769.849 4750.804 5395.631 5950.353 5858.122 5320.804 6953.582 8880.694 19133.213 4089.133 12297.414 11075.616 22469.248 15579.170 8666.782 2333.631 8937.149 5517.197 11830.881 12241.962 5876.249 9602.598 14815.110 16319.358 5421.627 3821.468 19299.403 5392.933 7188.095 14816.151 9588.913 5930.169 9063.498 5029.509 21672.913 22598.635 0.000 8332.470 11076.423 11474.732 11972.287 15634.620 8052.723 1450.735 13238.998 8200.491 20607.282 24956.946 4043.877 17733.613 22127.185 11414.443 11698.699 5734.144 4288.937 24411.425 9717.294 9965.985 8720.309 12751.319 5066.015 15909.538 8923.899 16300.786 15415.904 5221.100 4937.512 7525.062 8743.437 8025.752 5154.708 14708.101 11128.149 22700.761 10736.655 5936.656 13045.646 13647.689 19717.607 5897.252 12680.825 19665.700 9739.915 9630.193 11996.304
27474.624 5178.458 20478.625 6702.476 12692.919 7869.438 13261.773 3082.042 3774.281 1417.954 1293.451 7310.594 26766.260 5080.943 8381.018 4611.291 14844.292 6015.885 1107.328 3920.873 4754.149 10354.770 9012.092 10429.400 11412.585 9213.633 8349.377 12600.071 4739.042 3303.205 4424.744 3914.283 1930.510 6952.784 13919.343 4456.746 10701.497 7372.644 29604.953 21337.337 4647.053 7788.198 1551.583 6542.501 11023.637 6416.927 3483.353 5699.391 12262.645 12506.528 6924.920 4972.568 14085.533 3764.174 6751.925 19001.761 8826.617 6264.779 9369.025 4731.128 18123.869 29734.340 8304.762 0.000 9235.095 8094.857 16157.897 8360.040 5382.337 8732.247 11643.081 7812.550 17058.237 27942.012 4603.754 25582.880 14852.605 9118.841 15023.007 4234.385 8916.577 17136.845 8737.553 9203.690 4700.580 7537.448 12235.454 9443.656 4628.023 23752.783 8141.324 4074.216 9030.309 3708.272 3341.035 1404.847 3894.287 17794.296 10671.110 15426.181 6349.920 6281.989 16335.124 10656.428 24324.118 3687.915 5406.245 24272.210 7881.032 4227.791 6670.430
33066.546 11176.439 19084.363 14177.446 18949.534 13867.419 8856.176 6717.306 10030.896 9148.048 8827.783 3521.798 19168.222 5760.403 8499.971 9298.677 14420.069 12013.866 8984.194 8814.137 8826.820 14276.176 11808.993 16427.381 17838.369 14855.870 6229.519 13532.035 5912.267 7622.483 10055.258 8760.570 8209.543 12950.765 13281.308 8686.364 16699.478 13754.720 27605.609 15732.946 10903.668 8887.566 9084.948 6419.008 17021.618 13891.897 8739.160 5624.291 18519.261 6713.939 5996.300 8751.101 13447.497 7817.006 4135.218 23532.827 14824.598 6051.951 4722.833 7107.334 24549.653 27734.995 10473.934 9174.322 0.000 14351.472 20688.963 11348.962 11380.318 10211.191 17641.062 13810.531 23484.021 33533.934 8177.736 25037.571 18315.652 15375.456 7424.970 6466.854 13005.613 21114.429 2633.939 15201.671 10957.195 6938.710 12676.814 11540.949 11160.784 21752.649 12118.908 8920.502 13654.187 6725.915 6976.299 9281.713 7558.623 23386.217 2409.652 18889.229 13093.892 5579.053 8737.087 16913.044 16726.081 7171.369 8395.167 16674.173 1409.164 7573.515 14145.399
22423.357 5288.046 22847.054 2184.125 5076.381 7740.339 17533.883 9547.748 4927.648 7963.359 7824.456 12205.781 31396.026 10863.856 12653.128 8281.320 18998.215 5397.536 7129.342 7602.146 8505.833 12986.337 12763.776 5882.736 3765.429 10739.185 13281.460 16625.397 9260.090 8444.772 6843.026 7710.448 7743.224 5227.753 18457.600 8208.429 5191.344 1451.467 33758.876 25717.061 4219.079 12060.307 7348.131 10965.237 5552.927 2310.197 7065.392 12165.098 4646.108 18972.234 11571.590 8724.251 18623.790 8044.253 11647.112 19326.487 4970.162 10687.515 14264.212 9153.865 10476.712 33888.263 12056.445 7998.496 15240.620 0.000 15991.245 10983.769 4891.095 12483.931 5865.387 7395.332 9411.080 22890.746 8659.110 27951.309 17368.184 2586.827 19918.194 9289.915 12093.745 19301.224 14033.986 5385.553 5109.937 12425.110 16389.377 12014.392 4367.239 26518.482 10656.903 7870.381 11402.415 10173.978 9806.741 6735.207 8271.850 16756.607 15683.109 17941.760 2567.782 10886.053 21230.311 3039.891 28953.884 8688.572 9015.418 28901.977 13886.558 10693.497 2084.669
13263.265 14576.486 14411.006 16642.382 16492.025 11382.151 15882.600 17987.516 14620.594 16211.590 16072.687 17930.953 32161.501 17751.194 12643.183 13056.065 12014.386 12979.428 15594.558 13890.667 13280.578 7073.587 9775.784 14347.299 17560.631 8130.196 22771.601 12396.274 15397.383 15453.425 12781.099 13863.964 15496.741 12380.654 28824.817 12983.175 14988.683 15112.707 26288.738 23424.088 14884.754 12335.383 16870.228 15518.949 14541.773 16768.453 13774.281 19604.350 15192.138 26321.110 15423.379 13498.997 28991.007 14673.478 17189.847 5890.895 12744.516 15931.921 19065.250 15031.261 23882.232 26418.125 11629.306 16463.712 21078.175 15511.823 0.000 24035.396 14275.898 12056.792 14305.132 10590.550 23524.485 13749.272 13577.868 19515.261 30527.961 14601.654 21700.451 15735.896 8743.235 32812.201 19719.046 13121.588 15546.893 22442.922 12954.145 25119.012 15674.222 18082.434 23816.680 13764.260 8080.070 17526.814 18246.509 15892.077 14657.780 3500.428 21129.901 31101.537 15541.918 15938.408 23047.398 16834.900 29719.359 15530.023 21081.601 29667.451 19741.667 19133.265 16522.795
32686.621 12597.545 26851.636 9514.363 15646.059 15506.150 18976.295 8098.896 11013.113 9054.666 8807.261 12981.132 30132.445 10052.863 14754.029 12125.102 21217.303 13100.507 8744.040 11434.683 12267.959 17868.580 16525.903 15383.375 14281.372 16850.345 5844.937 18973.082 11023.217 10481.622 12061.456 11428.093 9444.320 13847.669 8795.385 11970.556 14926.392 10241.430 35977.964 26677.280 11253.445 14161.209 7692.325 12915.512 15287.975 9228.814 10997.163 8731.539 15215.786 12526.392 13209.095 12486.378 8961.574 11277.984 13036.100 26638.473 14470.801 12594.517 15550.207 11921.663 18848.036 36107.351 15491.121 8502.906 11612.565 11173.732 23794.609 0.000 12594.066 15228.377 15867.976 15449.262 18174.864 33154.009 12023.906 31955.891 8140.002 12806.590 18389.193 10518.561 16430.387 10779.641 13386.235 14886.193 11087.783 5226.075 18608.465 1984.339 10719.390 30125.794 2149.266 11588.026 16667.021 8722.088 8119.221 9041.559 11314.439 25431.008 13237.026 8713.579 10467.707 12566.165 19701.310 13609.569 27690.303 10883.121 3449.723 27638.396 12057.526 7185.433 9423.400
24206.107 441.564 19612.856 4896.472 8425.701 4281.295 12642.788 6839.686 1435.757 4556.922 4418.019 8346.358 26504.931 7306.155 7762.032 3390.224 14107.120 1952.597 3939.890 2711.051 3614.738 8184.771 7872.681 6173.782 7554.350 6694.643 12107.022 11734.302 5400.666 4585.348 1951.931 2819.353 4336.787 2699.759 17676.987 3317.334 6445.878 3668.336 28867.781 20825.965 1290.913 7169.212 4640.069 6216.378 6768.019 5022.544 2385.027 9109.990 7995.428 15876.072 6822.731 3833.156 17843.177 4184.829 7787.688 16482.771 4570.999 6171.925 9675.334 4701.697 14265.633 28997.168 7165.350 4809.044 11381.197 4067.452 13638.907 11808.654 0.000 7592.835 7387.463 4224.407 13200.001 24673.495 3768.015 24717.111 18193.069 4851.623 15975.071 5430.492 7202.650 20477.309 10174.562 4948.071 1807.389 11295.093 11498.282 12839.277 1593.133 23015.611 11481.788 2979.285 6511.319 6783.491 7098.680 4027.145 4198.746 15275.306 11739.985 18766.645 3329.375 6288.753 17287.187 6389.210 24062.789 4829.149 8953.270 24010.881 10027.134 7985.436 4776.886
24490.572 7868.478 12190.623 12135.525 15702.045 8427.317 6434.259 7940.971 7813.644 7911.720 7591.456 7295.010 21525.558 7115.251 2007.240 4673.017 6684.887 7918.823 7747.867 5367.141 3916.822 5579.134 3111.951 11211.330 14981.264 6462.112 12135.658 4312.069 4761.439 5969.987 5877.756 5340.438 6973.215 8900.327 18499.022 4108.767 12317.048 11095.250 21445.548 14658.858 8686.416 1699.439 8956.783 4883.006 11850.515 12261.596 5895.883 8968.407 14834.744 15685.167 4787.436 3841.102 18665.212 5412.567 6553.904 14835.785 9608.547 5295.978 8429.307 4395.318 21692.547 21574.935 1368.752 8352.104 10442.232 11494.366 11991.921 15083.359 8072.357 0.000 13258.632 8220.124 20626.915 24976.580 4063.511 17294.878 22146.819 11434.077 11064.507 5099.952 4308.571 24431.059 9083.103 9985.619 8739.943 12117.127 4076.049 15275.346 8943.533 15593.378 15435.538 5240.734 4957.145 6890.871 8199.965 8045.386 5174.342 14727.735 10493.958 22720.395 10756.289 5302.465 12411.454 13667.323 19083.416 5590.124 12129.564 19031.508 9105.723 9009.315 12015.938
17832.079 7742.175 22845.812 7194.613 3134.557 7739.098 18595.458 13610.046 8268.107 11354.809 11215.906 15042.634 32813.253 14002.432 13714.702 9720.316 19985.398 6182.924 10737.777 9314.046 9944.829 12985.096 13331.407 2961.784 4203.163 10737.943 17989.711 17612.580 12096.942 11281.625 8282.022 9422.348 11109.491 5410.123 23165.852 9647.426 1174.938 5781.649 34723.544 26778.635 7559.537 13121.882 11453.436 12586.263 2096.827 7320.684 9049.428 15806.266 1834.670 22572.348 13302.222 10163.247 23332.042 10808.111 14402.926 19325.245 3961.548 12774.920 16278.329 11304.692 11778.954 34852.931 13043.627 11606.932 18077.473 5935.384 15221.559 15692.020 7300.611 13471.113 0.000 7394.090 10713.322 18299.468 10242.118 27950.067 22076.435 4197.278 22352.203 12126.768 12398.946 23411.813 16870.839 3918.553 8626.046 17133.362 17376.560 16722.643 8411.790 26517.240 15365.155 9582.280 11707.615 13479.768 13869.039 10840.512 10801.741 12165.329 18342.980 22650.012 6818.942 12891.748 23699.150 3527.596 30371.111 11525.425 13723.669 30319.204 16723.410 14755.795 7095.156
21447.397 4578.575 17137.655 7517.985 9745.226 812.907 13565.184 9645.827 4622.682 7464.174 7325.271 11078.415 27782.980 10038.212 8684.429 5530.321 14473.261 2981.517 6847.142 5349.827 5754.834 7276.938 8301.133 5222.902 9148.299 5029.786 14913.162 12582.306 8132.723 7317.406 4092.027 5458.129 7145.271 3256.257 20483.128 5457.431 6360.228 5988.310 29015.387 21748.362 4913.843 8091.608 7909.600 8311.980 5862.087 7644.057 5085.209 11842.047 8877.924 18608.129 8996.145 5973.252 20649.318 6843.892 10255.714 13617.088 3620.119 8785.269 12131.117 7340.473 16585.607 29144.774 8013.354 7716.296 14113.254 6387.426 10281.846 15287.980 4304.987 8440.839 7301.812 0.000 15519.975 21914.785 6052.124 22241.910 21780.545 5477.257 17321.929 8162.549 7368.673 24064.785 12784.913 3997.191 5548.981 14101.233 12346.286 16371.596 5703.311 20809.083 15069.264 5618.061 6677.342 9515.548 9904.820 7144.661 6837.522 11767.068 14195.768 22354.121 6417.522 8778.250 18668.876 7710.503 25340.838 7561.206 12334.185 25288.930 12759.191 10791.576 7398.399
26717.966 13522.784 31037.104 10790.034 8516.835 15930.390 25724.008 18377.915 13474.128 16793.526 16654.623 20752.261 39586.151 19694.023 20843.253 16471.445 27188.340 13587.661 15959.509 15792.271 16695.958 21176.388 20953.901 13639.352 6929.859 18929.236 21430.121 24815.522 17806.569 16991.252 15033.151 15900.573 16573.391 13417.804 25035.852 16398.554 11852.506 10570.143 41949.001 33907.185 12765.558 20250.432 16178.297 19297.598 12774.394 10916.106 15466.247 20995.264 9121.996 27802.400 19903.951 16914.376 25202.041 16590.733 20193.592 27516.538 12832.903 19233.995 22756.554 17700.344 1876.736 42078.388 20246.570 16828.663 23787.100 9860.319 24107.445 17490.171 13081.220 20674.055 10677.568 15585.382 0.000 27185.354 16849.235 36141.359 21158.856 10449.568 28464.674 17836.395 20283.870 21284.805 22580.466 13248.294 13832.067 20811.259 24579.502 19017.098 13197.406 34708.532 16793.448 16060.505 19592.540 19004.145 18636.908 15565.373 16818.330 21051.216 24229.588 22605.625 11438.571 19369.973 29776.791 8556.475 37144.009 17235.052 17812.398 37092.101 22433.037 19523.664 10690.578
1345.406 25050.004 27492.657 24458.564 20398.508 22897.466 28964.252 29901.231 25596.564 27777.923 27639.020 30448.990 44767.139 30293.617 25248.821 25310.572 25096.037 23490.753 27160.890 25605.232 25535.085 19679.225 22381.422 19494.853 21467.114 19647.419 35168.567 25477.925 28003.020 27572.810 24347.432 25713.533 27400.676 22717.952 40494.309 25237.682 18895.166 23110.106 39370.390 36505.739 24887.994 24941.020 28436.561 27624.508 18448.256 24584.635 25340.614 32097.452 19098.621 38863.533 28029.016 25481.790 40660.499 26927.985 29601.956 17533.633 20822.144 28097.797 31477.358 27287.025 27788.715 39499.777 24234.944 28030.045 33596.212 23263.841 13608.609 33020.477 24608.440 24662.429 18211.615 22105.865 27430.968 0.000 25704.199 32596.912 39290.589 21482.066 34306.088 28341.533 21348.872 40454.204 32131.154 20416.603 25954.503 34356.638 26035.797 34051.101 25740.247 31164.086 32693.612 25873.466 20685.708 29770.953 30160.225 27458.410 26815.030 10484.380 33542.009 39864.165 24147.399 28090.777 35653.035 20791.547 42324.997 27687.273 31052.126 42273.089 32293.288 31046.981 24359.107
25109.468 4333.971 16343.526 8441.802 12318.108 6129.420 9126.675 4440.567 4131.995 4068.968 3748.704 5349.110 22995.102 4766.918 4245.920 1207.005 10709.194 4601.980 3905.115 1550.606 735.149 6950.484 4639.749 8913.433 11446.756 6848.477 9707.902 8464.972 2534.632 1906.476 2411.744 1497.686 3130.464 5540.339 15277.868 594.693 9289.052 7560.743 25469.855 17309.853 5004.767 3653.099 5114.032 2746.343 9552.618 8567.873 2183.586 6620.074 11806.748 13336.834 3462.301 659.429 15444.058 1349.056 4706.633 16207.135 7310.650 3078.627 6582.036 1608.399 18158.040 25599.242 3932.418 4509.352 8471.111 7959.859 13363.271 11811.502 4537.850 4359.903 10230.636 5922.227 17092.408 25576.856 0.000 21447.781 18304.067 8406.081 12534.051 2751.619 5512.291 20588.308 7177.314 7687.722 5058.294 8895.973 8100.356 12054.192 5261.884 19617.684 11592.787 1424.199 6111.368 4310.288 4699.560 4202.634 1110.831 15429.139 8646.687 18877.644 7194.991 3195.455 13880.998 10281.617 20552.960 1983.074 8857.708 20501.052 7117.049 5586.316 8322.215
32361.084 25015.235 7376.840 28295.719 30522.959 23035.488 16744.317 24822.488 24960.400 25058.476 24738.212 23138.707 25601.698 23996.768 18790.888 21819.773 11441.186 24632.765 24894.623 22513.898 21063.578 17999.551 20258.708 26000.636 29926.032 19532.633 29017.175 13424.640 21642.956 22967.876 23024.512 22487.194 24119.972 24033.991 35380.539 21255.524 27137.962 26766.044 11327.691 19148.327 25833.173 18580.956 26103.540 21374.310 26639.821 28421.790 23042.639 25849.924 29655.658 30371.547 20631.132 20987.858 35546.729 22559.323 22580.038 20465.431 24397.853 21531.140 23256.860 21276.834 37363.341 11081.880 17837.471 25498.860 25192.373 27165.160 19669.955 31964.876 25219.114 17317.359 28079.546 22243.887 36297.709 32847.091 21210.267 0.000 39228.443 26254.991 23080.512 21981.469 19691.223 41512.683 23225.594 24774.925 25886.700 28998.644 13815.862 32156.863 26090.289 3461.552 32517.162 22387.491 19216.626 23772.388 25081.482 25192.142 22080.698 22598.247 24629.976 39802.019 27195.255 21195.234 24427.459 28488.237 27591.916 22471.641 29011.081 27585.923 23889.450 25890.832 28176.132
38206.750 18333.745 33505.410 15250.563 19647.983 21367.715 24599.978 14707.736 16874.678 14916.231 14668.827 18963.685 36505.856 16706.637 21407.803 17986.667 27871.077 18836.706 14605.606 17296.248 18129.525 23730.146 22387.468 21119.575 18427.292 22711.911 12203.433 25626.856 17676.991 16678.581 17923.021 17289.659 15305.885 19583.868 7691.933 17832.122 20662.591 15977.630 42631.738 32300.964 16989.645 20814.983 13553.891 19569.286 21024.174 14965.014 16858.729 15403.817 20253.144 15789.797 19862.869 18347.943 7333.438 17139.550 19689.875 32500.039 20207.001 19248.291 21264.776 18106.504 22375.511 42761.125 21680.137 14364.471 17985.976 16909.932 29656.175 7009.891 18330.265 21882.151 21604.176 21310.828 21941.941 38674.138 17979.129 38609.665 0.000 18542.789 24762.604 17172.335 22291.952 3647.956 19325.340 20622.392 16949.348 11608.577 25262.239 6849.230 16455.589 36779.568 6507.849 17449.591 22528.587 15333.966 14870.825 14903.125 17269.662 31292.573 19610.437 1918.748 16203.907 19219.939 26074.721 19345.768 34063.714 17063.291 10201.327 34011.807 18454.618 13747.984 15159.599
20558.753 5532.440 21392.862 4438.645 4537.956 6286.148 17142.508 11069.155 5684.209 9128.901 8989.998 12962.342 31360.304 11922.139 12261.753 8267.366 18532.448 4729.975 8511.869 7801.927 8491.880 11532.146 11878.457 3882.333 4049.908 9284.994 15266.747 16159.630 10016.650 9201.333 6829.073 7910.229 8908.766 3957.174 20442.888 8194.476 2798.524 3197.751 33270.595 25325.686 4975.639 11668.933 8869.537 11133.314 3160.107 4564.717 7475.903 13686.505 3594.673 20492.056 11849.273 8710.298 20609.078 8800.814 12403.673 17872.296 3140.159 11262.801 14766.210 9792.573 11774.233 33399.982 11590.678 9381.023 15997.181 2599.493 14537.054 12969.057 5090.876 12018.163 3740.108 5941.140 10708.601 21026.141 8789.169 26497.117 19353.472 0.000 20674.755 10046.476 10945.997 21555.744 14790.547 3555.550 6042.148 14410.398 15923.610 13999.680 5827.892 25064.290 12642.191 8070.161 10254.666 11399.476 11328.148 8256.614 9028.411 14892.003 16439.669 19927.048 4235.044 11379.629 21986.872 2884.077 28918.162 9445.133 11000.705 28866.254 14643.118 12214.904 4339.188
33961.570 16100.311 17168.487 19211.329 23873.406 17422.172 7735.519 12761.297 14954.768 14181.931 13861.666 8426.695 12714.393 11773.184 9273.927 13157.077 13299.412 16552.052 14018.077 13460.702 12685.221 15050.132 12582.949 20206.184 22762.241 15912.313 13024.885 13149.056 10836.139 12546.355 14361.816 13394.439 13243.426 17490.411 20076.673 12544.765 21239.124 18678.592 25469.661 9600.150 15827.540 9661.522 15128.939 10684.332 20845.370 18925.780 13663.032 12392.106 23443.133 10678.968 10124.217 12609.501 20242.863 12740.878 8625.963 24306.783 18603.401 10617.839 7711.347 11741.203 29473.525 25599.048 11247.891 14622.314 7279.384 19275.344 21462.919 18144.327 16304.190 10985.147 22180.708 17214.979 28407.893 34447.578 12349.362 23364.093 25111.018 20299.328 0.000 11390.726 13779.569 27909.794 7067.788 18980.474 15881.067 13734.075 11571.040 18336.314 16084.656 20079.170 18914.273 13554.371 14428.144 12724.370 13020.290 14315.596 12482.495 24198.733 5193.760 25684.594 18017.763 10502.925 1780.373 21836.915 10272.251 12095.241 15190.532 10220.343 7480.416 13829.640 19144.988
27771.622 5590.392 16715.836 8585.524 13363.487 8281.372 9498.984 3183.460 4444.849 3556.126 3235.862 3706.821 23045.705 2188.518 4618.229 3871.836 11081.503 6427.819 3392.272 3251.441 3514.091 9157.562 6690.379 10841.334 12252.322 9510.631 7378.146 8837.281 677.876 1328.848 4469.211 3244.852 2617.621 7364.717 13741.511 3321.321 11113.431 8168.673 25842.164 17391.773 5317.621 4025.408 4601.189 2580.815 11435.571 8299.975 3153.113 4210.896 12933.213 10758.434 3187.168 3438.371 13907.700 2254.310 3148.152 18414.213 9238.551 2266.040 5765.252 1785.863 18963.606 25971.551 5355.320 3996.510 6276.761 8765.425 15570.349 10325.847 5794.271 5092.577 12055.015 8224.484 17897.974 28239.010 2783.206 21820.091 17589.414 9789.409 11419.234 0.000 7886.999 19873.654 5502.955 9615.623 5371.148 7359.616 8472.665 10517.835 5574.737 19989.994 10878.133 3404.784 8535.574 2133.359 3442.453 3689.792 2073.739 18091.294 7184.148 18162.990 7507.844 2449.471 12731.351 11326.996 20603.563 986.598 7372.053 20551.656 4922.698 4251.804 8553.478
20816.152 7427.601 14752.608 11694.647 14664.386 7389.657 9771.481 10115.863 7372.767 8563.593 8243.328 10304.690 24535.237 10124.930 5016.919 5184.412 10944.813 7209.380 8233.426 6019.014 5408.925 2323.519 2149.520 10173.670 14067.459 3079.512 15145.337 8571.995 7771.119 7581.772 5419.968 5992.311 7625.088 8159.774 20953.164 5111.522 11279.388 10654.373 25705.473 17954.658 8245.539 4709.119 9509.097 7855.210 10812.855 11820.719 6413.149 11978.086 13797.084 18694.846 7797.115 5627.344 21119.353 6801.825 9563.583 11161.365 8570.887 8305.657 11438.986 7289.078 21251.670 25834.860 4003.042 9003.976 13451.911 11053.489 8317.501 16306.127 7631.480 4430.528 12220.972 7182.465 20186.038 21302.160 5706.215 19856.863 22798.692 10396.417 14074.187 8109.632 0.000 25082.932 12092.782 8947.960 8299.066 14571.269 8335.974 17389.743 8502.655 18424.037 16087.411 5892.607 984.717 9900.550 10374.856 8530.945 6786.127 11053.315 13503.637 23372.268 10315.412 8312.144 15421.134 12629.663 22093.095 7658.370 13352.332 22041.187 12115.403 11261.612 11575.061
40573.786 21300.790 36472.455 18075.337 22015.019 24334.761 28323.904 17674.781 19841.723 17883.276 17635.872 22601.952 39983.998 19673.682 24374.848 20953.712 30838.123 21803.751 17572.651 20263.293 21096.570 26697.191 25354.513 24086.620 20794.328 25678.956 15791.635 28593.901 20644.037 19645.626 20890.066 20256.704 18272.930 22550.913 11415.859 20799.167 23629.637 18944.675 45598.783 36024.890 19956.690 23782.028 16520.936 22536.331 23991.219 17789.788 19825.774 18583.092 22620.180 19513.723 22829.915 21314.988 11057.364 20106.595 22656.920 35467.084 23174.046 22215.336 24988.702 21073.549 22200.395 45728.170 24647.182 17331.516 21464.118 19876.977 32623.220 10327.632 21297.311 24849.197 24175.751 24277.873 21984.785 41041.174 20946.175 41576.710 3989.908 21509.834 28240.746 20139.380 25258.998 0.000 23049.266 23589.437 19916.394 15172.773 28229.284 10573.156 19422.635 39746.613 9474.894 20416.636 25495.632 18301.011 17933.775 17870.170 20236.708 34259.618 23088.579 4053.948 19170.952 22186.984 29552.863 22106.673 37541.856 20030.336 13301.276 37489.949 21909.079 17036.986 18126.645
31643.749 10267.170 17416.666 13378.189 18040.266 12925.775 7188.479 6252.420 9121.628 8348.790 8028.526 2197.469 18899.486 5264.307 7206.588 8026.087 12752.372 11104.598 8184.937 7826.079 7554.230 12982.793 10515.610 15518.113 16929.101 13433.074 7850.588 12238.653 5002.998 6713.214 9145.989 7759.815 7410.286 12041.496 14888.398 7413.775 15790.209 12845.452 25937.912 14889.465 9994.400 7594.183 8620.063 5120.170 16112.350 13092.639 7829.892 6237.394 17609.992 8359.168 4791.106 7478.511 15054.587 6907.738 2810.888 22239.444 13915.330 4983.216 2671.904 6106.580 23640.385 26067.299 9180.551 8709.437 2628.627 13442.204 19395.580 13169.545 10471.050 8917.808 16731.794 12718.582 22574.753 32111.138 7176.982 23369.875 19936.721 14466.188 7156.233 5557.586 11712.230 22935.012 0.000 14292.402 10047.927 8759.293 11024.001 13209.897 10251.516 20084.952 13939.491 7919.748 12360.805 6261.029 6511.414 8482.456 6649.355 21963.421 2637.905 20510.297 12184.623 4669.785 8468.350 16003.775 16457.344 6262.101 10215.750 16405.436 1325.704 7320.764 13311.848
19903.026 5216.835 19467.435 6300.282 7068.780 4360.721 15249.956 11084.705 5987.977 8829.469 8690.566 12517.293 29467.752 11477.091 10369.201 7194.975 16639.896 3657.584 8212.437 6788.705 7419.488 9606.719 9985.905 1564.108 6833.410 7359.567 16352.041 14267.078 9571.602 8756.284 5756.682 6897.007 8584.150 2884.783 21922.006 7122.085 2992.639 4673.114 31345.168 23433.134 5384.127 9776.380 9220.531 9996.752 2203.293 6426.353 6524.088 13280.926 5768.893 20047.007 10680.917 7637.907 22088.196 8282.770 11877.585 15946.869 692.582 10249.579 13752.988 8779.352 14557.735 31474.555 9698.126 9081.591 15552.133 4826.849 12611.627 14583.486 4775.271 10125.611 3934.223 4015.713 13492.103 20370.415 7716.778 24571.691 20967.901 3162.368 19006.701 9601.427 9053.445 23180.476 14345.498 0.000 6387.851 15540.112 14031.058 15614.109 6173.595 23138.864 14256.620 7056.940 8362.114 10954.427 11343.699 8509.956 8276.401 14096.849 15817.639 21541.477 5587.128 10366.407 20353.648 5395.614 27025.610 9000.084 12615.135 26973.702 14198.070 12230.455 6200.825
26100.149 2754.013 21002.368 4281.934 9862.251 5696.517 13785.517 5279.064 994.031 3694.676 3555.773 8306.789 27531.134 6595.173 8904.762 4805.447 15368.036 3842.965 2860.658 3814.536 5029.960 9599.994 9287.903 8256.480 8497.564 8109.865 10546.400 13123.814 5361.097 4539.423 3367.153 3922.838 3474.541 4779.863 16116.365 4732.557 8339.920 4457.622 30128.697 21877.202 1863.207 8311.941 3079.447 7066.244 8701.503 4408.005 3166.399 7896.414 9431.978 14703.550 7672.598 5248.378 16282.555 4145.260 7748.119 17897.993 6653.697 6788.522 10365.219 5254.872 15208.847 30258.084 8580.572 3729.813 11116.751 5311.011 15054.130 10557.062 2851.195 9008.058 9281.504 5639.629 14143.215 26567.537 5080.878 26106.624 17049.627 6334.995 16019.202 5390.922 8617.872 19333.868 10134.993 7030.769 0.000 9734.471 12759.198 11640.678 1139.239 24276.527 10338.347 4082.770 7926.542 5905.294 5538.058 2466.523 4372.857 16690.528 11784.116 17623.204 3434.898 6987.060 17331.318 7825.760 25088.992 4789.579 7603.268 25037.085 9762.689 6424.814 4162.347
33540.374 11268.329 23627.767 10517.294 16648.990 13959.309 14841.360 4875.027 10122.786 7897.976 7650.571 9136.912 25582.796 6450.288 11530.160 9888.667 17993.434 12105.757 7587.350 9268.272 9535.186 15632.146 13439.786 16386.306 15284.302 15279.383 1710.002 15749.212 7660.968 7257.753 10147.148 9261.683 7583.452 13042.655 7789.643 9338.152 15929.322 11244.361 32754.095 22147.520 10995.558 10937.339 7292.667 9560.754 16290.905 10231.745 8831.051 4181.890 16218.716 8391.457 9768.025 9459.466 7955.833 8271.142 9425.216 24888.797 14916.489 9153.446 11000.557 8697.794 21634.900 32883.482 12267.251 7382.041 7062.915 12176.663 22044.933 4840.009 11472.208 12004.508 16870.906 13902.422 20929.954 34007.762 8800.037 28732.022 11917.576 13809.520 13839.543 7288.634 14193.953 14839.288 8836.586 15293.561 10631.973 0.000 15384.596 4748.271 10509.405 26901.925 6109.961 9421.615 14793.029 5498.219 4895.352 7884.869 8090.570 23860.046 8687.376 12491.153 11470.638 9125.094 15151.660 14612.499 23140.654 7659.252 3433.691 23088.746 7507.876 4043.078 10426.330
25657.616 11775.690 8679.132 16042.737 19609.257 12334.529 4218.079 11310.691 11720.856 11683.357 11363.093 9611.483 21115.070 10484.971 5232.445 8580.229 2875.640 11826.035 11519.504 9274.353 7824.034 9486.346 7019.163 15118.542 18888.476 10369.324 15505.378 2019.192 8131.159 9456.079 9784.968 9247.650 10744.853 12807.539 21868.742 8015.979 16224.260 15002.462 18236.131 12267.299 12593.628 5069.159 12728.421 7847.086 15757.727 16168.808 9803.095 12338.127 18741.956 18247.290 7103.908 7748.314 22034.932 9064.535 9052.813 15946.554 13515.759 8003.916 11014.268 7765.038 25599.759 18365.518 4959.357 12123.741 12758.704 15401.578 12966.487 18453.079 11979.569 4077.814 17165.844 12127.336 24534.128 26143.624 7970.723 13783.387 25716.646 15341.289 11684.843 8469.672 8215.783 28000.886 11101.337 13892.831 12647.155 15486.847 0.000 18645.066 12850.745 12350.561 19005.365 9147.946 8864.358 10260.591 11569.685 11817.023 8568.901 15894.779 12505.718 26290.222 14663.501 7668.010 13031.790 17574.535 19703.752 8959.844 15499.284 19651.844 11422.196 12379.035 15923.150
33431.439 13342.363 26843.116 10259.182 16390.878 16376.564 18557.513 8090.376 11883.526 9925.079 9677.675 12921.220 30123.925 10044.343 14745.509 12995.515 21208.783 13845.325 9614.454 12305.096 12750.535 18738.994 16655.135 16128.194 15026.190 17720.759 5426.155 18964.562 11014.698 10473.102 12931.869 12298.507 10314.733 14592.487 7333.824 12553.501 15671.210 10986.248 35969.444 26258.499 11998.263 14152.689 8562.739 12906.992 16032.793 9973.632 11867.577 8723.019 15960.604 12107.610 13200.576 12674.816 7500.014 11486.491 13027.581 27508.887 15215.619 12585.997 15222.311 11913.143 19907.001 36098.831 15482.601 9373.319 11604.045 11918.551 24665.023 2138.295 13338.884 15219.857 16612.794 16319.676 19233.829 33898.827 12015.387 31947.371 7298.359 13551.408 18380.673 10510.041 17300.800 10399.590 13282.875 15631.011 11958.196 4807.293 18599.945 0.000 11464.208 30117.274 2999.798 12458.439 17537.435 8713.569 8110.701 9911.973 11305.920 26301.421 13228.506 7871.936 11212.525 12557.645 19692.790 14354.387 27681.784 10874.601 4347.666 27629.876 12049.006 7014.539 10168.218
25261.034 1922.992 21131.246 3348.176 8928.494 5794.095 13914.395 5331.017 1129.010 3746.628 3607.725 8435.666 27660.012 6647.125 9033.640 4916.926 15496.914 3218.541 2912.611 3943.414 5141.439 9711.473 9399.383 7439.726 7563.806 8221.345 10598.352 13252.692 5489.975 4591.375 3478.633 4051.716 3526.493 3965.703 16168.318 4844.036 7500.805 3523.864 30257.575 22006.080 1024.093 8440.819 3131.399 7195.122 7862.388 3474.248 3295.277 7948.366 8498.220 14755.503 7801.476 5359.858 16334.508 4274.138 7876.997 18009.473 5836.943 6917.400 10494.097 5383.750 14275.090 30386.962 8692.052 3781.765 11168.704 4456.167 15165.609 10260.358 2015.000 9119.537 8442.390 5737.207 13209.458 25728.422 5209.756 26235.502 16644.773 5495.881 16148.080 5519.800 8729.352 18929.013 10263.871 6214.015 787.535 9786.423 12888.076 11290.981 0.000 24405.405 9933.492 4211.648 8038.021 5957.247 5590.010 2518.475 4501.735 16739.654 11912.994 17218.349 2501.141 7115.938 17460.196 6892.003 25217.870 4918.457 7404.973 25165.963 9814.641 6476.766 3228.590
30976.600 23605.743 4132.383 26911.235 29138.476 21651.005 14255.102 23140.744 23550.909 23513.410 23193.146 20672.884 22900.469 22315.023 17062.498 20410.281 9914.153 23248.282 23349.557 21104.406 19654.086 16615.068 18849.216 24616.152 28541.549 18148.150 26452.759 12040.156 19961.212 21286.132 21615.021 21077.703 22574.905 22649.508 33490.569 19846.032 25753.478 25381.560 11057.836 16124.853 24423.681 16899.212 24558.473 19625.693 25255.337 27037.307 21633.148 24168.180 28271.174 27127.090 18882.516 19578.367 33656.759 20894.587 20689.661 19080.948 23013.369 19782.524 20012.402 19595.090 35978.857 10812.025 16452.988 23953.794 21947.916 25780.676 18285.471 30283.132 23809.622 15907.867 26695.063 20859.403 34913.226 31462.608 19800.776 3455.675 37546.698 24870.507 19836.055 20299.725 18306.740 39830.939 19981.137 23390.442 24477.208 27316.900 12431.378 30475.119 24680.797 0.000 30835.417 20977.999 17832.143 22090.643 23399.737 23647.076 20398.954 21213.763 21385.518 38120.275 25810.772 19446.618 21183.002 27103.754 24890.686 20789.897 27329.337 24884.693 20644.993 24209.088 26791.649
32068.588 11979.512 27151.178 8896.331 14316.533 15013.483 19283.653 8353.504 10520.446 8561.999 8314.595 13280.674 30662.721 10352.405 15053.571 11632.435 21516.845 12482.474 8251.373 10942.016 11775.293 17375.914 16033.236 14765.343 13095.842 16357.678 6789.436 19272.623 11322.759 10324.349 11568.789 10935.427 8951.653 13229.636 9332.400 11477.889 14308.359 9623.398 36277.506 26984.638 10635.412 14460.750 7199.658 13215.053 14669.942 8610.782 10504.497 9261.815 14597.753 13470.891 13508.637 11993.711 9498.590 10785.318 13335.642 26145.806 13852.769 12894.059 15948.450 11752.272 17374.573 36406.893 15325.905 8010.239 12142.840 10555.700 23301.943 1325.433 11976.033 15527.919 15249.943 14956.595 16701.401 32535.976 11624.897 32255.433 6946.147 12188.557 18919.468 10818.103 15937.720 9230.387 13916.511 14268.160 10595.116 6170.574 18908.007 3047.065 10101.357 30425.336 0.000 11095.359 16174.355 8979.734 8612.497 8548.893 10915.430 24938.341 13767.301 7519.723 9849.675 12865.707 20231.585 12991.536 28220.579 10709.058 3979.998 28168.671 12587.801 7715.709 8805.367
24441.307 3374.867 17085.225 7531.409 11359.004 5367.323 9926.695 5195.894 3221.602 3634.296 3314.032 6109.819 23922.993 5522.245 5045.940 944.249 11509.214 3786.080 3470.442 591.967 1087.107 6687.728 5345.050 8151.336 10487.653 6180.316 10463.230 9206.671 3295.342 2661.803 1595.844 700.269 2695.791 4724.438 16033.195 789.703 8473.151 6601.639 26269.875 18109.873 4094.374 4453.120 4679.359 3619.695 8790.521 7657.480 1224.483 7375.401 10928.730 14092.161 4335.653 1305.525 16199.385 1872.528 5467.343 15944.378 6548.553 3839.337 7342.746 2369.109 17198.936 26399.262 4637.719 4074.680 9231.821 7000.755 13100.514 11376.830 3578.746 5065.204 9414.736 5160.131 16133.304 24908.695 1051.922 22189.480 17869.395 7590.180 13461.942 3506.947 5249.534 20153.635 7938.024 6925.625 4147.901 9651.301 8900.376 12460.446 4351.491 20417.705 11158.114 0.000 5848.611 5065.616 5454.888 3767.962 1866.158 14760.979 9407.397 18442.971 6262.678 3956.165 14808.889 9322.513 21480.851 2738.401 8423.035 21428.943 7877.758 6341.644 7411.822
20198.934 7066.821 14135.390 11333.867 14303.605 7028.877 10063.695 10404.297 7011.987 8489.678 8350.775 10596.903 24827.451 10417.144 5309.133 5472.847 10757.570 6848.600 7872.645 6307.449 5697.360 2039.614 2441.734 9812.890 13706.678 2462.294 15437.551 8864.208 8063.333 7870.206 5059.187 6280.745 7913.523 7798.994 21241.598 5399.956 10918.608 10293.593 25997.687 18246.872 7884.759 5001.333 9148.316 8143.645 10452.075 11459.938 6052.369 12270.300 13436.304 18987.060 8089.329 5915.778 21407.788 7090.259 9855.797 10544.147 8210.107 8597.871 11731.200 7577.512 20890.890 26127.074 4295.256 8741.800 13744.125 10692.709 7700.283 16313.484 7270.700 4722.742 11860.192 6743.081 19825.258 20684.941 5994.649 19239.645 22806.049 10035.637 14366.401 8401.846 1460.584 25090.289 12384.996 8587.179 7938.286 14859.704 8628.188 17397.100 8141.875 17806.818 16094.768 6181.042 0.000 10192.764 10663.290 8170.165 7074.561 10436.097 13795.851 23379.625 9954.632 8604.358 15713.348 12268.883 22385.309 7946.804 13359.689 22333.401 12407.616 11550.047 11214.281
28831.981 6559.936 18517.086 8842.961 14333.032 9250.916 11300.234 1363.016 5414.393 3813.563 3493.299 4646.583 24715.886 1718.313 6419.479 5180.274 12882.754 7397.364 3649.710 4559.879 4826.793 10923.753 8491.630 11810.879 13221.867 10570.990 6468.090 10638.532 2688.668 2549.360 5438.755 4553.290 2875.059 8334.262 12200.318 4629.759 12082.975 9138.217 27643.414 19286.962 6287.165 5826.659 3731.600 4580.962 12405.116 8557.412 4122.658 3300.839 13902.758 10107.975 4874.546 4751.073 12366.507 3562.748 4701.551 20180.404 10208.096 4259.967 7318.651 3587.114 19933.150 27772.801 7156.571 3820.975 6822.570 9734.969 17336.540 8784.654 6763.815 6893.827 13024.559 9194.029 18867.518 29299.369 4091.644 23621.341 15768.971 10758.953 12972.633 2184.011 9485.559 18053.211 6325.028 10585.168 6340.692 5818.423 10273.915 8976.642 6544.282 21791.244 9057.690 4713.222 10084.636 0.000 1622.010 3947.229 3382.177 19151.653 8258.585 16342.547 8477.389 4231.615 14284.750 12296.541 22273.744 2548.571 5830.860 22221.836 5468.507 2508.766 8810.915
29439.973 7167.929 19811.057 8119.124 14193.921 9858.909 11945.288 258.993 5922.401 3566.074 3318.669 5940.554 25111.353 3012.284 7713.450 5788.267 14176.725 8005.356 3255.448 5167.872 5434.785 11531.745 9339.385 12418.871 12829.233 11178.983 6280.719 11932.503 3982.639 3157.352 6046.748 5161.283 3483.051 8942.254 11850.684 5237.752 12690.968 8789.291 28937.386 19646.274 6795.173 7120.630 2960.765 5874.933 13013.108 7833.575 4730.650 3630.733 13763.647 10437.869 6168.517 5359.066 12016.874 4170.741 5995.522 20788.396 10816.088 5553.938 8610.086 4827.011 19540.517 29066.773 8450.542 3050.139 7168.192 9721.594 17944.532 8435.021 7371.808 8187.799 13632.552 9802.021 18474.885 29907.362 4699.637 24915.312 14998.135 10910.842 13379.095 3477.982 10093.552 17282.376 6670.650 11193.161 6300.071 5468.790 11567.887 8627.009 6177.503 23085.215 8286.855 5321.215 10692.629 1639.613 0.000 3552.968 3990.170 19759.645 8604.207 15571.712 7766.568 5525.586 14691.212 12157.430 22669.211 3661.174 5481.227 22617.304 5814.130 2159.133 8087.078
26603.161 4306.995 20280.660 5505.012 11579.809 6997.975 13063.808 3869.219 2902.817 1770.535 1894.567 7112.629 26568.295 5160.990 8183.053 4413.326 14646.327 5144.422 910.203 3555.737 4556.184 9832.298 8814.127 9557.937 10215.122 8342.170 9136.555 12402.106 4541.077 3105.240 3553.280 3664.039 1938.147 6081.320 14706.520 4258.781 9830.034 6175.180 29406.988 21139.372 3775.589 7590.233 1669.602 6344.536 10152.174 5219.463 2907.600 6486.569 11149.536 13293.705 6726.955 4774.603 14872.710 3566.209 6553.960 18130.298 7955.154 6066.813 9171.060 4533.163 16926.405 29536.375 8106.796 1779.357 9682.569 7107.482 15286.434 9147.217 4510.874 8534.282 10771.618 6941.087 15860.773 27070.549 4405.789 25384.915 15639.782 8247.377 14825.042 4036.420 8718.612 17924.023 8908.763 8332.226 3553.127 8324.626 12037.489 10230.833 3430.559 23554.818 8928.502 3823.971 8158.846 4495.449 4128.213 0.000 3696.322 16922.832 10589.957 16213.359 5152.456 6084.024 16137.159 9543.318 24126.153 3489.950 6193.423 24074.245 8328.506 5014.969 5472.966
26114.439 4142.514 16818.485 7735.619 12126.651 6833.495 9601.634 3702.324 3425.813 3362.786 3042.522 4762.041 23384.090 4028.675 4720.878 2214.652 11184.153 4979.942 3198.933 1643.011 1861.171 7958.131 5765.771 9393.457 11233.286 7853.448 8969.660 8939.931 1816.349 1168.233 3011.599 1636.422 2424.281 5916.840 14539.625 1664.137 9665.553 7149.637 25944.814 17730.157 4298.585 4128.058 4407.849 2919.200 9987.694 7861.691 1695.502 5881.831 11696.378 12598.591 3525.553 1785.452 14705.815 610.813 4203.371 17214.782 7790.674 2874.746 6378.155 1404.519 17944.570 26074.201 5058.440 3803.170 7796.880 7746.389 14370.918 11105.320 4346.394 5195.227 10607.138 6776.607 16878.938 26581.827 1126.023 21922.740 17597.885 8552.573 12474.454 2013.377 6519.938 19882.125 6590.245 8167.746 4352.112 8157.731 8575.315 11315.950 4555.701 20092.643 10886.604 1796.354 7119.015 3572.046 3961.317 3496.452 0.000 16434.110 8239.368 18171.461 6488.808 2991.575 13786.570 10090.161 20941.948 1244.831 8151.525 20890.040 6442.817 4848.074 7616.033
10246.345 15927.440 17414.284 17628.969 13568.913 12733.105 18885.878 19736.870 15971.547 17613.561 17474.658 20284.629 34688.765 20129.256 15170.447 15146.211 15017.664 14330.382 16996.529 15440.870 15370.724 9600.851 12303.048 12665.258 14637.519 9483.058 25004.206 15399.551 17869.914 17408.449 14183.071 15549.172 17236.315 13731.608 30574.171 15073.321 12065.572 16280.511 29292.016 26427.366 16235.708 14862.646 18272.200 17460.147 11618.661 17755.040 15176.253 21933.091 12269.026 28699.172 17950.643 15317.429 30740.361 16763.624 19437.594 8112.358 13992.549 17933.435 21312.997 17122.664 20959.120 29421.403 14156.570 17865.684 23431.850 16434.246 3530.236 25437.367 15626.851 14584.056 11382.020 11941.503 20601.373 10732.352 15539.838 22518.539 31929.932 14652.471 24227.714 18208.427 11270.499 33624.609 21966.793 13587.008 16897.846 24192.277 15957.423 26520.983 17025.176 21085.712 25218.652 15709.105 10607.334 19606.592 19995.864 17294.048 16650.669 0.000 23377.648 32503.509 16892.872 17926.416 25574.661 13961.952 32246.623 17522.912 22483.573 32194.715 22128.927 20882.620 17529.512
33174.704 11996.643 18947.621 15107.661 19769.738 14456.730 8719.434 8233.893 10851.100 10078.262 9757.998 4293.596 16925.358 7276.990 8737.543 9557.042 14283.328 12834.070 9914.409 9357.034 9085.186 14513.748 12046.565 17240.743 18658.573 14964.029 7934.054 13769.608 6732.470 8442.686 10735.691 9290.770 9139.758 13770.968 14985.842 8944.730 17519.681 14574.924 27468.867 13490.082 11723.872 9125.138 10601.535 6651.125 17841.822 14822.111 9559.364 7328.825 19339.464 7148.632 6322.061 9009.466 15152.032 8637.210 4522.294 23770.399 15637.960 6514.171 3779.630 7637.535 25369.857 27598.254 10711.506 10518.646 2392.645 15171.676 20926.535 13053.496 12200.522 10448.763 18461.266 14249.537 24304.225 33642.093 8707.937 24900.830 20020.187 16195.660 5182.106 7287.058 13243.185 22818.964 2639.429 16015.032 11777.399 8643.245 12554.956 13245.484 11980.988 21615.907 13823.443 9450.703 13891.760 8242.502 8492.886 10211.928 8378.827 23494.376 0.000 20593.764 13914.095 6399.257 6494.223 17733.247 14483.216 7991.573 10099.702 14431.309 2821.545 9278.050 15041.320
39201.337 19328.332 34499.997 16245.151 20642.571 22362.303 25594.566 15702.324 17869.266 15910.819 15663.415 19958.273 37500.444 17701.225 22402.391 18981.255 28865.665 19831.294 15600.193 18290.836 19124.113 24724.734 23382.056 22114.163 19421.880 23706.498 13198.021 26621.443 18671.579 17673.169 18917.609 18284.247 16300.473 20578.456 8735.732 18826.709 21657.179 16972.218 43626.326 33295.552 17984.232 21809.570 14548.478 20563.873 22018.762 15959.602 17853.317 16398.405 21247.732 16784.385 20857.457 19342.531 8377.237 18134.138 20684.462 33494.626 21201.589 20242.879 22259.364 19101.092 23393.049 43755.713 22674.725 15359.059 18980.563 17904.520 30650.762 8004.479 19324.853 22876.739 22598.763 22305.415 23177.440 39668.726 18973.717 39604.253 2137.487 19537.377 25757.192 18166.923 23286.540 3851.157 20319.928 21616.980 17943.936 12603.165 26256.827 7843.818 17450.177 37774.156 7502.436 18444.179 23523.175 16328.554 15865.413 15897.713 18264.250 32287.161 20605.024 0.000 17198.495 20214.527 27069.308 20340.356 35058.302 18057.878 11195.914 35006.394 19449.206 14742.572 16154.187
23658.072 3603.607 22009.642 1628.244 7208.562 6365.009 15811.292 7190.877 3045.791 5606.488 5467.585 10332.564 29556.909 8506.985 10930.537 6673.239 17390.135 3789.455 4772.471 5840.311 6897.752 11467.786 11155.695 6354.826 5843.874 9901.773 12350.920 15017.317 7386.872 6451.235 5234.945 5948.613 5386.353 4390.341 17527.061 6600.349 5897.843 1561.292 32150.795 23902.977 2317.158 10337.716 4991.259 9092.019 6259.426 1754.316 5192.174 9808.227 6778.288 16615.363 9698.373 7116.170 17693.251 6171.035 9773.894 18489.076 5265.376 8814.297 12390.995 7280.647 12555.158 32280.182 10448.364 5641.625 13028.564 2692.641 15153.834 10053.230 3283.014 10875.850 6839.427 6308.121 11489.526 24125.460 7051.029 27113.897 16437.645 3892.918 18044.977 7382.415 10485.665 18650.220 12160.768 5642.448 2753.066 11494.571 14781.297 11083.853 2010.368 25681.070 9726.364 6108.545 9794.334 7817.107 7449.870 4378.336 6398.632 16639.056 13809.891 17011.221 0.000 9012.835 19357.093 5172.071 27114.768 6815.354 8084.878 27062.860 11674.501 8336.626 1508.658
27942.319 6695.796 16263.552 10348.844 14679.933 8962.271 7823.911 5248.893 6039.038 5656.352 5336.088 2721.019 21026.144 3955.321 3674.378 4039.857 10460.059 7434.831 5492.499 3839.848 3568.000 9329.244 6862.062 11746.284 13808.582 9681.328 9172.985 8706.443 1920.408 3630.625 5218.505 3773.585 4717.848 8373.190 15806.944 3427.544 12121.903 9762.862 25220.720 15561.064 6911.810 4061.973 6701.415 1133.939 12385.469 10400.201 4497.929 6005.734 14249.659 11667.727 1170.707 3492.280 15973.133 3419.846 2144.807 18585.895 10143.501 813.408 4020.210 2120.349 20519.865 25350.107 5527.003 6096.736 5843.021 10321.684 15742.031 12391.280 6899.675 5264.259 13063.487 8755.079 19454.233 28409.707 3190.751 21367.807 19654.847 11105.855 10319.947 2474.996 8058.681 21939.087 4549.223 10520.573 6965.337 9177.974 7851.221 12583.268 7168.926 19368.549 12943.566 3933.517 8707.256 4198.792 5507.886 5790.018 2924.213 18261.991 6084.861 20228.423 9102.033 0.000 11632.063 12643.442 18584.002 3179.511 9437.486 18532.094 4488.958 6317.237 10229.258
35278.568 17395.463 18432.719 20506.481 25168.558 18739.169 9052.516 14056.448 16249.920 15477.083 15156.818 9721.847 11432.770 13068.335 10590.925 14474.075 14616.409 17869.049 15313.229 14755.854 14002.218 16367.130 13899.947 21523.182 24057.393 17229.310 14320.036 14466.053 12131.290 13841.506 15678.814 14689.590 14538.578 18807.408 21371.825 13861.762 22556.121 19973.744 26733.893 9439.177 17122.692 10978.520 16424.091 12001.330 22162.367 20220.932 14958.184 13687.258 24738.284 11974.120 11441.215 13926.498 21538.014 14036.030 9921.115 25623.781 19920.399 11912.991 9006.498 13036.355 30768.677 26863.280 12564.888 15917.466 8574.536 20570.496 22779.917 19439.479 17599.342 12302.145 23497.705 18531.976 29703.045 35764.575 13666.359 24628.325 26406.169 21594.480 1783.033 12685.878 15096.566 29204.946 8362.940 20297.471 17176.219 15029.227 12888.038 19631.466 17379.808 21343.402 20209.425 14849.523 15745.141 14019.522 14315.442 15610.748 13777.647 25515.730 6488.912 26979.746 19312.915 11798.077 0.000 23132.067 8990.628 13390.393 16485.684 8938.720 8775.568 15124.792 20440.140
20136.397 6730.018 23264.345 4894.015 2431.112 8157.631 18931.241 12266.733 6881.787 10326.479 10187.576 14159.920 32793.385 13119.717 14050.486 9678.678 20395.574 6601.458 9709.447 8999.505 9903.191 13403.629 13749.940 5924.216 1754.968 11156.476 16064.976 18022.756 11214.228 10398.910 8240.385 9107.807 10106.344 5828.656 21241.117 9605.788 4753.364 4227.698 35142.077 27114.419 6173.217 13457.666 10067.115 12504.832 5310.372 5020.086 8673.481 14884.082 2106.128 21689.634 13111.185 10121.610 21407.307 9998.392 13601.251 19743.779 5011.642 12460.379 15963.788 10990.151 9479.293 35271.464 13453.804 10578.601 17194.759 3397.722 16408.537 13767.286 6288.454 13881.289 3578.426 7812.623 8413.661 20603.785 10056.468 28368.600 20151.701 2628.307 21872.333 11244.054 12817.479 21089.715 15988.124 5427.033 7239.726 15208.627 17786.736 14797.909 7025.470 26935.773 13440.420 9267.739 12126.149 12597.053 12525.726 9454.191 10225.989 14469.647 17637.247 20725.277 5351.298 12577.207 23184.450 0.000 30351.243 10642.711 11798.934 30299.335 15840.696 13412.482 4794.558
42098.728 24489.697 23748.187 28485.443 32473.834 25559.330 15872.677 22042.051 24175.637 23512.761 23192.497 17837.362 3534.282 21057.625 17411.085 21294.235 21436.570 24689.210 23348.908 21848.412 20822.379 23187.290 20720.108 28343.343 31602.482 24049.471 22435.552 21286.214 20096.196 21812.345 22498.975 21782.148 22574.257 25627.569 29487.341 20681.923 29376.282 27716.469 26180.243 11167.583 25048.409 17798.681 24409.693 18821.490 28982.528 28256.611 22506.493 21802.774 31893.978 20089.636 18261.375 20746.659 29653.530 21428.410 17870.876 32443.941 26740.560 19005.549 17122.014 20128.913 38313.766 26309.630 19385.049 23953.145 16690.052 28115.585 29600.077 27554.995 24693.576 19122.305 30317.866 25352.137 37248.134 42584.736 20486.520 27338.822 34521.685 28493.311 10175.174 20670.863 21916.727 37320.462 16478.456 27117.632 25101.936 23144.743 19708.198 27746.982 25305.525 24879.218 28324.941 21861.953 22565.302 22050.660 22301.044 23646.427 20932.777 32335.891 14604.428 35095.262 27238.632 18825.478 8813.721 30437.343 0.000 21316.110 24601.200 51.908 16891.084 23110.395 28365.857
27094.293 4983.444 17144.404 8147.707 12756.539 7674.424 9927.552 3554.831 3837.901 3419.207 3098.943 4344.930 23673.169 2826.627 5046.797 3194.507 11510.071 5820.871 3255.354 2621.142 2841.025 8937.985 6745.625 10234.386 11645.374 8833.302 7847.034 9265.849 1315.985 1137.681 3862.263 2614.553 2480.703 6757.769 14112.882 2643.992 10506.483 7561.725 26270.732 18019.237 4710.673 4453.976 4464.270 3208.279 10828.623 8163.056 2546.165 4679.783 12326.266 11396.543 3814.633 2765.306 14279.072 1624.011 3786.261 18194.636 8631.603 2904.149 6403.361 1550.488 18356.658 26400.119 5783.888 3859.591 6914.870 8158.477 15350.772 10697.219 5187.323 5521.145 11448.067 7617.536 17291.026 27561.681 2105.877 22248.659 17654.306 9182.461 12057.344 811.329 7499.792 19938.547 6141.064 9008.676 4764.200 7730.987 8901.233 10889.206 4967.789 20418.562 10943.025 2774.485 8098.869 2504.731 3813.824 3552.873 1365.628 17413.964 7822.258 18227.883 6900.896 3087.581 13369.460 10720.048 21231.028 0.000 7743.424 21179.120 5560.807 4623.175 8028.121
30435.518 9608.049 23814.217 7263.261 13394.957 12468.731 15948.447 5061.477 7975.694 6017.247 5769.842 9943.714 27095.026 7015.444 11716.610 9087.683 18179.884 10111.010 5706.621 8397.264 9230.541 14831.161 13488.484 13132.273 12030.270 13812.926 4678.346 15935.663 7985.799 7444.203 9024.037 8390.675 6406.901 10858.172 9854.487 8933.137 12675.289 7990.328 32940.545 23649.433 8263.949 11123.790 4654.906 9878.093 13036.872 6977.712 7959.744 5694.120 12964.684 10577.592 10171.677 9448.959 10020.676 8240.565 9998.682 23601.054 12219.699 9557.098 12512.788 8884.244 18741.553 33069.932 12453.702 5465.487 8575.146 8922.630 20757.190 3129.096 9604.570 12190.958 13616.874 12411.843 17675.921 30902.907 8986.488 28918.472 10488.736 10555.487 15351.774 7481.142 13392.968 12894.564 10348.816 12635.090 8050.364 3821.996 15571.046 4212.712 7729.894 27088.375 3899.043 8550.607 13629.602 5684.670 5081.802 6004.140 8277.021 22393.589 10199.607 11062.313 8216.605 9528.746 16663.891 11358.466 24652.885 7845.702 0.000 24600.977 9020.107 4148.015 7172.298
42046.821 24437.789 23696.279 28433.535 32421.926 25507.422 15820.769 21990.143 24123.729 23460.854 23140.589 17785.455 3528.289 21005.717 17359.178 21242.328 21384.662 24637.303 23297.000 21796.504 20770.471 23135.383 20668.200 28291.435 31550.575 23997.563 22383.645 21234.306 20044.288 21760.437 22447.067 21730.240 22522.349 25575.661 29435.433 20630.015 29324.374 27664.561 26174.250 11161.590 24996.501 17746.773 24357.785 18769.583 28930.620 28204.703 22454.585 21750.866 31842.070 20037.728 18209.468 20694.751 29601.623 21376.502 17818.969 32392.034 26688.652 18953.641 17070.107 20077.005 38261.858 26303.637 19333.141 23901.237 16638.144 28063.677 29548.170 27503.087 24641.668 19070.398 30265.959 25300.229 37196.226 42532.828 20434.612 27332.829 34469.778 28441.403 10123.266 20618.956 21864.819 37268.555 16426.548 27065.724 25050.028 23092.835 19656.291 27695.074 25253.617 24873.225 28273.033 21810.045 22513.394 21998.752 22249.136 23594.519 20880.869 32283.984 14552.520 35043.354 27186.724 18773.570 8761.813 30385.435 51.908 21264.202 24549.292 0.000 16839.176 23058.487 28313.949
31761.316 9885.206 17779.133 12886.213 17658.301 12576.186 7550.946 5426.073 8739.663 7856.815 7536.550 2216.568 19308.218 4469.170 7208.738 8007.444 13114.839 10722.633 7692.961 7522.904 7535.587 12984.943 10517.760 15136.148 16547.136 13550.640 6724.399 12240.802 4621.034 6331.250 8764.025 7469.337 6918.310 11659.531 13776.187 7395.131 15408.245 12463.487 26300.378 15251.932 9612.435 7596.333 7793.715 5127.775 15730.385 12600.664 7447.927 4911.690 17228.028 7846.927 4705.066 7459.867 13942.377 6525.773 2829.988 22241.594 13533.365 4760.718 3556.603 5816.101 23258.420 26429.765 9182.701 7883.089 1457.452 13060.239 19397.730 11843.841 10089.085 8919.958 16349.829 12519.298 22192.788 32228.704 6886.503 23732.341 18810.532 14084.223 7564.966 5175.621 11714.379 21609.309 1328.709 13910.438 9665.962 7433.589 11385.580 12035.829 9869.551 20447.419 12613.788 7629.269 12362.954 5434.681 5685.066 7990.480 6267.390 22080.987 2806.808 19384.108 11802.658 4287.820 8877.082 15621.810 16866.076 5880.136 8890.046 16814.169 0.000 6494.416 12854.166
30299.442 8027.398 20572.393 8990.754 15065.551 10718.378 12706.624 1634.095 6794.031 4437.704 4190.299 6701.890 25872.689 3773.620 8474.786 6647.735 14938.061 8864.825 4127.078 6027.341 6294.254 12391.214 10198.854 13278.340 13700.863 12038.451 5018.826 12693.839 4743.975 4016.821 6906.217 6020.751 4342.520 9801.723 10588.791 6097.220 13550.436 9660.922 29698.721 20407.609 7666.803 7881.966 3832.395 6636.269 13872.577 8705.205 5590.119 3593.081 14635.277 10484.803 6929.853 6218.535 10754.981 5030.210 6756.858 21647.865 11675.557 6315.274 9371.421 5642.421 20412.147 29828.108 9211.878 3921.769 7376.519 10593.224 18804.001 6994.151 8231.277 8949.134 14492.021 10661.490 19346.515 30766.830 5559.106 25676.648 14120.226 11782.472 14140.431 4239.318 10953.021 16759.618 7431.986 12052.629 7171.701 4206.897 12329.222 7023.764 7049.133 23846.551 7764.097 6180.684 11552.098 2442.846 1654.420 4424.598 4849.639 20619.114 9000.980 14693.802 8638.198 6286.922 15452.548 13029.060 23430.547 4520.643 4040.356 23378.639 6575.466 0.000 8958.708
23843.044 5082.534 22952.327 347.331 6653.639 7843.936 17030.856 8319.048 4265.355 6775.279 6636.376 11552.128 30776.473 9675.776 12150.101 8076.770 18613.375 5268.382 5941.262 7059.875 8301.283 12871.317 12559.227 6539.799 5288.951 10844.459 11826.569 16369.153 8606.436 7620.026 6638.477 7168.177 6555.144 5333.027 17002.710 8003.880 6082.815 1397.854 33374.036 25122.541 3536.722 11557.280 5842.094 10311.583 6444.398 473.402 6411.738 10936.398 6223.365 17725.815 10917.937 8519.702 17168.899 7390.599 10993.458 19431.761 5627.225 10033.861 13610.559 8500.211 12000.235 33503.423 11851.896 6810.416 14197.355 2330.156 16096.519 9528.878 4761.941 12279.381 7024.400 7500.605 10934.603 24310.432 8326.217 28056.582 15913.293 3963.013 19264.541 8551.206 11889.196 17464.429 13380.332 6042.616 3972.630 10970.219 16004.537 10559.501 3229.932 26623.756 9202.013 7328.109 11197.865 8945.278 8578.042 5547.126 7618.196 17581.741 15029.455 16486.870 1482.430 10232.399 20576.657 4617.148 28334.332 8004.736 7560.527 28282.424 12843.292 9464.798 0.000
NODE_COORD_SECTION
1 14148.085016 -13392.395306
2 -2771.700811 -3282.023116
3 7053.613019 9340.965498
4 -4550.655602 -6403.261266
5 -930.429810 -10547.608206
6 308.338489 -2737.337036
7 -1883.594769 6737.052592
8 -7154.555143 -815.361027
9 -3647.109727 -2836.816121
10 -5672.430548 -1645.842292
11 -5470.102089 -1289.477787
12 -6158.949834 3349.583155
13 -7878.208461 18772.017532
14 -6709.372003 1099.672928
15 -2281.805600 2939.108876
16 -2556.353681 3.964617
17 3388.127707 6560.207396
18 -1772.934767 -3326.077184
19 -5530.290569 -1910.161651
20 -3329.466671 -729.513182
21 -2838.653357 162.447055
22 2878.384398 1166.476409
23 468.080621 1510.872038
24 1161.561128 -6521.847345
25 -2388.128664 -9813.262350
26 1825.022308 -1262.931021
27 -11286.651199 -150.173136
28 1676.115614 4960.709047
29 -4700.877369 1089.914302
30 -4894.914635 -78.575456
31 -2692.757476 -1330.555598
32 -3239.074490 -556.256342
33 -5160.116998 -1229.823894
34 -1486.247635 -3880.324042
35 -17817.399324 -2471.315718
36 -2878.566316 66.364630
37 681.835700 -7607.803116
38 -3365.418982 -6021.558629
39 7838.384546 20447.206260
40 -2309.193212 14663.184999
41 -3512.707688 -3619.161168
42 -1915.862928 2465.746248
43 -6311.456772 -2546.880321
44 -4259.214758 2078.244984
45 1310.781314 -7023.395585
46 -4733.539107 -6258.015316
47 -3423.905778 -1152.982040
48 -8795.584831 882.899142
49 -397.682897 -9646.393182
50 -13462.308120 4945.472377
51 -4543.918172 2799.653477
52 -2905.232658 262.519046
53 -18004.080746 -2428.669005
54 -4001.793893 -160.839827
55 -5484.171645 3225.165705
56 11667.249244 -1059.607109
57 -28.991627 -5200.443112
58 -4381.934454 2241.844319
59 -5795.780636 5378.244281
60 -3955.804223 901.168750
61 -1147.949256 -15689.884644
62 8106.405455 20651.528460
63 -737.591029 2162.647717
64 -5790.929310 -1725.742811
65 -9025.113580 4186.243711
66 -2919.232020 -6821.053951
67 7381.302161 -2999.378178
68 -11904.544602 -4765.209635
69 -2624.390971 -3085.954392
70 -884.863659 2374.990258
71 782.801903 -8500.821505
72 338.474667 -2791.346155
73 -1752.109084 -14710.976143
74 13785.492304 -14166.872423
75 -3162.619152 389.059322
76 12080.252935 11972.149414
77 -17237.531512 -7761.045993
78 -1432.277865 -7071.920432
79 -7319.100093 9077.511272
80 -5129.789519 781.081891
81 1511.871495 1122.830502
82 -17824.515600 -10928.541384
83 -6935.113732 4364.959218
84 457.204164 -5344.228545
85 -4033.615763 -3364.064765
86 -11016.394558 -989.983661
87 1172.719505 5365.073462
88 -12822.052547 -4258.127500
89 -4113.433598 -3453.483463
90 9349.715049 11723.037790
91 -11942.363119 -5836.437330
92 -3044.572739 -460.074069
93 1634.539660 403.207270
94 -6581.550708 10.727404
95 -7364.237997 -906.318774
96 -5522.961371 -2030.676866
97 -4140.016130 209.630922
98 8504.601096 -5516.612491
99 -8178.069508 6104.393258
100 -18653.792311 -7666.949032
101 -3936.302009 -5250.943978
102 -4613.941702 2499.394418
103 -8068.732532 9954.744913
104 -1644.999594 -8895.508433
105 -9630.308237 17394.019626
106 -4753.508741 362.479675
107 -9979.151395 -3048.259677
108 -9593.110032 17386.436137
109 -7801.114985 3860.158919
110 -8131.868126 -1197.039326
111 -4365.137459 -6233.150530
DEMAND_SECTION
1 0
2 30
3 97
4 69
5 40
6 2
7 68
8 78
9 56
10 83
11 100
12 50
13 2
14 44
15 57
16 54
17 73
18 34
19 57
20 29
21 86
22 59
23 99
24 31
25 19
26 38
27 15
28 60
29 16
30 24
31 46
32 42
33 77
34 35
35 81
36 53
37 37
38 29
39 95
40 67
41 8
42 60
43 77
44 15
45 21
46 96
47 35
48 30
49 23
50 35
51 30
52 81
53 92
54 15
55 38
56 26
57 42
58 22
59 26
60 12
61 31
62 58
63 77
64 73
65 5
66 42
67 29
68 82
69 5
70 99
71 18
72 4
73 45
74 28
75 90
76 86
77 53
78 18
79 24
80 41
81 100
82 100
83 17
84 35
85 58
86 56
87 63
88 51
89 56
90 67
91 71
92 8
93 84
94 34
95 98
96 88
97 16
98 26
99 1
100 92
101 85
102 32
103 15
104 50
105 38
106 38
107 80
108 1
109 35
110 91
111 90
DEPOT_SECTION
1
-1
EOF
