NAME : mamut-rome-n102-k9-poi
COMMENT : Mamut2026 fastest metric; city rome; No of trucks: 9 (lower bound, fleet not fixed); 3-decimal seconds/meters; ENU ref in mamut-rome-n102-k9-poi.vrp.json
TYPE : CVRP
DIMENSION : 103
EDGE_WEIGHT_TYPE : EXPLICIT
EDGE_WEIGHT_FORMAT : FULL_MATRIX
CAPACITY : 621
EDGE_WEIGHT_SECTION
0.000 2756.271 1557.593 1416.998 600.117 1372.351 1261.373 2524.797 1276.044 3171.581 1813.881 1353.461 1281.020 1062.317 1325.044 1257.360 85.948 2569.862 1066.089 1284.912 1240.987 1345.498 614.975 1374.282 1056.215 1344.800 561.415 1325.502 1034.183 581.908 1273.597 1411.912 1666.056 1397.529 1153.087 1314.166 960.579 1779.563 1237.558 1510.014 1488.795 1362.660 1262.574 3137.404 1259.914 1305.688 1222.827 2259.269 1193.963 1820.105 1311.668 1336.058 407.612 1630.072 1165.753 1043.903 1963.606 1348.142 1070.102 1304.497 1668.148 1563.661 2759.420 941.955 1255.321 2947.695 1272.213 97.396 1658.673 1097.910 1413.374 1716.146 1597.939 1071.542 2568.393 1307.626 1145.882 1290.229 1327.898 973.193 1496.497 263.893 955.063 1220.598 1394.602 1836.915 1453.004 557.533 912.489 1270.897 1532.046 1423.847 1171.001 1170.971 2502.203 89.707 1301.837 1119.850 1693.175 2219.193 1406.993 1362.598 1434.226
2806.764 0.000 1668.590 2409.961 2922.880 1634.410 1866.932 481.831 1787.148 1509.482 2162.550 2196.879 1978.345 2001.779 2022.368 1861.689 2825.007 3753.941 2029.134 1864.168 1842.890 1829.032 2926.948 1636.699 2319.615 1653.521 2578.926 1566.163 3111.187 2875.348 1970.921 2088.616 1364.279 2021.671 1853.988 1991.584 2117.564 1740.330 1709.997 2728.108 1800.824 1831.439 1931.140 1475.305 2135.050 2173.935 1920.151 2241.487 1809.867 1633.557 2178.697 2033.382 2772.069 2045.526 1958.092 1789.432 2745.145 1740.327 2058.059 2161.384 1366.371 2391.887 1866.215 2160.814 1952.645 2235.929 2079.670 2890.100 1356.896 1999.527 2430.899 1509.429 2088.728 2556.523 3811.128 2182.763 1849.730 1740.848 2219.255 2080.645 2049.633 2992.338 2195.058 2073.745 1627.038 1117.336 1696.570 2461.591 2132.033 1943.891 2134.056 2416.810 1926.254 1825.410 2707.201 2828.253 2148.977 2350.065 1484.811 947.506 1639.429 2035.591 2069.099
1621.243 1709.083 0.000 951.878 1737.359 448.889 516.989 1477.609 601.628 2497.165 666.058 794.525 673.687 753.903 668.809 482.000 1639.487 2257.449 761.286 509.552 633.909 489.308 1741.427 451.178 1042.506 468.001 1393.405 380.643 1973.109 1689.828 673.559 640.979 750.199 563.588 576.879 635.422 824.080 399.174 524.476 1590.030 340.242 393.431 564.913 2462.988 840.606 771.580 619.650 872.625 575.997 324.144 858.688 673.377 1586.549 549.034 664.353 603.911 1248.653 487.158 764.575 759.029 752.291 933.804 2085.004 867.330 647.987 1552.313 768.645 1704.580 742.816 722.418 978.592 803.748 592.236 1371.002 2314.636 792.356 572.621 555.327 816.900 791.364 553.141 1806.818 901.574 777.369 441.517 591.700 443.092 1276.071 867.731 525.018 675.973 958.727 740.734 553.005 1283.580 1642.732 746.622 1072.956 779.130 1082.745 453.908 587.072 604.070
1436.073 2469.228 1001.518 0.000 1364.970 826.420 669.920 2237.754 1161.297 3056.834 605.449 294.055 552.134 643.031 458.100 661.310 1454.317 1548.974 650.414 688.862 704.914 692.223 1369.038 828.351 518.001 798.868 1232.164 1025.734 1897.178 1317.438 584.053 415.860 1386.152 548.757 583.032 504.718 551.620 936.709 1143.130 1514.100 699.054 664.419 558.172 3022.657 410.525 360.591 533.215 1229.893 648.032 1082.126 447.699 442.761 1214.159 527.409 543.839 1010.086 654.076 717.338 592.188 344.996 1388.244 355.229 2644.673 598.504 510.235 2198.244 546.466 1519.410 1378.769 483.753 49.896 1439.702 461.830 733.109 1606.160 338.721 599.951 922.700 289.789 524.264 471.669 1583.426 575.821 434.601 911.107 1453.245 773.116 1114.829 598.905 564.624 447.269 6.849 851.152 625.039 1293.772 1457.562 360.388 552.438 1415.084 1932.149 915.143 444.302 462.950
510.564 3023.682 1825.004 1482.144 0.000 1616.456 1505.477 2792.208 1543.455 3438.992 1920.527 1501.870 1525.124 1306.421 1569.148 1501.464 528.808 2474.289 1310.193 1529.016 1485.091 1589.602 239.543 1618.386 1238.161 1588.904 1000.003 1592.913 1476.529 206.476 1517.701 1656.016 1933.467 1641.633 1397.191 1558.270 1243.207 2023.667 1504.969 1777.425 1732.899 1606.764 1506.678 3404.815 1495.693 1535.531 1466.931 2503.373 1438.067 2075.682 1544.243 1580.162 229.496 1874.176 1437.291 1311.314 2007.173 1592.247 1352.730 1495.660 1935.559 1703.888 3026.831 1185.499 1499.425 3191.799 1513.090 593.901 1926.084 1361.836 1478.520 1983.557 1836.707 975.969 2472.820 1451.189 1389.987 1557.640 1468.604 1255.821 1740.601 649.612 1237.691 1461.474 1662.013 2104.326 1697.108 926.901 1179.900 1515.001 1776.150 1488.993 1426.959 1415.075 2608.849 532.053 1534.412 1198.155 1960.586 2486.604 1674.404 1606.702 1678.330
1459.079 1687.099 488.420 805.825 1541.221 0.000 281.850 1455.624 443.572 2339.109 823.952 589.712 371.177 394.612 415.201 277.837 1477.322 2282.263 421.967 296.903 235.722 261.767 1545.289 29.531 712.448 46.354 1187.307 221.907 1815.053 1493.689 363.754 481.448 582.325 454.330 246.821 384.416 510.397 677.406 365.741 1431.974 347.317 288.655 323.973 2304.932 527.883 566.768 312.984 1150.857 202.700 709.218 571.530 426.215 1390.410 592.064 350.925 445.855 1387.366 175.285 450.892 554.217 584.418 801.104 1926.948 553.647 345.478 1825.335 472.503 1521.089 574.942 392.360 823.732 635.875 627.107 1141.902 2339.450 575.596 242.563 220.024 612.087 473.478 525.664 1644.653 587.890 466.578 110.452 767.742 243.062 1069.972 554.048 336.723 566.791 812.674 452.062 218.243 1554.220 1480.568 541.810 742.898 611.257 1150.020 116.233 428.424 500.052
1320.242 1923.933 517.013 622.091 1402.385 283.248 0.000 1692.459 633.134 2528.671 695.877 405.978 227.555 301.383 264.797 46.344 1338.486 2098.529 308.766 73.896 177.781 134.482 1406.453 285.178 589.986 255.696 1048.470 482.562 1713.484 1354.853 221.039 297.715 842.980 272.729 124.359 200.683 371.560 622.499 614.967 1330.406 311.528 151.645 140.239 2494.494 389.046 383.034 170.269 1095.950 123.477 654.311 432.693 275.811 1251.574 482.155 211.833 650.126 1203.632 172.044 312.055 370.483 845.072 617.370 2116.510 414.810 201.856 1770.428 328.881 1382.252 835.597 269.898 648.542 896.529 450.023 1019.440 2155.716 403.810 120.101 394.536 428.354 338.844 348.580 1505.817 449.054 327.741 367.935 909.038 256.073 931.135 415.211 152.990 389.707 628.940 559.231 100.485 1377.657 1341.731 358.076 620.436 871.911 1386.855 371.971 244.690 316.318
2593.596 519.717 1455.422 2196.793 2709.712 1421.242 1653.764 0.000 1573.980 1027.651 1949.382 1983.712 1765.177 1788.612 1809.200 1648.522 2611.840 3540.773 1815.966 1651.001 1629.722 1615.864 2713.780 1423.531 2106.447 1440.353 2365.758 1352.996 2635.979 2662.180 1757.754 1875.448 1151.111 1808.504 1640.820 1778.416 1904.396 1527.162 1496.829 2252.900 1587.657 1618.272 1717.972 993.474 1921.883 1960.767 1706.983 2028.319 1596.700 1420.390 1965.529 1820.215 2558.901 1832.359 1744.925 1576.264 2531.977 1527.159 1844.891 1948.216 1153.204 2178.719 1391.007 1947.646 1739.477 2022.761 1866.503 2676.932 1143.728 1786.359 2217.731 1284.657 1875.561 2343.355 3597.960 1969.595 1636.562 1527.680 2006.087 1867.478 1836.465 2779.171 1981.890 1860.578 1413.870 921.668 1483.402 2248.423 1918.865 1730.723 1920.888 2203.642 1713.086 1612.242 2494.033 2615.085 1935.809 2136.897 1261.979 751.839 1426.261 1822.424 1855.931
1367.907 1773.643 574.965 1128.098 1484.023 419.346 617.330 1542.169 0.000 2037.505 1098.283 911.986 693.451 639.988 737.474 613.317 1386.151 2604.536 667.343 640.869 557.996 625.180 1488.091 421.635 979.877 437.994 1140.069 342.874 1533.294 1436.492 686.028 803.722 683.428 776.603 569.094 706.690 760.854 831.399 254.930 1150.215 648.838 652.068 646.246 2003.328 850.157 889.041 635.257 1304.850 524.974 837.477 893.803 748.488 1333.213 893.586 673.198 350.575 1680.878 538.699 753.597 876.490 685.520 1123.378 1625.344 722.642 667.751 1984.538 794.777 1451.244 676.045 714.633 1146.005 621.673 936.788 1117.666 2661.723 897.869 564.836 287.282 934.361 782.546 852.454 1553.482 838.348 788.852 411.974 854.287 544.584 1022.735 693.176 658.997 893.581 1134.948 487.398 540.516 1715.806 1389.396 864.083 1043.512 598.702 1236.565 424.365 750.698 822.325
3275.460 1547.055 2482.518 3035.651 3391.576 2326.898 2524.882 1027.338 2034.848 0.000 2976.720 2819.538 2601.003 2547.540 2645.026 2520.869 3293.703 4512.089 2574.895 2548.421 2465.548 2532.733 3395.644 2329.187 2887.430 2345.546 3047.622 2250.426 2878.293 3344.044 2593.580 2711.274 2072.454 2684.156 2476.647 2614.242 2668.406 2554.500 2162.483 2495.215 2556.391 2559.620 2553.798 114.759 2757.709 2796.593 2542.810 3055.657 2432.526 2447.728 2801.355 2656.041 3240.765 2801.138 2580.751 2258.127 3559.315 2446.251 2661.150 2784.043 2074.547 3030.930 805.090 2630.194 2575.303 3050.099 2702.329 3358.796 2065.071 2622.185 3053.557 1983.174 2844.340 3025.219 4569.276 2805.421 2472.388 2194.835 2841.913 2690.098 2760.006 3461.034 2745.900 2696.404 2319.526 1949.006 2452.136 2930.287 2600.728 2566.549 2801.133 3042.500 2394.950 2448.069 3521.371 3296.949 2771.635 2951.064 1997.821 1779.177 2331.917 2658.250 2729.878
1879.795 2206.537 694.090 585.730 1808.692 874.528 698.346 1975.063 1134.874 3002.714 0.000 592.995 693.587 885.435 599.554 693.746 1898.039 1780.886 892.818 710.524 765.442 710.078 1812.760 876.458 982.467 846.976 1632.522 913.890 2297.536 1761.160 725.507 497.894 1283.445 565.795 708.411 613.461 955.612 619.747 1057.723 1914.458 518.899 645.659 657.303 2968.537 709.418 621.915 674.669 907.020 707.529 781.334 709.023 584.215 1657.881 233.572 733.103 1137.158 772.090 735.194 896.107 606.320 1285.538 498.971 2618.250 998.862 651.946 1897.656 707.790 1963.132 1276.063 808.787 612.444 1336.995 279.738 1176.830 1838.073 639.646 704.153 982.197 589.914 908.884 370.857 2027.148 1022.998 697.688 817.128 1145.816 696.673 1515.187 999.264 627.135 453.198 592.579 1143.283 684.537 883.194 1901.284 621.712 1016.904 1312.377 1636.860 821.164 526.336 476.839
1393.725 2290.036 818.330 274.221 1388.214 626.696 451.075 2058.562 961.573 2857.110 568.362 0.000 333.288 482.940 239.254 442.464 1411.968 1800.719 490.322 470.016 506.220 513.031 1392.282 628.627 464.280 599.144 1178.443 826.011 1843.457 1340.682 365.208 280.808 1186.428 353.109 422.940 285.872 497.899 783.587 943.406 1460.378 536.138 485.228 339.326 2822.934 229.248 141.746 314.370 1197.105 448.308 898.938 228.853 223.916 1237.403 494.621 372.803 903.560 905.821 538.147 440.034 119.932 1188.521 319.560 2444.949 544.783 291.389 2015.055 327.621 1477.061 1179.046 323.661 283.310 1239.978 429.042 756.353 1857.905 136.721 422.224 722.976 42.069 423.759 438.824 1579.299 522.100 217.519 711.384 1270.056 598.558 1061.108 545.184 345.779 414.481 281.070 744.627 425.316 1256.684 1415.214 141.543 498.717 1215.360 1752.958 715.420 251.114 322.741
1281.801 2033.925 686.133 531.891 1400.948 369.420 224.076 1802.451 704.297 2599.834 670.413 315.778 0.000 303.947 133.262 215.465 1300.045 2008.329 311.329 243.017 248.944 303.603 1405.016 371.350 519.071 341.868 1051.034 568.734 1716.048 1353.416 73.907 220.130 929.152 255.795 169.206 122.384 374.124 686.274 686.130 1332.969 432.794 320.766 172.643 2565.657 195.165 292.834 57.093 1165.980 191.031 775.577 236.880 133.034 1250.137 493.273 81.502 721.289 1113.431 341.164 296.376 280.283 931.244 527.170 2187.673 417.374 58.143 1891.694 129.572 1365.137 921.769 198.227 558.342 982.701 470.553 919.409 2065.516 313.609 164.947 465.699 338.153 280.101 359.698 1467.376 410.176 131.928 454.107 1078.158 425.194 933.699 417.775 180.967 341.436 538.740 565.634 168.039 1352.193 1303.290 239.644 549.521 958.083 1496.847 458.143 171.988 243.615
1121.881 2055.438 746.609 667.556 1204.023 390.932 279.953 1823.964 699.841 2595.378 862.375 461.631 299.601 0.000 343.624 275.940 1140.125 2152.989 31.002 303.492 259.568 364.078 1208.091 392.863 409.346 363.380 850.109 590.246 1515.123 1156.491 292.178 430.493 950.664 416.110 171.668 332.747 173.199 798.144 681.674 1132.044 507.376 381.241 281.154 2561.201 368.084 413.858 241.408 1277.850 212.544 850.158 411.730 354.639 1053.212 648.652 217.322 471.854 1258.092 366.723 165.942 412.666 952.757 671.830 2183.217 216.449 273.901 1966.276 358.394 1183.891 943.281 202.088 663.932 1004.214 616.520 842.483 2210.176 415.796 164.463 461.244 484.006 194.891 515.077 1307.455 250.693 306.778 475.620 1124.550 471.585 732.774 216.850 289.478 550.627 674.405 312.920 189.552 1544.155 1143.370 410.007 472.981 979.596 1518.359 479.655 381.179 452.806
1363.821 2081.921 681.803 413.631 1455.120 417.415 250.361 1850.447 752.292 2647.829 562.656 197.519 124.007 354.118 0.000 241.750 1382.065 1890.069 361.501 269.302 296.939 329.888 1459.188 419.346 594.811 389.863 1101.205 616.730 1766.220 1407.588 155.927 112.712 977.147 216.582 217.201 102.702 424.295 647.060 734.125 1383.141 399.611 347.051 161.604 2613.653 232.805 174.574 105.089 1117.262 239.027 762.411 261.682 26.016 1304.309 428.375 163.523 769.285 995.172 367.449 364.790 162.023 979.240 408.911 2235.668 467.545 82.365 1878.528 138.210 1434.987 969.765 280.247 440.083 1030.697 362.797 898.797 1947.256 195.350 212.943 513.695 219.894 362.121 302.297 1549.396 492.196 169.568 502.103 1104.444 451.479 983.871 467.947 168.057 248.058 420.480 615.806 216.035 1244.436 1385.310 149.616 629.248 1006.079 1544.842 506.139 114.587 186.215
1355.563 1897.320 473.679 652.904 1437.705 284.765 101.670 1665.846 664.151 2559.688 692.618 436.792 258.368 336.704 295.610 0.000 1373.807 2125.437 344.087 47.283 213.102 91.148 1441.773 286.695 625.307 257.213 1083.791 484.079 1748.805 1390.174 256.360 309.866 844.497 274.063 159.680 231.496 406.881 579.165 627.912 1365.726 268.195 108.311 171.052 2525.512 424.367 413.847 204.332 1052.616 158.798 610.977 467.002 306.624 1286.895 478.895 247.154 681.144 1230.539 145.430 347.376 401.296 846.589 644.278 2147.527 450.131 232.669 1727.095 359.694 1417.573 837.114 305.219 679.356 898.046 446.763 1054.761 2182.624 434.623 155.422 425.554 459.167 374.165 345.320 1541.138 484.375 362.051 369.452 882.424 229.460 966.456 450.532 157.695 386.447 659.753 594.552 135.806 1374.398 1377.052 388.889 655.757 873.428 1360.242 373.488 255.960 327.587
94.518 2776.430 1577.752 1437.157 620.276 1392.510 1281.532 2544.956 1296.203 3191.740 1834.040 1373.620 1301.179 1082.476 1345.203 1277.519 0.000 2590.021 1086.248 1305.071 1261.146 1365.657 635.134 1394.441 1076.375 1364.959 509.168 1345.661 981.935 602.067 1293.756 1432.071 1686.215 1417.688 1173.246 1334.325 980.738 1799.722 1257.717 1478.349 1508.954 1382.819 1282.733 3157.563 1280.073 1325.847 1242.986 2279.428 1214.122 1840.264 1331.827 1356.217 427.771 1650.231 1185.912 1064.062 1983.765 1368.301 1090.261 1324.656 1688.307 1583.820 2779.579 962.114 1275.480 2967.854 1292.372 135.126 1678.832 1118.069 1433.533 1736.305 1618.098 1091.701 2588.552 1327.786 1166.042 1310.388 1348.058 993.352 1516.656 253.480 975.222 1240.757 1414.761 1857.074 1473.163 505.286 932.648 1291.056 1552.205 1444.006 1191.160 1191.130 2522.362 7.250 1321.996 1140.009 1713.334 2239.352 1427.152 1382.757 1454.385
2372.903 3815.450 2303.003 1594.732 2293.496 2318.774 2134.919 3583.976 2653.651 4549.188 1792.606 1811.228 2031.690 2186.298 1937.657 2126.308 2391.147 0.000 2193.681 2153.860 2198.298 2154.550 2297.563 2320.705 2064.168 2291.222 2646.448 2518.089 3338.868 2245.964 2063.610 1854.149 2878.506 2002.661 2118.863 1969.717 2097.788 2228.660 2635.484 3015.706 2161.381 2126.747 2023.170 4515.012 1927.650 1840.148 2012.772 2515.933 2140.386 2390.247 1927.256 1922.318 2142.685 1952.473 2071.206 2549.595 1450.581 2179.665 2138.355 1824.553 2880.599 1559.466 4137.027 2144.671 1989.792 3506.569 2026.023 2456.239 2871.124 2027.020 1596.063 2932.056 1924.157 2028.602 159.670 1857.879 2114.604 2415.054 1808.146 2070.431 1933.996 2511.951 2121.988 1915.921 2403.462 2754.729 2235.444 2529.113 2145.073 2013.391 1909.596 1547.700 2397.320 2117.394 2480.928 2394.392 1839.945 2098.605 2907.438 3245.773 2407.497 1882.591 1925.278
1137.047 2074.492 765.663 686.611 1219.189 409.987 299.008 1843.018 707.517 2603.054 881.429 480.686 318.656 35.008 362.679 294.995 1155.291 2172.044 0.000 322.547 278.622 383.133 1223.257 411.917 424.512 382.435 865.275 609.301 1530.289 1171.657 311.232 449.547 969.719 435.164 190.722 351.801 188.365 817.198 689.350 1147.210 526.431 400.296 300.209 2568.878 387.138 432.912 260.462 1296.904 231.598 869.213 430.785 373.693 1068.378 667.707 236.377 479.530 1277.146 385.778 184.997 431.721 971.811 690.885 2190.893 231.615 292.956 1985.331 377.449 1199.057 962.336 221.143 682.987 1023.268 635.575 857.649 2229.230 434.851 183.518 468.920 503.061 213.945 534.132 1322.621 265.859 325.833 494.674 1143.604 490.640 747.940 232.016 308.533 569.681 693.460 320.597 208.606 1563.209 1158.536 429.061 488.147 998.651 1537.414 498.710 400.233 471.861
1340.517 1882.274 507.599 642.366 1422.659 269.718 88.530 1650.800 649.105 2544.642 716.152 426.253 247.830 321.658 285.072 83.287 1358.761 2118.804 329.040 0.000 198.056 67.492 1426.727 271.649 610.261 242.167 1068.745 469.033 1733.759 1375.127 241.314 317.989 829.450 293.004 144.634 220.957 391.835 613.085 612.866 1350.680 302.114 142.231 160.514 2510.466 409.321 403.309 190.544 1086.536 143.752 644.897 452.968 296.086 1271.848 502.430 232.107 666.098 1223.907 130.384 332.330 390.758 831.543 637.645 2132.481 435.085 222.130 1761.014 349.156 1402.527 822.068 290.173 668.817 883.000 470.297 1039.715 2175.991 424.084 140.376 410.508 448.628 359.119 368.855 1526.091 469.329 348.016 354.406 867.378 214.413 951.410 435.486 173.264 409.982 649.215 579.506 120.760 1397.932 1362.006 378.351 640.711 858.382 1345.196 358.442 264.965 336.593
1275.406 1888.531 650.717 679.747 1357.548 224.026 184.062 1657.057 558.903 2454.440 766.483 473.821 260.183 256.546 304.206 180.049 1293.649 2165.179 263.929 207.601 0.000 268.187 1361.616 225.957 523.943 196.474 1003.634 423.340 1668.648 1310.016 252.759 370.454 783.758 343.335 112.563 273.422 326.724 702.252 540.736 1285.569 411.484 285.349 212.978 2420.263 380.274 426.048 201.989 1181.958 62.318 754.267 432.028 315.220 1206.737 552.761 216.667 575.896 1270.282 199.817 267.219 424.857 785.850 684.021 2042.279 369.974 234.483 1870.384 361.509 1337.416 776.375 203.855 676.122 837.308 520.628 953.397 2222.366 427.986 105.358 320.306 496.196 284.974 419.186 1460.980 404.217 327.572 308.713 957.644 304.679 886.299 370.375 225.729 460.313 686.596 493.188 107.248 1448.263 1296.895 422.197 554.393 812.690 1351.453 312.749 317.430 389.057
1386.464 1884.464 486.052 674.725 1468.606 271.909 130.690 1652.990 651.296 2546.833 704.991 465.812 287.389 367.604 324.630 95.702 1404.707 2137.810 374.987 60.838 247.611 0.000 1472.674 273.839 656.208 244.357 1114.692 471.223 1779.706 1421.074 287.261 338.887 831.641 286.436 190.581 260.516 437.782 591.539 615.056 1396.627 280.568 120.684 200.072 2512.656 454.308 442.867 233.352 1064.990 189.699 623.350 496.022 335.645 1317.795 491.269 278.054 668.288 1242.913 132.574 378.276 430.316 833.733 656.651 2134.672 481.032 261.689 1739.468 388.715 1448.474 824.258 336.120 701.439 885.190 459.136 1085.662 2194.997 463.643 186.323 412.698 488.187 405.066 357.693 1572.038 515.275 391.071 356.596 869.569 216.604 997.357 481.433 186.716 398.820 681.575 625.453 166.706 1386.771 1407.953 417.909 686.657 860.572 1347.386 360.632 284.980 354.098
506.534 2962.870 1764.192 1421.332 182.281 1555.643 1444.664 2731.396 1482.642 3378.179 1859.714 1441.057 1464.312 1245.608 1508.335 1440.651 524.777 2413.476 1249.380 1468.203 1424.278 1528.789 0.000 1557.573 1177.348 1528.091 995.972 1532.100 1472.498 45.173 1456.888 1595.203 1872.654 1580.821 1336.379 1497.458 1182.394 1962.854 1444.157 1716.612 1672.087 1545.952 1445.865 3344.003 1434.880 1474.719 1406.118 2442.560 1377.254 2014.869 1483.430 1519.349 276.315 1813.363 1376.479 1250.501 1946.360 1531.434 1291.917 1434.847 1874.747 1643.075 2966.018 1124.687 1438.612 3130.987 1452.277 589.870 1865.271 1301.023 1417.707 1922.745 1775.895 915.156 2412.008 1390.376 1329.174 1496.827 1407.792 1195.008 1679.788 645.582 1176.878 1400.662 1601.200 2043.513 1636.296 922.871 1119.087 1454.189 1715.338 1428.181 1366.146 1354.262 2548.036 528.023 1473.600 1137.343 1899.773 2425.791 1613.591 1545.889 1617.517
1452.579 1719.136 520.458 799.325 1534.721 54.630 275.350 1487.662 452.121 2347.658 831.708 583.212 364.677 388.112 408.700 271.337 1470.822 2275.763 415.467 290.403 229.222 255.267 1538.789 0.000 705.948 39.854 1180.807 253.945 1838.312 1487.189 357.254 474.948 614.362 447.830 240.321 377.916 503.897 685.162 397.778 1455.233 355.073 282.154 317.472 2313.482 521.383 560.268 306.484 1158.613 196.200 716.974 565.030 419.715 1383.910 599.820 344.425 469.114 1380.865 168.785 444.391 547.717 616.455 794.604 1935.497 547.147 338.977 1833.091 466.003 1514.589 606.980 385.859 817.232 667.912 620.606 1135.402 2332.950 569.096 236.062 213.524 605.587 466.978 519.164 1638.153 581.390 460.078 118.208 799.779 250.818 1063.472 547.548 330.223 560.291 806.174 445.562 211.743 1548.241 1474.068 535.309 736.397 643.294 1182.057 122.244 421.924 493.552
1094.617 2301.067 992.238 490.409 1058.742 636.562 525.583 2069.593 952.195 2847.732 908.732 434.574 491.486 386.664 536.708 521.570 1112.861 2039.382 390.437 549.122 505.197 609.708 1062.810 638.492 0.000 609.010 899.403 835.876 1564.418 1011.210 495.710 592.953 1196.294 643.918 417.297 560.101 310.172 1043.773 913.709 1181.339 753.006 626.871 508.962 2813.555 414.968 457.539 468.762 1523.479 458.173 1095.788 463.518 529.450 907.931 834.990 383.950 666.136 1144.485 612.353 351.841 439.394 1198.386 659.929 2435.571 265.743 501.256 2211.905 459.748 1177.953 1188.911 308.494 486.784 1249.843 769.412 672.191 2096.569 394.923 410.093 728.834 401.309 282.815 750.969 1277.198 317.935 408.133 721.249 1370.179 717.215 782.068 266.145 517.286 728.638 497.258 507.203 435.181 1597.054 1116.106 453.688 201.249 1225.225 1763.989 725.285 563.259 634.886
1420.912 1716.752 518.074 767.658 1503.054 52.247 243.683 1485.278 449.738 2345.275 834.794 551.545 333.010 356.445 377.034 239.670 1439.155 2244.096 383.800 258.736 197.555 223.600 1507.122 54.177 674.281 0.000 1149.140 251.561 1814.154 1455.522 325.587 443.281 611.979 416.163 208.654 346.249 472.230 703.888 395.394 1431.075 373.799 250.488 285.806 2311.098 489.716 528.601 274.817 1177.339 164.533 735.700 533.363 388.048 1352.243 618.546 312.758 466.731 1349.198 137.118 412.724 516.050 614.071 762.937 1933.114 515.480 307.311 1851.817 434.336 1482.922 604.596 354.193 785.565 665.529 588.939 1103.735 2301.283 537.429 204.396 211.141 573.920 435.311 487.497 1606.486 549.723 428.411 136.934 797.396 241.980 1031.805 515.881 298.556 528.624 774.507 443.178 180.076 1516.574 1442.401 503.643 704.730 640.911 1179.674 140.970 390.257 461.885
569.492 2531.102 1332.424 1262.944 974.913 1167.432 1056.453 2299.628 1050.874 2946.411 1638.875 1196.387 1076.101 857.397 1120.124 1052.440 530.187 2760.700 861.169 1079.992 1036.068 1140.578 989.771 1169.363 958.412 1139.880 0.000 1100.332 1054.393 956.704 1068.678 1206.992 1440.886 1192.610 948.168 1109.247 817.121 1574.644 1012.389 1185.746 1283.876 1157.741 1057.654 2912.235 1102.839 1148.613 1017.907 2054.349 989.044 1594.935 1154.593 1131.139 782.408 1425.152 993.822 818.733 1865.802 1143.223 907.100 1147.422 1442.979 1406.586 2534.250 689.788 1050.401 2741.997 1115.139 525.585 1433.503 948.086 1259.319 1490.977 1393.020 1047.592 2817.887 1150.552 940.963 1065.059 1173.844 831.822 1291.577 740.421 835.542 1063.523 1169.432 1611.745 1248.085 167.292 660.323 1065.978 1327.127 1269.793 918.835 966.051 2320.655 510.447 1144.762 1022.046 1468.005 1994.023 1181.823 1157.679 1229.306
1402.157 1645.620 446.942 1031.287 1518.273 252.704 507.312 1414.146 382.542 2278.079 958.832 815.174 596.639 620.074 640.662 503.299 1420.401 2507.725 647.428 522.365 461.184 487.229 1522.341 254.993 937.910 271.816 1174.319 0.000 1754.023 1470.742 589.216 706.910 540.847 679.792 472.283 609.878 735.859 703.376 244.834 1370.944 482.197 512.812 549.434 2243.902 753.345 792.230 538.446 1176.827 428.162 709.454 796.991 651.677 1367.462 726.944 576.387 384.825 1552.855 400.747 676.353 779.679 542.939 1026.566 1865.918 756.892 570.939 1856.515 697.965 1485.494 533.464 617.821 1049.193 594.397 770.146 1151.916 2564.912 801.058 468.024 272.999 837.549 698.940 731.050 1587.732 813.352 692.040 245.332 726.264 377.942 1056.985 727.426 562.185 792.253 1038.136 521.648 443.705 1587.783 1423.646 767.271 968.359 569.779 1108.542 257.723 653.886 725.514
1032.252 3151.643 1957.910 1906.473 1558.010 1802.290 1699.982 2645.246 1526.798 2872.189 2282.404 1839.916 1719.630 1500.926 1763.653 1695.969 992.947 3451.519 1504.698 1723.521 1679.597 1784.107 1572.868 1804.579 1614.194 1783.409 1036.217 1725.818 0.000 1539.801 1712.207 1850.521 1886.633 1836.139 1591.697 1752.776 1460.650 2214.344 1637.875 496.413 1927.405 1801.270 1701.183 2838.012 1746.368 1792.142 1661.436 2687.795 1632.573 2220.421 1798.122 1774.668 1365.505 2068.681 1637.351 1444.219 2556.621 1786.752 1550.629 1790.951 1888.725 2050.115 2460.028 1333.317 1693.930 3367.483 1758.668 988.345 1879.250 1591.615 1902.848 1797.353 2036.549 1738.411 3508.706 1794.081 1584.492 1686.785 1817.373 1475.351 1935.106 1203.181 1479.071 1707.052 1794.918 2237.231 1891.614 1032.335 1303.852 1709.507 1970.656 1913.322 1562.364 1609.580 2964.184 973.207 1788.291 1677.829 1804.837 2619.509 1807.309 1801.208 1872.835
461.361 2917.697 1719.019 1376.159 147.415 1510.470 1399.491 2686.223 1437.470 3333.007 1814.542 1395.884 1419.139 1200.435 1463.162 1395.478 479.605 2368.304 1204.208 1423.030 1379.106 1483.616 56.152 1512.401 1132.175 1482.918 950.800 1486.928 1427.326 0.000 1411.716 1550.031 1827.482 1535.648 1291.206 1452.285 1137.222 1917.682 1398.984 1671.439 1626.914 1500.779 1400.692 3298.830 1389.707 1429.546 1360.946 2397.388 1332.082 1969.696 1438.258 1474.177 231.143 1768.190 1331.306 1205.328 1901.188 1486.261 1246.744 1389.675 1829.574 1597.903 2920.846 1079.514 1393.439 3085.814 1407.104 544.697 1820.099 1255.850 1372.535 1877.572 1730.722 869.984 2366.835 1345.204 1284.001 1451.655 1362.619 1149.835 1634.615 600.409 1131.706 1355.489 1556.028 1998.340 1591.123 877.698 1073.915 1409.016 1670.165 1383.008 1320.974 1309.090 2502.864 482.850 1428.427 1092.170 1854.600 2380.619 1568.419 1500.717 1572.344
1318.939 2027.883 680.091 571.824 1401.082 363.377 218.033 1796.408 698.254 2593.791 710.345 355.711 129.171 300.080 173.194 209.422 1337.183 2048.262 307.463 236.974 242.901 297.560 1405.150 365.308 578.671 335.825 1047.167 562.691 1712.181 1353.550 0.000 260.063 923.109 295.728 163.163 162.317 370.257 711.760 680.087 1329.103 426.752 314.723 166.600 2559.614 296.090 332.766 70.978 1191.466 184.989 769.534 337.805 184.209 1250.271 533.206 141.103 715.247 1153.364 335.122 310.752 320.215 925.202 567.103 2181.630 413.507 103.471 1885.652 230.497 1380.949 915.726 257.828 598.275 976.659 510.486 1007.069 2105.448 353.542 158.905 459.657 378.086 337.541 399.631 1504.514 447.751 232.853 448.065 1072.116 419.151 929.832 413.909 174.924 381.369 578.673 561.767 161.996 1392.125 1340.428 307.808 609.121 952.041 1490.804 452.100 211.921 283.548
1456.720 2111.778 640.071 388.607 1546.449 490.963 307.107 1880.304 825.840 2721.377 479.599 235.040 216.906 445.447 118.488 298.497 1474.963 1846.336 452.830 326.049 370.487 334.773 1550.517 492.893 632.333 463.411 1192.534 690.277 1857.548 1498.917 248.825 0.000 1050.695 174.850 291.051 141.905 515.624 605.328 807.673 1474.470 357.880 306.969 195.359 2687.200 299.598 212.096 197.987 1047.803 312.574 720.679 299.203 113.128 1395.638 345.319 256.421 842.832 951.439 359.888 456.119 199.545 1052.787 365.178 2309.216 558.874 175.264 1836.796 236.703 1526.316 1043.312 373.146 415.321 1104.244 279.740 936.319 1903.523 232.871 286.793 587.242 257.415 455.020 242.490 1642.294 585.095 266.802 575.650 1091.797 420.299 1075.199 559.276 185.579 156.036 395.456 707.134 289.582 1161.379 1478.209 187.138 666.770 1079.626 1574.699 579.686 54.780 126.407
1728.443 1411.266 701.362 1321.493 1844.559 542.911 797.518 1179.792 708.827 2107.733 1224.680 1105.381 886.846 910.280 930.869 793.505 1746.687 2797.931 937.635 812.571 751.391 777.435 1848.627 545.200 1228.116 562.022 1500.605 487.843 1925.834 1797.027 879.422 997.117 0.000 969.998 762.489 900.085 1026.065 957.796 618.171 1542.756 772.403 803.019 839.641 2073.556 1043.551 1082.436 828.652 1431.247 718.369 919.288 1087.198 941.883 1693.748 1017.150 866.593 711.111 1807.275 690.954 966.560 1069.885 136.368 1316.773 1709.824 1069.315 861.146 2061.911 988.172 1811.779 22.153 908.028 1339.400 256.531 1060.352 1478.202 2855.118 1091.264 758.231 662.527 1127.756 989.146 1021.257 1914.018 1103.559 982.246 535.539 673.766 668.149 1383.270 1053.712 852.392 1082.459 1328.342 847.933 733.911 1842.203 1749.932 1057.478 1258.566 231.913 874.187 547.930 944.093 1015.720
1453.470 2025.947 554.241 523.347 1535.613 413.392 247.522 1794.473 769.971 2665.508 553.613 321.575 253.999 434.611 195.860 232.610 1471.714 1986.089 441.994 259.700 314.618 248.942 1539.681 415.322 718.868 385.840 1181.698 612.706 1846.712 1488.081 283.121 168.029 973.124 0.000 257.587 168.086 504.788 519.498 751.803 1463.634 272.049 221.139 165.104 2631.331 385.322 298.631 224.023 999.204 256.705 634.849 385.738 200.428 1384.802 339.891 293.515 786.963 1091.192 274.058 445.283 286.080 975.216 504.931 2253.347 548.038 228.299 1750.966 295.695 1515.480 965.741 403.126 550.061 1026.673 307.758 1022.854 2043.276 319.406 253.329 531.373 343.950 472.072 206.315 1639.045 582.282 322.085 498.079 1005.967 334.469 1064.363 548.440 145.459 232.244 530.196 692.459 233.713 1235.393 1474.959 273.673 753.305 1002.055 1488.869 502.115 114.122 134.423
1212.258 1907.894 597.949 580.535 1294.400 243.388 131.294 1676.420 578.265 2473.802 713.715 374.610 173.674 193.399 217.697 127.281 1230.502 2065.968 200.781 154.833 122.912 215.418 1298.468 245.319 486.804 215.836 940.486 442.702 1605.500 1246.868 166.251 288.302 803.120 270.209 0.000 191.270 263.576 649.484 560.098 1222.421 358.716 232.581 135.253 2439.625 281.062 326.837 115.481 1129.190 65.000 701.499 324.709 228.712 1143.589 499.993 104.104 595.258 1171.070 219.179 204.071 325.645 805.213 584.809 2061.641 306.826 147.974 1817.616 271.373 1274.268 795.737 166.716 576.911 856.670 467.860 916.258 2123.155 328.775 16.919 339.668 396.985 230.860 366.417 1397.832 341.070 219.757 328.076 977.006 324.041 823.151 307.227 143.577 404.726 587.384 455.086 42.007 1395.495 1233.747 322.985 517.254 832.052 1370.815 332.111 235.278 306.905
1343.610 2034.772 634.892 475.505 1425.753 370.267 186.412 1803.298 705.144 2600.681 603.334 259.392 135.379 324.751 128.966 177.801 1361.854 1951.943 332.134 205.353 249.791 265.939 1429.821 372.197 612.463 342.715 1071.838 569.581 1736.852 1378.221 164.501 151.128 929.999 169.670 170.355 0.000 394.928 600.149 686.977 1353.774 352.700 283.102 87.643 2566.504 284.820 236.447 105.403 1079.855 191.878 715.499 323.555 138.244 1274.942 419.390 174.894 722.136 1057.045 303.500 335.423 223.897 932.091 470.784 2188.520 438.178 109.679 1831.617 219.226 1405.620 922.616 291.619 501.956 983.549 400.291 960.671 2009.130 257.223 166.097 466.546 281.767 362.212 285.814 1529.185 472.422 221.583 454.954 1040.494 387.530 954.503 438.580 94.095 267.552 482.354 586.438 168.886 1285.114 1365.099 211.489 642.913 958.931 1497.694 458.990 98.104 169.732
1011.928 2148.953 840.124 556.192 1131.075 484.447 373.469 1917.479 819.325 2714.862 940.839 480.419 393.116 174.413 437.140 369.456 1030.171 2105.166 178.185 397.008 353.083 457.594 1135.143 486.378 336.398 456.896 793.318 683.762 1458.332 1083.543 385.693 524.008 1044.179 509.625 265.183 426.262 0.000 891.659 798.555 1075.254 600.891 474.756 374.670 2680.685 386.872 432.646 334.923 1371.365 306.059 943.674 438.625 448.154 980.264 742.168 278.296 550.983 1210.268 460.238 150.731 431.455 1046.272 690.618 2302.700 159.658 367.417 2059.791 385.785 1095.264 1036.797 210.453 552.568 1097.729 710.035 769.534 2162.353 434.584 257.978 580.727 467.093 85.735 608.593 1197.502 140.303 334.170 569.135 1218.065 565.100 675.983 160.060 382.993 644.142 563.042 392.049 283.067 1629.161 1033.417 428.795 400.032 1073.111 1611.874 573.171 474.694 546.322
1869.599 1801.583 450.095 897.911 1951.742 738.142 634.147 1570.109 890.880 2597.759 615.425 765.792 685.062 850.740 640.076 599.158 1887.843 2206.816 858.123 626.710 730.747 615.491 1955.810 740.430 1139.343 752.389 1597.827 669.895 2262.361 1904.210 714.184 612.246 1039.451 534.855 673.716 612.303 920.917 0.000 813.728 1879.282 407.664 540.430 596.167 2563.583 829.539 742.848 655.086 703.229 672.834 376.364 829.955 644.645 1800.931 490.638 724.578 893.163 1198.020 640.606 861.412 730.297 1041.543 879.837 2374.256 964.167 659.362 1467.271 739.912 1931.609 1032.068 819.255 924.625 1093.000 533.840 1467.071 2264.003 763.623 669.458 844.579 788.167 888.201 494.744 2055.174 998.411 766.302 706.641 901.821 591.445 1480.492 964.569 576.522 649.469 904.760 1029.986 649.842 1232.947 1891.088 717.889 1169.793 1068.382 1392.866 710.677 558.339 574.042
1332.592 1713.881 515.203 1107.492 1448.708 357.892 596.724 1482.407 312.976 2208.513 1038.521 891.380 672.845 619.382 716.868 592.711 1350.836 2583.930 646.736 620.263 537.390 592.417 1452.776 360.181 959.271 377.004 1104.754 226.374 1684.457 1401.176 665.421 783.116 621.974 755.997 548.488 686.084 740.248 771.637 0.000 1301.379 587.385 618.000 625.640 2174.337 829.550 868.435 614.651 1245.088 504.368 777.715 873.197 727.882 1297.897 832.132 652.592 315.260 1621.116 505.935 732.991 855.884 624.066 1102.772 1796.352 687.327 647.145 1924.776 774.171 1415.928 614.591 694.027 1125.399 574.939 875.334 1082.351 2641.117 877.263 544.230 266.676 913.755 761.940 831.848 1518.167 817.742 768.245 350.520 794.525 483.130 987.419 657.861 638.391 872.975 1114.341 452.082 519.910 1656.044 1354.081 843.477 1022.906 551.967 1176.803 362.911 730.092 801.719
1539.489 2776.501 1582.767 1531.330 1729.625 1427.148 1324.840 2270.104 1151.656 2497.047 1907.261 1464.773 1344.488 1125.784 1388.511 1320.827 1500.185 3076.377 1129.556 1348.379 1304.454 1408.965 1733.693 1429.437 1239.052 1408.267 1203.221 1350.676 507.237 1682.093 1337.064 1475.379 1511.491 1460.996 1216.554 1377.633 1085.508 1839.201 1262.732 0.000 1552.263 1426.127 1326.041 2462.870 1371.226 1417.000 1286.294 2312.652 1257.430 1845.279 1422.980 1399.525 1578.814 1693.539 1262.209 1069.077 2181.479 1411.610 1175.487 1415.809 1513.583 1674.973 2084.886 958.175 1318.788 2992.340 1383.525 1495.583 1504.108 1216.472 1527.706 1422.210 1661.407 1363.268 3133.563 1418.938 1209.350 1311.643 1442.230 1100.209 1559.964 1710.418 1103.929 1331.910 1419.776 1862.089 1516.472 1085.886 928.709 1334.365 1595.513 1538.179 1187.222 1234.438 2589.041 1480.444 1413.149 1302.686 1429.695 2244.367 1432.167 1426.065 1497.693
1598.490 1917.101 436.631 684.549 1680.632 508.831 363.037 1685.627 809.645 2705.182 509.164 525.232 444.502 579.630 399.517 328.049 1616.733 2147.633 587.013 355.601 459.637 344.381 1684.700 510.762 868.234 481.279 1326.718 588.660 1991.732 1633.100 473.625 371.686 958.216 294.296 402.607 371.743 649.808 372.831 732.494 1608.653 0.000 269.321 355.608 2671.005 588.979 502.288 414.527 852.536 401.725 530.011 589.395 404.085 1529.821 277.276 484.018 811.929 1185.895 369.497 590.303 489.737 960.308 666.475 2293.021 693.058 418.803 1646.128 499.352 1660.500 950.833 548.146 711.263 1011.766 320.478 1226.511 2204.820 523.063 398.349 649.620 547.607 617.092 281.382 1784.064 727.301 525.742 419.371 901.129 320.335 1209.383 693.459 321.331 420.098 691.398 837.479 378.732 1239.432 1619.979 477.330 898.684 987.148 1380.022 423.406 317.779 333.483
1406.487 1894.242 414.379 645.296 1488.629 287.482 150.713 1662.768 666.869 2562.406 675.562 485.835 307.411 387.627 344.653 115.725 1424.730 2108.381 395.010 143.277 267.634 123.032 1492.697 289.413 676.230 259.930 1134.714 486.796 1799.729 1441.097 307.283 334.397 847.214 257.007 210.604 280.539 457.804 527.446 630.630 1416.650 216.476 0.000 220.095 2528.229 474.331 462.890 253.375 1000.897 209.721 559.258 516.045 355.667 1337.818 444.167 298.077 683.862 1213.483 148.148 398.299 450.339 849.306 627.222 2150.245 501.054 281.712 1675.375 408.737 1468.497 839.831 356.142 672.010 900.764 429.707 1105.685 2165.568 483.666 206.345 428.272 508.210 425.089 328.264 1592.061 535.298 411.094 372.169 878.902 181.746 1017.380 501.456 206.738 369.391 652.145 645.475 186.729 1357.342 1427.975 437.932 706.680 876.146 1357.164 376.205 280.490 324.669
1328.951 1982.246 554.299 532.329 1411.093 317.740 133.885 1750.772 652.618 2548.155 647.123 316.217 154.995 310.091 190.645 125.275 1347.194 2008.768 317.474 152.827 197.265 213.412 1415.161 319.671 605.861 290.189 1057.179 517.055 1722.193 1363.561 184.117 198.387 877.473 169.145 140.234 110.921 380.269 579.349 634.450 1339.114 292.124 230.575 0.000 2513.978 321.914 293.272 125.019 1059.055 139.352 634.907 363.629 195.069 1260.282 433.401 194.510 669.610 1113.870 250.974 320.764 280.721 879.565 527.609 2135.994 423.519 129.295 1751.024 256.321 1390.961 870.090 285.773 558.781 931.022 401.268 1017.495 2065.954 314.048 135.976 414.020 338.592 347.553 299.826 1514.525 457.762 258.677 402.428 987.968 334.527 939.844 423.920 42.513 313.928 539.179 571.779 116.360 1328.903 1350.440 268.314 636.311 906.404 1445.167 406.464 144.480 216.108
3241.283 1512.878 2448.341 3001.474 3357.399 2292.721 2490.705 993.161 2000.671 114.759 2942.543 2785.361 2566.826 2513.364 2610.850 2486.692 3259.526 4477.912 2540.718 2514.244 2431.371 2498.556 3361.467 2295.010 2853.253 2311.370 3013.445 2216.249 2844.117 3309.867 2559.403 2677.097 2038.277 2649.979 2442.470 2580.065 2634.230 2520.323 2128.306 2461.038 2522.214 2525.443 2519.622 0.000 2723.532 2762.417 2508.633 3021.481 2398.349 2413.551 2767.179 2621.864 3206.588 2766.961 2546.574 2223.951 3525.139 2412.074 2626.973 2749.866 2040.370 2996.753 721.055 2596.017 2541.127 3015.922 2668.152 3324.619 2030.895 2588.009 3019.381 1948.997 2810.163 2991.042 4535.099 2771.245 2438.212 2160.658 2807.736 2655.922 2725.829 3426.857 2711.723 2662.227 2285.350 1914.830 2417.959 2896.110 2566.552 2532.372 2766.956 3008.323 2360.773 2413.892 3487.194 3262.772 2737.459 2916.887 1963.644 1745.000 2297.740 2624.073 2695.701
1303.696 2166.071 802.982 392.739 1396.000 501.566 374.070 1934.597 836.443 2731.980 638.239 177.820 211.768 356.022 223.906 370.057 1321.939 1869.177 363.404 397.609 381.090 458.195 1400.068 503.496 464.062 474.014 1088.414 700.880 1753.428 1348.468 215.992 265.461 1061.298 337.761 258.178 270.525 407.870 768.239 818.276 1370.349 520.791 469.880 323.979 2697.803 0.000 130.046 236.029 1238.441 323.177 883.590 105.828 208.568 1245.189 539.864 218.985 776.642 974.280 477.357 333.916 136.035 1063.390 388.019 2319.819 454.754 231.624 1999.707 180.029 1387.032 1053.915 217.544 419.453 1114.848 474.286 768.047 1926.364 140.940 275.097 597.846 200.195 317.641 423.477 1489.270 432.071 51.163 586.253 1232.751 579.786 971.079 455.155 330.431 401.145 399.589 617.709 300.185 1326.561 1325.185 126.195 498.499 1090.230 1628.993 590.289 235.766 307.394
1323.985 2194.858 723.152 324.677 1403.453 531.518 355.897 1963.384 866.395 2761.932 570.177 108.564 238.110 397.427 144.076 347.286 1342.228 1801.115 404.810 374.838 411.042 417.853 1407.521 533.449 471.515 503.966 1108.703 730.833 1773.717 1355.921 270.030 185.630 1091.250 257.930 331.304 190.694 428.159 688.409 848.228 1390.639 440.960 390.050 244.148 2727.756 143.600 0.000 219.191 1158.611 353.130 803.759 143.206 128.738 1252.642 471.802 277.625 818.048 906.218 442.968 354.521 27.149 1093.343 319.956 2349.771 475.043 196.211 1919.877 241.973 1407.321 1083.868 238.149 351.128 1144.800 406.223 775.500 1858.302 60.475 327.046 627.798 130.939 338.246 343.646 1509.559 452.360 131.871 616.206 1174.878 503.380 991.368 475.444 250.600 321.315 331.526 659.114 330.138 1258.499 1345.474 46.365 505.951 1120.182 1657.780 620.241 155.936 227.563
1267.889 1976.832 629.041 500.846 1350.031 312.327 166.983 1745.358 647.204 2542.741 639.368 284.733 58.194 249.030 102.217 158.372 1286.132 1977.284 256.412 185.924 191.851 246.510 1354.099 314.257 535.277 284.775 996.117 511.641 1661.131 1302.499 78.151 189.085 872.059 224.751 112.113 91.339 319.207 655.229 629.037 1278.052 375.701 263.673 115.550 2508.564 225.113 261.789 0.000 1134.935 133.938 718.484 266.827 113.231 1199.220 462.228 97.709 664.196 1082.386 284.071 259.702 249.238 874.151 496.125 2130.580 362.457 32.494 1834.601 159.519 1329.899 864.676 214.434 527.297 925.609 439.508 949.357 2034.471 282.564 107.854 408.606 307.108 286.491 328.653 1453.463 396.700 161.876 397.014 1021.066 368.101 878.782 362.858 123.874 310.391 507.695 510.717 110.946 1321.148 1289.378 236.831 565.727 900.991 1439.754 401.050 140.943 212.570
2348.020 2280.289 928.516 1198.732 2430.162 1216.562 1112.568 2048.815 1369.301 3076.466 893.465 1193.688 1171.202 1329.161 1098.875 1077.579 2366.264 2484.856 1336.544 1105.131 1209.167 1093.912 2434.230 1218.851 1587.211 1230.809 2076.248 1148.316 2740.782 2382.631 1200.324 1048.044 1517.872 1020.996 1152.137 1093.881 1399.338 731.756 1292.149 2357.703 886.085 1018.851 1082.308 3042.289 1288.337 1207.889 1141.227 0.000 1151.255 1015.760 1294.997 1109.686 2279.352 790.424 1210.718 1371.584 1476.060 1119.027 1339.833 1195.339 1519.964 1180.658 2852.676 1442.588 1133.562 1911.581 1198.711 2410.030 1510.489 1297.676 1225.446 1571.421 834.661 1879.284 2542.043 1228.665 1147.879 1323.000 1190.606 1366.622 822.156 2533.595 1476.832 1225.100 1185.062 1380.242 1069.866 1958.913 1442.989 1062.662 972.704 1205.581 1508.407 1128.263 757.889 2369.509 1182.931 1621.648 1546.803 1869.206 1189.098 1005.473 943.800
1284.399 1870.457 595.661 639.774 1366.542 205.952 129.006 1638.983 540.829 2436.366 711.427 423.662 205.127 265.540 249.150 124.993 1302.643 2116.213 272.923 152.545 70.332 213.131 1370.610 207.883 536.606 178.400 1012.627 405.266 1677.641 1319.010 197.704 315.398 765.684 288.279 72.141 218.366 335.717 647.196 522.662 1294.563 356.429 230.294 157.922 2402.189 353.204 398.978 146.933 1126.902 0.000 699.211 396.850 260.165 1215.731 497.705 176.245 557.822 1221.315 181.743 276.212 388.166 767.776 635.054 2024.205 378.967 179.427 1815.328 306.453 1346.409 758.301 216.518 649.052 819.234 465.573 966.060 2173.399 400.916 67.883 302.232 446.037 297.637 364.130 1469.974 413.211 291.899 290.639 939.570 286.605 895.292 379.369 170.673 405.257 646.624 505.851 45.217 1393.207 1305.888 375.759 567.056 794.616 1333.379 294.675 262.374 334.001
1896.206 1650.693 359.123 1045.907 1978.348 728.193 660.754 1419.219 880.931 2446.870 766.337 888.554 770.369 877.347 762.838 625.765 1914.450 2357.729 884.730 653.317 757.353 642.098 1982.416 730.482 1165.950 747.305 1624.434 659.947 2252.412 1930.817 775.430 735.008 976.604 657.617 700.323 729.451 947.524 344.117 803.780 1869.334 434.687 567.037 658.942 2412.693 937.288 865.609 716.332 972.905 699.441 0.000 952.717 767.406 1827.538 649.314 787.797 883.215 1348.933 667.213 888.019 853.059 978.696 1027.833 2364.307 990.774 744.669 1341.812 862.674 1958.216 969.221 845.862 1072.621 1066.315 692.516 1589.833 2414.916 886.385 696.065 834.631 910.929 914.808 653.420 2081.781 1025.018 874.051 720.821 647.383 618.052 1507.099 991.175 619.047 770.002 1052.756 1020.037 676.449 1383.860 1917.695 840.651 1196.400 1041.697 1138.427 733.212 681.101 698.099
1316.333 2169.827 841.242 430.999 1417.004 505.322 377.826 1938.353 840.199 2735.736 676.499 216.080 215.524 359.778 234.777 373.813 1334.577 1907.438 367.160 401.365 384.846 461.951 1421.072 507.253 513.368 477.770 1101.051 704.636 1766.065 1369.472 219.748 303.721 1065.054 376.021 261.934 298.725 420.508 806.499 822.032 1382.987 559.051 479.114 341.479 2701.559 93.109 168.306 239.785 1276.702 326.934 921.850 0.000 211.551 1266.193 578.125 222.741 780.399 1012.540 481.113 337.673 174.295 1067.146 426.279 2323.575 467.391 235.380 2037.968 183.786 1399.669 1057.671 221.300 457.713 1118.604 512.546 817.353 1964.624 181.192 278.853 601.602 238.455 321.397 461.737 1501.907 444.708 54.919 590.009 1236.507 583.542 983.716 467.793 349.803 439.405 437.849 621.465 303.941 1364.821 1337.822 164.455 547.805 1093.986 1632.749 594.045 274.026 345.654
1365.766 2083.865 677.284 409.113 1457.064 419.360 254.175 1852.391 754.237 2649.774 558.137 193.000 125.952 356.063 33.787 245.564 1384.009 1885.551 363.446 273.116 298.884 333.702 1461.132 421.291 590.293 391.808 1103.150 618.674 1768.164 1409.533 157.871 108.194 979.092 212.063 219.146 106.516 426.240 642.542 736.070 1385.085 395.093 344.183 165.419 2615.597 222.488 170.056 107.033 1112.744 240.972 757.892 257.163 0.000 1306.254 423.857 165.467 771.230 990.653 371.264 366.735 157.505 981.184 404.392 2237.613 469.490 81.354 1874.010 127.893 1436.932 971.709 282.192 435.564 1032.642 358.278 894.279 1942.738 190.831 214.888 515.640 215.375 364.066 297.779 1551.340 494.141 159.251 504.047 1108.258 455.293 985.815 469.891 171.871 243.539 415.962 617.750 217.979 1239.917 1387.255 145.097 624.730 1008.024 1546.787 508.083 110.069 181.696
281.068 2794.612 1595.934 1253.074 197.828 1387.385 1276.406 2563.138 1314.384 3209.921 1691.457 1272.799 1296.054 1077.350 1340.077 1272.393 299.312 2245.218 1081.122 1299.945 1256.020 1360.531 238.450 1389.316 1009.090 1359.833 770.507 1363.842 1247.033 205.383 1288.631 1426.945 1704.396 1412.563 1168.121 1329.200 1014.136 1794.596 1275.899 1548.354 1503.829 1377.694 1277.607 3175.745 1266.622 1306.461 1237.860 2274.302 1208.997 1846.611 1315.172 1351.091 0.000 1645.105 1208.221 1082.243 1778.102 1363.176 1123.659 1266.589 1706.489 1474.817 2797.760 956.429 1270.354 2962.729 1284.019 364.405 1697.013 1132.765 1249.449 1754.487 1607.637 746.898 2243.750 1222.118 1160.916 1328.569 1239.534 1026.750 1511.530 420.116 1008.620 1232.404 1432.942 1875.255 1468.038 697.405 950.830 1285.931 1547.080 1259.923 1197.888 1186.004 2379.779 302.557 1305.342 969.085 1731.515 2257.533 1445.333 1377.632 1449.259
1725.487 2094.155 581.708 508.238 1807.629 686.100 519.538 1862.681 1001.817 2890.332 262.020 503.194 515.228 706.627 438.900 505.318 1743.730 1947.547 714.010 531.717 586.634 521.650 1811.697 688.030 896.718 658.548 1453.714 780.832 2118.729 1760.097 547.148 357.551 1150.388 386.987 529.604 433.905 776.805 500.538 924.665 1735.650 313.313 440.073 478.495 2856.155 628.362 542.840 496.310 792.722 528.721 668.952 629.948 443.872 1656.818 0.000 554.744 1004.100 938.751 546.766 717.299 528.704 1152.480 490.164 2485.193 820.054 473.587 1785.274 538.735 1787.497 1143.005 671.469 534.952 1203.937 102.349 1188.790 2004.734 562.030 525.345 803.389 500.113 744.089 165.271 1911.061 854.298 565.125 611.542 1033.434 491.087 1336.380 820.456 448.328 282.210 515.088 964.475 505.729 992.287 1746.975 517.882 931.155 1179.319 1524.478 615.578 345.498 283.824
1270.739 1986.278 649.250 600.049 1352.881 321.773 182.594 1754.804 656.650 2552.187 738.571 383.936 157.397 251.879 201.420 178.581 1288.982 2076.487 259.262 206.133 201.297 266.719 1356.949 323.704 523.804 294.221 998.966 521.087 1663.981 1305.349 149.973 288.288 881.505 274.074 121.559 190.542 322.057 684.278 638.483 1280.902 399.270 283.882 139.119 2518.010 312.607 358.381 99.203 1163.984 143.385 742.053 356.254 212.434 1202.070 540.547 0.000 672.500 1181.589 297.564 262.551 348.441 883.597 595.328 2140.026 365.306 131.697 1858.170 258.722 1332.749 874.122 202.960 608.456 935.055 508.414 952.202 2133.674 360.320 117.301 418.053 406.311 284.834 406.971 1456.313 399.550 251.302 406.460 1041.275 388.310 881.632 365.708 147.442 408.591 606.898 513.567 120.392 1420.351 1292.228 336.034 554.254 910.437 1449.200 410.496 239.143 310.771
1116.992 1824.447 625.769 1011.249 1233.108 470.150 688.452 1592.973 344.220 2239.757 1149.087 873.447 711.417 464.149 755.441 684.439 1135.236 2560.222 487.318 711.991 629.118 696.302 1237.176 472.438 706.855 489.261 889.154 393.677 1468.858 1185.577 703.994 842.309 734.231 827.926 583.484 744.563 548.477 882.203 305.734 1085.779 699.642 723.190 692.971 2205.580 779.900 825.674 653.224 1355.654 596.096 888.280 823.546 766.455 1082.298 944.389 629.139 0.000 1665.325 609.821 577.758 824.483 736.324 1083.647 1827.596 471.727 685.718 2035.342 770.210 1200.329 726.849 613.905 1007.624 784.322 987.591 866.751 2617.409 827.613 576.280 358.404 895.823 580.127 923.576 1302.567 583.847 718.595 462.778 905.090 595.388 771.820 442.261 701.294 962.443 1018.098 194.140 601.368 1766.609 1138.481 821.823 770.489 761.350 1287.369 475.168 792.995 864.623
1942.977 2829.148 1316.701 715.760 1871.874 1439.802 1255.947 2597.674 1757.485 3625.325 806.304 932.256 1152.719 1307.326 1058.685 1247.336 1961.221 1469.093 1314.709 1274.888 1319.326 1275.578 1875.942 1441.733 1185.197 1412.251 1767.476 1536.500 2519.813 1824.342 1184.638 975.178 1906.056 1123.690 1239.891 1090.745 1218.816 1242.358 1680.334 2136.734 1251.498 1247.775 1144.199 3591.148 1048.679 961.176 1133.800 1529.631 1261.414 1403.945 1048.284 1043.346 1721.063 966.171 1192.234 1670.623 0.000 1300.693 1259.384 945.581 1908.148 680.494 3240.861 1265.699 1110.820 2520.267 1147.051 2026.313 1898.673 1148.048 717.091 1959.606 1012.337 1240.012 1526.279 978.907 1235.632 1536.082 929.175 1191.459 1055.024 2090.329 1243.016 1036.949 1524.490 1768.427 1356.472 1650.141 1266.101 1134.419 1030.625 668.728 1518.348 1238.422 1494.626 1964.466 960.973 1219.633 1934.988 2259.471 1528.526 1003.620 1046.306
1412.369 1785.773 491.894 703.410 1494.511 171.833 160.382 1554.299 551.220 2446.757 733.676 498.105 319.682 364.728 356.924 155.139 1430.613 2166.495 392.083 157.618 205.839 122.482 1498.579 173.764 682.113 144.281 1140.597 371.148 1805.611 1446.979 313.166 389.841 731.565 315.121 216.486 292.809 463.687 620.224 514.981 1422.532 309.253 149.369 232.366 2412.580 481.173 475.161 262.396 1093.675 172.817 652.035 524.820 367.938 1343.700 519.954 303.959 568.213 1271.598 0.000 404.182 462.610 733.658 685.336 2034.596 506.937 293.982 1768.153 421.008 1474.379 724.183 362.025 730.124 785.115 487.821 1111.567 2223.682 495.936 212.228 312.623 520.480 430.971 386.378 1597.943 541.181 419.868 256.521 770.877 117.912 1023.262 507.338 245.116 427.505 710.260 544.661 188.359 1415.456 1433.858 450.203 712.563 760.497 1248.694 260.557 336.817 382.783
1103.524 2059.886 751.057 576.753 1222.671 395.380 284.401 1828.412 730.257 2625.794 863.652 403.232 305.141 162.992 349.164 280.388 1121.767 2094.590 170.375 307.940 264.016 368.526 1226.739 397.311 393.669 367.828 888.109 594.694 1553.123 1175.139 297.718 436.032 955.112 421.650 176.116 338.287 153.212 802.592 712.090 1170.044 511.824 385.689 286.694 2591.617 309.684 355.459 246.947 1282.298 216.992 854.606 361.438 360.178 1071.860 653.100 201.108 583.613 1199.692 371.171 0.000 354.267 957.205 613.431 2213.633 254.449 279.441 1970.724 308.598 1186.860 947.729 133.265 573.128 1008.662 620.968 823.123 2151.777 357.397 168.911 491.660 425.607 90.152 519.525 1289.098 231.899 256.982 480.068 1128.998 476.033 770.774 254.850 295.018 556.167 583.602 424.680 193.999 1548.603 1125.013 351.607 424.119 984.044 1522.807 484.103 386.719 458.346
1299.607 2220.944 763.023 364.548 1379.075 556.438 395.768 1989.470 891.315 2786.852 610.048 132.045 277.981 373.049 183.947 387.157 1317.851 1840.987 380.432 414.709 434.932 457.725 1383.143 558.369 447.137 528.886 1084.325 755.753 1749.340 1331.543 300.281 225.502 1116.170 297.802 313.050 230.566 403.782 728.280 873.148 1366.261 480.832 429.921 284.019 2752.676 147.181 39.871 259.063 1198.482 378.050 843.631 146.787 168.609 1228.264 511.673 273.857 793.670 946.089 482.840 330.143 0.000 1118.263 359.828 2374.691 450.665 236.083 1959.748 237.176 1382.943 1108.788 213.771 360.754 1169.720 446.095 751.122 1898.173 64.763 329.969 652.718 143.540 313.868 383.518 1485.182 427.982 135.452 641.126 1214.749 543.251 966.990 451.067 290.472 361.186 371.398 634.737 355.058 1298.370 1321.096 86.236 481.574 1145.102 1683.865 645.161 195.807 267.435
1758.814 1385.915 731.733 1351.864 1874.930 573.282 827.889 1154.441 739.199 2106.607 1255.051 1135.752 917.217 940.652 961.240 823.876 1777.058 2828.302 968.006 842.943 781.762 807.806 1878.998 575.571 1258.487 592.393 1530.976 518.214 1924.709 1827.399 909.794 1027.488 75.993 1000.369 792.860 930.456 1056.436 988.168 648.543 1541.630 802.775 833.390 870.012 2072.431 1073.923 1112.807 859.023 1461.619 748.740 924.787 1117.569 972.254 1724.119 1047.522 896.964 741.482 1837.647 721.325 996.931 1100.256 0.000 1347.144 1708.699 1099.686 891.517 2036.560 1018.543 1842.151 68.610 938.399 1369.771 264.025 1090.724 1508.573 2885.489 1121.635 788.602 692.898 1158.127 1019.518 1051.628 1944.389 1133.930 1012.618 565.910 648.415 698.520 1413.642 1084.083 882.763 1112.830 1358.714 878.305 764.282 1872.574 1780.303 1087.849 1288.937 239.407 848.836 578.301 974.464 1046.091
1679.558 2498.257 1030.548 370.666 1652.680 885.477 701.621 2266.783 1220.354 3115.891 533.748 377.930 598.393 753.001 504.359 693.011 1697.802 1605.781 760.383 720.563 765.001 721.252 1656.748 887.407 767.402 857.925 1464.276 1084.791 2129.291 1605.148 630.313 420.852 1445.209 569.364 685.565 536.419 783.733 965.739 1202.187 1746.212 728.083 693.449 589.873 3081.714 494.353 406.851 579.474 1257.075 707.088 1111.156 493.958 489.020 1501.869 556.438 637.908 1173.621 710.883 746.368 710.095 391.255 1447.301 0.000 2703.730 830.616 556.494 2227.273 592.726 1762.895 1437.826 593.722 397.379 1498.758 490.860 1020.819 1662.967 424.581 681.307 981.756 374.849 693.820 500.698 1865.133 807.933 482.623 970.164 1482.274 802.146 1346.942 831.018 580.093 476.299 377.515 1014.688 684.096 1222.070 1701.047 406.647 801.839 1474.140 1961.179 974.200 449.294 491.980
2914.453 1948.914 2121.511 2674.644 3030.569 1965.892 2163.875 1442.517 1673.841 830.103 2644.829 2458.531 2239.996 2186.534 2284.020 2159.862 2932.697 4151.082 2213.888 2187.414 2104.541 2171.726 3034.637 1968.180 2526.423 1984.540 2686.615 1889.419 2517.287 2983.037 2232.573 2350.267 1714.464 2323.149 2115.640 2253.235 2307.400 2377.945 1801.476 2123.599 2195.384 2198.613 2192.792 719.710 2396.702 2435.587 2181.803 2851.396 2071.519 2384.022 2440.349 2295.034 2879.758 2440.131 2219.744 1897.121 3227.424 2085.244 2300.143 2423.036 1716.556 2669.923 0.000 2269.187 2214.297 3451.959 2341.322 2997.789 1707.081 2261.179 2692.551 1625.184 2483.333 2664.212 4208.269 2444.415 2111.382 1833.828 2480.906 2329.092 2398.999 3100.027 2384.893 2335.397 1958.520 2268.901 2091.129 2569.280 2239.722 2205.542 2440.126 2681.493 2033.943 2087.062 3262.351 2935.942 2410.629 2590.057 1639.830 2172.625 1970.910 2297.243 2368.871
989.874 2186.616 877.787 617.642 1105.990 522.110 411.132 1955.142 734.405 2629.942 993.553 551.085 430.779 212.076 474.803 407.119 1008.118 2166.616 215.848 434.671 390.746 495.257 1110.058 524.041 325.364 494.559 677.044 721.425 1342.059 1058.458 423.356 561.671 1081.842 547.288 302.846 463.925 171.799 929.322 695.919 958.980 638.554 512.419 412.333 2595.765 457.538 503.312 372.586 1409.028 343.722 981.337 509.292 485.817 955.179 779.831 348.501 502.264 1271.718 497.901 261.779 502.121 1083.935 761.285 2217.781 0.000 405.079 2097.454 469.837 1010.826 1074.460 302.785 614.018 1135.392 747.698 739.633 2223.803 505.251 295.641 586.148 528.543 186.521 646.256 1175.449 190.241 418.222 606.798 1255.728 602.763 559.709 43.786 420.656 681.805 624.491 364.517 320.730 1675.333 995.688 499.461 388.999 1110.774 1649.537 610.834 512.357 583.985
1284.412 2002.511 654.720 498.382 1375.710 338.006 192.662 1771.037 672.883 2568.420 636.904 282.270 44.598 274.709 99.753 184.051 1302.655 1974.820 282.091 211.603 217.530 272.189 1379.778 339.937 521.681 310.454 1021.796 537.320 1686.810 1328.178 76.517 186.621 897.738 224.382 137.792 90.970 344.886 654.860 654.716 1303.731 401.381 289.352 141.229 2534.243 207.179 259.325 25.679 1134.566 159.618 744.163 248.894 110.768 1224.899 459.765 84.113 689.876 1079.923 309.751 285.381 246.774 899.830 493.662 2156.259 388.136 0.000 1860.280 141.586 1355.578 890.355 200.838 524.834 951.288 437.045 931.423 2032.007 280.101 133.534 434.286 304.645 282.712 326.190 1469.986 412.787 143.942 422.693 1046.745 393.780 904.461 388.537 149.553 307.927 505.231 536.396 136.625 1318.684 1305.901 234.367 552.131 926.670 1465.433 426.729 138.479 210.107
3016.224 2329.749 1618.589 2165.925 3098.366 1906.636 1780.771 2098.275 2059.374 3125.925 1886.355 2008.572 1890.387 1997.365 1882.856 1745.783 3034.468 3477.747 2004.747 1773.335 1877.371 1762.116 3102.434 1908.925 2285.968 1899.013 2744.452 1838.389 3409.466 3050.834 1895.448 1855.025 2043.919 1777.635 1820.341 1849.469 2067.542 1463.172 1982.223 3026.387 1554.705 1687.055 1778.960 3091.749 2057.306 1985.627 1836.350 1921.172 1819.459 1357.363 2072.735 1887.424 2947.555 1769.332 1907.814 2061.657 2468.951 1787.231 2008.037 1973.076 2046.011 2147.851 3482.658 2110.792 1864.687 0.000 1982.692 3078.234 2036.536 1965.880 2192.638 2182.729 1812.534 2709.850 3534.933 2006.403 1816.083 2013.074 2030.947 2034.826 1773.438 3201.798 2145.036 1994.069 1853.682 1707.584 1738.069 2627.117 2111.193 1739.065 1890.020 2172.774 2198.480 1796.466 2436.405 3037.713 1960.669 2316.418 2158.111 1800.605 1857.718 1801.119 1818.117
1329.889 2121.458 784.430 525.863 1430.560 456.953 317.774 1889.984 791.830 2687.367 698.451 310.943 148.344 373.334 163.540 313.761 1348.133 2002.301 380.717 341.313 336.477 401.899 1434.628 458.884 544.291 429.401 1114.607 656.267 1779.622 1383.028 152.567 248.508 1016.685 345.464 256.739 227.488 434.064 775.942 773.663 1396.543 528.494 419.062 274.299 2653.190 144.783 263.170 172.605 1243.442 278.565 877.233 186.498 140.314 1279.749 562.052 160.163 793.955 1107.404 432.744 351.229 269.158 1018.777 521.142 2275.206 480.947 168.200 1993.350 0.000 1413.225 1009.302 234.856 525.281 1070.235 498.592 869.027 2059.488 274.063 252.481 553.233 333.318 334.954 428.477 1515.464 458.264 81.546 541.640 1176.455 523.490 997.273 481.349 282.623 383.853 532.712 635.021 255.572 1380.231 1351.378 243.795 574.741 1045.617 1584.380 545.676 240.766 312.394
125.675 2820.274 1621.596 1481.001 664.120 1436.354 1325.376 2588.800 1340.047 3235.584 1877.884 1417.464 1345.023 1126.320 1389.046 1321.363 134.116 2633.865 1130.092 1348.915 1304.990 1409.501 678.978 1438.285 1120.218 1408.803 519.956 1389.505 992.724 645.911 1337.600 1475.915 1730.059 1461.532 1217.090 1378.169 1024.582 1843.566 1301.561 1489.137 1552.798 1426.663 1326.577 3201.407 1323.917 1369.691 1286.830 2323.272 1257.966 1884.108 1375.671 1400.061 471.615 1694.075 1229.756 1107.906 2027.609 1412.145 1134.105 1368.500 1732.151 1627.664 2823.423 1005.958 1319.323 3011.698 1336.216 0.000 1722.676 1161.913 1477.377 1780.149 1661.942 1135.544 2632.396 1371.629 1209.885 1354.232 1391.901 1037.196 1560.499 327.896 1019.066 1284.601 1458.605 1900.918 1517.007 516.075 976.492 1334.900 1596.049 1487.850 1235.004 1234.974 2566.206 137.361 1365.840 1183.853 1757.178 2283.196 1470.996 1426.601 1498.229
1728.078 1410.901 700.997 1321.128 1844.194 542.546 797.153 1179.427 708.462 2107.367 1224.315 1105.015 886.480 909.915 930.504 793.140 1746.322 2797.566 937.270 812.206 751.025 777.070 1848.262 544.835 1227.751 561.657 1500.240 487.478 1925.469 1796.662 879.057 996.752 7.383 969.633 762.124 899.720 1025.700 957.431 617.806 1542.390 772.038 802.653 839.276 2073.191 1043.186 1082.071 828.287 1430.882 718.003 918.923 1086.833 941.518 1693.383 1016.785 866.228 710.746 1806.910 690.588 966.195 1069.520 136.002 1316.407 1709.459 1068.950 860.781 2061.546 987.806 1811.414 0.000 907.663 1339.035 256.166 1059.987 1477.837 2854.753 1090.899 757.866 662.162 1127.390 988.781 1020.892 1913.652 1103.194 981.881 535.174 673.401 667.784 1382.905 1053.347 852.027 1082.094 1327.977 847.568 733.546 1841.837 1749.567 1057.113 1258.201 231.548 873.822 547.565 943.727 1015.355
1129.673 2044.907 736.078 506.430 1248.820 380.401 269.423 1813.433 715.278 2610.815 760.924 300.505 237.609 187.154 282.830 265.410 1147.916 1991.862 194.537 292.962 249.037 353.548 1252.888 382.332 366.943 352.850 914.391 579.716 1579.405 1201.288 241.833 377.502 940.133 384.069 161.137 300.252 233.847 787.613 697.111 1196.327 496.845 370.710 249.113 2576.639 206.957 252.731 208.913 1267.319 202.013 839.628 258.711 275.573 1098.009 638.122 124.101 607.775 1096.965 356.192 144.248 251.540 942.226 510.704 2198.654 280.731 241.407 1955.745 205.871 1213.009 932.751 0.000 502.806 993.683 596.971 782.253 2049.049 254.670 153.932 476.681 322.880 127.973 504.546 1315.247 258.048 154.255 465.089 1114.019 461.054 797.056 281.133 257.437 507.011 513.279 448.841 179.021 1449.246 1151.162 248.880 397.392 969.065 1507.828 469.125 337.563 409.191
1456.280 2472.011 1004.302 53.653 1385.177 817.389 641.767 2240.537 1152.266 3047.803 608.233 265.902 523.980 648.646 429.947 633.156 1474.524 1602.626 656.029 660.708 696.913 695.006 1389.245 819.319 538.208 789.837 1252.371 1016.703 1917.385 1337.645 555.900 418.643 1377.121 543.801 588.647 476.565 571.827 939.492 1134.099 1534.306 701.837 667.203 530.019 3013.626 419.940 332.438 505.062 1232.676 639.000 1084.910 419.546 414.608 1234.366 530.192 549.454 1030.293 707.729 720.121 605.740 316.843 1379.213 358.012 2635.642 618.711 482.082 2201.027 518.313 1539.617 1369.738 489.367 0.000 1430.671 464.613 753.315 1659.813 288.825 605.566 913.669 239.893 544.470 474.452 1603.632 596.027 408.211 902.076 1456.028 775.900 1135.036 619.112 536.471 450.052 60.502 871.359 616.008 1296.555 1477.769 332.235 572.645 1406.053 1934.933 906.112 441.806 465.734
1848.700 1562.877 821.548 1441.750 1964.816 663.168 917.775 1299.302 624.085 1985.000 1344.866 1225.638 1007.103 1030.537 1051.126 913.762 1866.944 2918.188 1057.892 932.828 871.648 897.692 1968.884 665.457 1348.373 682.279 1620.862 608.100 1803.102 1917.284 999.679 1117.374 241.290 1090.255 882.746 1020.342 1146.322 1077.982 573.715 1420.023 892.660 923.276 959.898 1950.823 1163.808 1202.693 948.909 1551.433 838.626 1039.545 1207.455 1062.140 1814.005 1137.407 986.850 831.368 1927.461 811.211 1086.817 1190.142 243.382 1437.030 1587.091 1189.572 981.403 2213.522 1108.428 1932.036 233.907 1028.285 1459.657 0.000 1180.609 1598.459 2975.375 1211.521 878.488 782.784 1248.013 1109.403 1141.514 2034.275 1223.816 1102.503 655.796 825.377 788.406 1503.527 1173.969 972.649 1202.716 1448.599 968.190 854.168 1962.388 1870.189 1177.735 1378.823 36.992 1025.798 668.187 1064.350 1135.977
1659.417 2136.395 623.948 434.349 1741.560 629.651 453.469 1904.921 975.917 2871.454 321.928 429.305 463.366 640.558 385.321 448.869 1677.661 1897.433 647.941 465.647 520.564 465.201 1745.627 631.581 822.828 602.099 1387.645 823.072 2052.659 1694.028 495.286 283.661 1189.383 320.918 463.534 382.043 710.735 542.779 957.750 1669.581 355.553 437.398 412.426 2837.278 556.453 468.951 444.448 835.963 462.652 711.192 556.058 369.982 1590.749 109.584 502.882 992.910 998.659 490.316 651.230 454.814 1191.475 416.275 2459.293 753.985 421.725 1827.515 486.873 1721.427 1182.000 609.073 461.063 1242.932 0.000 1114.901 1954.620 488.141 459.276 737.320 426.223 678.019 152.570 1844.992 788.229 513.263 653.783 1075.674 533.327 1270.310 754.386 382.258 208.321 441.198 898.406 439.660 1046.445 1680.906 443.992 857.265 1218.314 1566.718 657.818 293.635 231.962
1001.460 2565.310 1366.632 746.855 922.053 1131.162 1020.183 2333.836 1085.083 2980.620 1185.238 766.580 942.416 861.923 896.834 1016.170 1019.704 2054.605 865.695 1043.722 999.797 1104.308 926.121 1133.093 658.303 1103.610 949.795 1134.541 1702.131 874.521 946.640 938.388 1475.095 1010.689 911.898 943.453 798.709 1441.167 1046.597 1319.053 1193.718 1121.471 996.906 2946.443 760.403 800.242 963.362 1869.481 952.774 1556.518 808.954 881.496 771.242 1166.997 878.550 852.942 1271.884 1106.953 846.441 760.371 1477.187 968.599 2568.459 741.001 948.537 2672.635 910.678 1084.797 1467.712 795.474 743.231 1525.185 1101.418 0.000 2053.137 715.900 904.693 1099.268 733.315 778.516 1096.405 1140.508 793.193 784.479 1203.641 1645.954 1211.815 832.460 721.528 1003.359 1074.073 753.704 980.040 929.781 1873.560 1022.949 799.123 535.378 1502.214 2028.232 1216.032 908.694 980.322
2377.001 3862.644 2350.197 1641.926 2297.593 2365.968 2182.113 3631.170 2700.845 4596.382 1839.800 1858.422 2078.885 2233.492 1984.851 2173.502 2395.244 148.190 2240.875 2201.054 2245.492 2201.744 2301.661 2367.899 2111.362 2338.416 2679.546 2565.283 3342.965 2250.061 2110.804 1901.344 2925.700 2049.856 2166.057 2016.911 2144.982 2275.854 2682.678 3048.804 2208.575 2173.941 2070.365 4562.206 1974.844 1887.342 2059.966 2563.127 2187.580 2437.441 1974.450 1969.512 2146.782 1999.667 2118.400 2582.693 1497.775 2226.859 2185.549 1871.747 2927.793 1606.660 4184.221 2191.865 2036.986 3553.763 2073.217 2460.337 2918.318 2074.214 1643.257 2979.250 1971.351 2032.700 0.000 1905.073 2161.798 2462.248 1855.340 2117.625 1981.190 2516.048 2169.182 1963.115 2450.656 2801.923 2282.638 2562.211 2192.267 2060.585 1956.791 1594.894 2444.514 2164.588 2528.122 2398.489 1887.139 2145.799 2954.632 3292.967 2454.692 1929.786 1972.472
1286.378 2207.715 803.262 373.316 1365.846 543.209 415.714 1976.241 878.087 2773.624 650.287 158.795 309.328 359.820 224.187 411.701 1304.622 1881.226 367.203 439.253 421.703 497.964 1369.914 545.140 433.908 515.658 1071.096 742.524 1736.111 1318.314 313.552 265.741 1102.942 338.041 299.821 270.805 390.553 768.519 859.919 1353.032 521.071 470.160 324.259 2739.447 133.070 117.692 299.302 1238.722 364.821 883.870 181.621 208.848 1215.035 551.913 260.629 780.441 986.328 519.000 316.915 79.978 1105.034 400.067 2361.463 437.436 276.322 1999.988 277.590 1369.714 1095.559 200.542 344.053 1156.491 486.334 737.894 1938.413 0.000 316.740 639.489 160.034 300.639 423.757 1471.953 414.753 157.146 627.897 1254.988 583.490 953.762 437.838 330.711 401.425 380.165 621.508 341.829 1338.609 1307.867 126.475 468.345 1131.873 1670.636 631.933 236.046 307.674
1228.826 1895.847 590.543 597.103 1310.968 231.342 123.887 1664.373 566.219 2461.756 706.309 389.159 166.268 209.967 210.291 119.874 1247.070 2081.710 217.350 147.426 110.866 208.012 1315.036 233.272 482.195 203.790 957.054 430.656 1622.068 1263.437 158.845 280.896 791.074 262.802 16.568 183.864 280.144 642.078 548.052 1238.989 351.310 225.175 127.847 2427.579 297.630 343.405 108.074 1121.784 52.953 694.092 341.277 221.305 1160.158 492.586 120.672 583.212 1186.813 207.133 220.639 342.213 793.166 600.551 2049.595 323.394 140.568 1810.210 267.594 1290.836 783.691 162.107 593.479 844.624 460.454 911.649 2138.897 345.343 0.000 327.622 411.534 243.225 359.011 1414.401 357.638 236.325 316.029 964.960 311.995 839.719 323.795 136.171 397.319 603.952 451.440 29.961 1388.089 1250.315 339.553 512.645 820.006 1358.769 320.065 227.871 299.499
1393.192 1859.413 660.735 947.687 1509.308 243.365 436.919 1627.939 358.867 2254.404 1019.340 731.575 513.040 463.838 557.063 432.906 1411.436 2424.126 491.193 460.458 377.585 444.769 1513.376 253.181 803.728 257.583 1165.354 269.266 1745.057 1461.776 505.617 623.311 769.197 596.193 388.684 526.279 584.705 902.891 340.700 1361.978 572.802 471.657 465.835 2220.227 669.746 708.630 454.846 1376.342 344.563 923.246 713.392 568.078 1358.497 805.618 492.788 375.860 1529.228 358.288 577.448 696.079 771.290 942.967 1842.243 622.161 487.340 2050.820 614.366 1476.528 761.815 534.222 965.594 819.288 773.486 1142.951 2481.312 717.458 384.425 0.000 753.950 606.396 672.043 1578.766 662.198 608.441 335.938 940.056 463.150 1048.019 598.028 478.586 713.170 954.537 379.128 360.105 1701.120 1414.681 683.672 867.362 796.316 1322.335 339.974 570.287 641.914
1365.845 2281.010 809.304 260.791 1360.334 617.670 442.048 2049.536 952.547 2848.084 554.932 71.446 324.262 461.590 230.228 433.438 1384.088 1787.288 468.973 460.990 497.194 504.005 1364.402 619.601 436.400 590.118 1150.563 816.984 1815.577 1312.802 356.182 271.782 1177.402 344.082 401.591 276.846 470.019 774.561 934.380 1432.498 527.112 476.202 330.300 2813.907 220.222 132.719 305.343 1183.675 439.282 889.911 219.827 214.889 1209.523 481.191 362.398 882.211 892.391 529.120 418.684 110.905 1179.495 306.130 2435.923 516.903 282.363 2006.029 318.595 1449.181 1170.019 302.311 255.430 1230.952 415.612 728.473 1844.475 109.597 413.198 713.950 0.000 402.409 425.450 1551.419 494.219 208.492 702.357 1261.030 589.532 1033.228 517.304 336.752 401.051 267.640 723.277 416.289 1243.254 1387.334 132.516 470.837 1206.334 1743.932 706.393 242.088 313.715
1078.198 2105.374 796.545 564.616 1197.345 440.869 329.890 1873.900 775.746 2671.283 866.743 406.324 343.428 209.981 388.649 325.877 1096.442 2097.682 217.363 353.429 309.504 414.015 1201.413 442.799 380.229 413.317 862.916 640.183 1527.931 1149.813 339.782 478.097 1000.601 464.168 221.604 380.352 150.086 848.080 757.578 1144.852 557.312 431.177 329.212 2637.106 312.776 358.550 289.012 1327.786 262.480 900.095 364.530 381.392 1046.534 698.589 204.200 630.601 1202.784 416.660 111.285 357.359 1002.693 616.523 2259.122 229.256 321.506 2016.212 311.690 1161.534 993.218 136.357 560.992 1054.150 666.456 810.987 2154.868 360.489 214.400 537.148 428.699 0.000 565.014 1263.773 206.573 260.074 525.556 1174.486 521.521 745.582 229.658 337.536 598.685 571.465 471.668 239.488 1555.065 1099.687 354.699 410.679 1029.532 1568.296 529.592 429.237 500.864
1563.306 2113.541 601.093 431.419 1645.449 533.540 357.358 1882.067 879.807 2775.344 403.270 408.678 353.048 544.447 276.720 352.758 1581.550 1894.503 551.830 369.536 424.454 369.090 1649.517 535.471 805.971 505.988 1291.534 732.854 1956.549 1597.917 384.968 237.224 1093.272 224.807 367.424 271.725 614.624 519.924 861.640 1573.470 332.699 341.287 316.315 2741.167 466.182 385.734 334.130 833.538 366.541 688.338 472.841 287.531 1494.638 151.017 392.564 896.799 999.606 394.206 555.119 373.183 1095.364 413.345 2363.183 657.874 311.407 1804.660 376.555 1625.316 1085.889 509.288 458.133 1146.822 137.138 1109.957 1951.690 406.509 363.165 641.209 423.293 581.908 0.000 1748.881 692.118 402.945 618.227 1052.820 449.984 1174.199 658.276 286.148 154.725 438.268 802.295 343.549 1127.788 1584.795 360.776 840.408 1122.204 1543.864 622.263 183.317 121.644
364.912 3042.761 1844.083 1703.488 758.924 1658.841 1547.863 2811.287 1562.534 3458.071 2100.371 1639.951 1567.510 1348.807 1611.533 1543.850 332.317 2728.668 1352.579 1571.402 1527.477 1631.988 773.782 1660.772 1342.705 1631.290 806.737 1611.992 1279.504 740.715 1560.087 1698.402 1952.546 1684.019 1439.577 1600.656 1247.069 2066.053 1524.048 1775.917 1775.285 1649.150 1549.064 3423.894 1546.404 1592.178 1509.317 2545.759 1480.453 2106.595 1598.158 1622.548 566.419 1916.562 1452.243 1330.393 2250.096 1634.632 1356.592 1590.987 1954.638 1850.151 3045.910 1228.445 1541.810 3234.185 1558.703 406.702 1945.163 1384.400 1699.864 2002.636 1884.429 1230.348 2727.199 1594.116 1432.372 1576.719 1614.388 1259.683 1782.986 0.000 1241.553 1507.088 1681.092 2123.405 1739.494 802.855 1198.979 1557.387 1818.536 1710.337 1457.491 1457.461 2788.693 329.758 1588.327 1406.340 1979.665 2505.683 1693.483 1649.088 1720.716
991.054 2208.458 899.630 591.620 1110.201 543.953 432.974 1976.984 855.678 2751.215 985.483 525.063 452.622 233.918 496.645 428.961 1009.298 2140.593 237.690 456.513 412.588 517.099 1114.269 545.884 315.524 516.401 798.317 743.267 1463.331 1062.669 445.198 583.513 1103.685 569.131 324.689 485.768 132.180 951.164 817.192 1080.252 660.397 534.262 434.175 2717.038 431.515 477.290 394.428 1430.870 365.565 1003.179 483.269 507.659 959.390 801.673 337.355 576.239 1245.696 519.744 241.703 476.098 1105.777 735.262 2339.054 164.657 426.922 2119.297 443.815 1074.390 1096.302 269.512 587.996 1157.235 769.541 748.661 2197.780 479.228 317.484 638.936 502.520 144.794 668.098 1176.629 0.000 392.199 628.640 1277.571 624.606 680.982 165.058 442.499 703.648 598.469 417.305 342.572 1673.805 1012.543 473.438 379.159 1132.617 1671.380 632.676 534.200 605.827
1261.414 2114.909 789.563 444.316 1362.085 450.403 322.907 1883.435 785.280 2680.817 689.816 229.397 160.605 304.859 205.827 318.894 1279.658 1920.754 312.242 346.446 329.927 407.032 1366.153 452.334 475.816 422.851 1046.132 649.717 1711.147 1314.553 164.829 300.499 1010.135 365.257 207.015 247.280 365.589 795.735 767.113 1328.068 545.322 424.195 286.560 2646.640 63.237 181.623 184.867 1263.234 272.015 888.105 104.952 198.569 1211.274 581.845 167.822 725.480 1025.857 426.194 282.754 187.612 1012.228 439.596 2268.656 412.472 180.461 2004.222 128.867 1344.750 1002.752 166.381 443.735 1063.685 525.863 787.481 1977.941 192.517 223.934 546.683 251.772 266.479 448.270 1446.989 389.789 0.000 535.091 1181.588 528.623 928.798 412.874 294.884 430.007 451.166 566.546 249.022 1378.138 1282.903 177.772 506.266 1039.067 1577.830 539.126 260.559 332.187
1481.788 1701.322 407.443 846.001 1597.904 131.668 302.972 1469.848 462.173 2357.710 713.500 640.696 462.273 493.737 499.514 297.729 1500.032 2309.085 521.092 300.208 334.848 265.072 1601.972 133.957 811.573 145.479 1253.950 240.508 1833.654 1550.373 455.756 532.432 600.926 457.711 345.946 435.400 606.277 566.954 384.342 1450.575 236.864 267.480 374.956 2323.533 623.764 617.751 404.986 1040.404 301.825 598.765 667.410 510.528 1447.094 481.612 446.550 464.456 1390.231 176.367 546.772 605.200 603.018 827.927 1945.549 649.527 436.573 1714.883 563.598 1565.125 593.543 491.485 872.715 654.476 524.814 1231.548 2366.272 638.527 341.688 319.149 663.071 572.603 485.718 1667.363 683.771 562.459 0.000 686.426 132.610 1136.616 649.929 387.707 570.096 852.850 551.187 317.368 1443.767 1503.277 592.793 842.023 629.858 1164.244 40.169 479.408 505.139
1919.205 1151.083 613.459 1424.690 2035.321 746.851 889.527 910.502 899.589 1938.152 1138.870 1227.250 1048.827 1114.220 1086.069 884.284 1937.448 2730.261 1130.038 886.763 955.330 851.627 2039.388 749.139 1411.258 765.962 1691.366 678.604 2271.070 1987.789 1042.311 1113.791 681.739 1036.400 945.631 1021.955 1192.832 871.986 822.437 1887.991 813.054 854.034 961.511 1903.976 1210.318 1204.306 991.541 1345.437 922.308 628.866 1253.965 1097.083 1884.510 1021.846 1033.105 901.872 1721.465 762.922 1133.327 1191.755 683.831 1406.616 2228.265 1236.082 1023.128 1733.525 1150.153 2002.541 674.356 1091.170 1451.404 826.889 1065.048 1668.964 2787.448 1225.082 941.373 853.288 1249.626 1160.116 1025.953 2104.779 1270.326 1149.013 739.479 0.000 719.165 1574.032 1236.483 974.262 1148.785 1431.539 1038.695 921.757 1756.392 1940.693 1179.348 1441.708 802.271 496.373 751.869 1059.884 1076.882
1527.797 1784.984 431.471 745.823 1609.939 281.173 275.066 1553.510 677.529 2573.066 705.364 588.241 431.764 506.033 462.526 240.077 1546.040 2208.908 516.320 267.629 347.143 237.909 1614.007 283.104 797.540 247.210 1256.024 456.544 1921.039 1562.407 428.593 434.695 826.100 357.305 331.914 404.891 579.114 556.755 600.377 1537.960 245.785 151.508 344.447 2538.889 596.601 565.297 377.727 1030.206 314.121 588.567 640.247 467.094 1459.128 473.476 419.387 679.812 1314.011 149.204 519.609 552.746 828.192 727.749 2160.904 622.364 406.064 1704.684 533.090 1589.807 818.717 477.452 772.537 879.649 516.678 1226.995 2266.095 586.072 327.655 440.067 610.616 546.399 428.792 1713.371 656.608 535.296 287.254 770.088 0.000 1138.690 622.766 318.964 469.918 752.673 672.105 308.039 1435.631 1549.285 540.339 827.990 855.031 1247.906 291.290 380.788 389.167
553.037 2400.700 1202.022 1132.542 909.950 1037.031 926.052 2169.226 920.473 2816.010 1508.473 1065.985 945.699 726.996 989.723 922.039 513.732 2630.298 730.768 949.591 905.666 1010.177 924.808 1038.961 828.010 1009.479 160.811 969.931 1037.938 891.741 938.276 1076.591 1310.485 1062.208 817.766 978.845 686.719 1444.242 881.987 1055.345 1153.474 1027.339 927.253 2781.833 972.438 1018.212 887.506 1923.948 858.642 1464.534 1024.191 1000.737 717.445 1294.751 863.421 688.332 1735.401 1012.822 776.699 1017.021 1312.577 1276.184 2403.849 559.387 920.000 2611.595 984.737 509.130 1303.102 817.684 1128.918 1360.575 1262.618 917.190 2687.485 1020.150 810.562 934.658 1043.442 701.420 1161.176 723.966 705.141 933.122 1039.031 1481.344 1117.683 0.000 529.921 935.576 1196.725 1139.391 788.434 835.650 2190.253 493.992 1014.361 891.645 1337.604 1863.622 1051.422 1027.277 1098.905
953.771 2178.530 928.508 668.343 1069.887 572.831 461.852 1947.055 698.302 2593.839 1044.274 601.786 481.500 262.796 525.523 457.839 972.015 2217.316 266.569 485.391 441.467 545.977 1073.955 574.762 376.064 545.279 640.941 747.760 1305.956 1022.356 474.077 612.392 1088.314 598.009 353.567 514.646 222.520 980.043 659.816 922.877 689.275 563.140 463.053 2559.662 508.238 554.013 423.307 1459.749 394.443 1032.058 559.992 536.538 919.077 830.552 399.221 466.161 1322.419 548.622 312.499 552.821 1090.406 811.985 2181.678 86.811 455.800 2148.175 520.538 974.724 1080.931 353.485 664.719 1138.404 798.419 703.530 2274.503 555.951 346.362 599.650 579.243 237.221 696.976 1139.346 240.941 468.922 657.519 1259.173 653.484 523.607 0.000 471.377 732.526 675.192 378.019 371.451 1726.054 959.585 550.161 439.699 1115.433 1641.451 661.554 563.078 634.705
1341.809 1995.104 567.157 516.205 1423.951 330.598 146.743 1763.630 665.476 2561.012 607.198 309.420 154.478 322.949 183.705 138.132 1360.052 1973.934 330.332 165.684 210.123 200.088 1428.019 332.529 618.719 303.047 1070.037 529.913 1735.051 1376.419 183.600 155.874 890.330 126.632 153.092 110.404 393.127 536.836 647.308 1351.972 289.387 217.250 39.895 2526.836 321.397 286.476 124.502 1016.542 152.210 647.765 363.111 188.273 1273.140 406.904 193.993 682.468 1079.037 263.832 333.622 273.925 892.423 492.776 2148.851 436.377 128.778 1763.882 255.803 1403.819 882.948 298.631 542.919 943.880 374.771 1010.699 2031.121 307.251 148.834 426.878 331.795 360.411 273.328 1527.383 470.620 258.160 415.286 1000.826 347.385 952.702 436.778 0.000 271.415 523.054 584.637 129.218 1288.978 1363.298 261.518 649.169 919.262 1458.025 419.322 101.967 173.595
1534.463 2153.705 681.998 471.233 1617.869 541.149 375.280 1922.231 897.260 2792.797 495.627 350.279 294.649 516.867 218.320 360.367 1552.707 1934.318 524.250 387.458 441.907 376.700 1621.937 543.080 747.572 513.597 1263.955 740.464 1928.969 1570.337 326.569 146.045 1100.881 180.691 362.472 213.326 587.045 642.632 879.093 1545.890 395.183 348.896 266.779 2758.620 407.782 327.334 275.731 994.293 383.995 762.606 414.442 229.131 1467.058 311.691 334.164 914.253 1039.421 401.815 527.539 314.783 1102.974 453.159 2380.636 630.295 253.007 1878.724 318.156 1597.737 1093.499 450.889 497.947 1154.431 246.112 1051.558 1991.505 348.110 358.213 658.663 372.654 532.763 179.328 1720.038 662.838 344.545 625.837 1133.724 462.226 1146.620 630.696 256.999 0.000 478.083 778.555 361.002 1177.407 1555.952 302.376 782.009 1129.813 1616.626 629.872 124.918 61.387
1434.541 2467.695 999.986 47.032 1363.437 824.887 668.387 2236.221 1159.764 3055.301 603.917 292.522 550.601 641.498 456.567 659.777 1452.784 1553.566 648.881 687.329 703.381 690.690 1367.505 826.818 516.468 797.335 1230.631 1024.201 1895.645 1315.905 582.520 414.327 1384.619 547.224 581.499 503.185 550.088 935.176 1141.597 1512.567 697.521 662.886 556.639 3021.124 408.992 359.058 531.682 1228.360 646.499 1080.593 446.166 441.228 1212.626 525.876 542.306 1008.553 658.669 715.805 590.655 343.463 1386.712 353.696 2643.140 596.971 508.702 2196.711 544.934 1517.877 1377.236 482.220 48.363 1438.169 460.297 731.576 1610.753 337.188 598.418 921.167 288.256 522.731 470.136 1581.893 574.288 433.068 909.574 1451.712 771.584 1113.296 597.373 563.091 445.736 0.000 849.620 623.506 1292.239 1456.029 358.855 550.905 1413.551 1930.616 913.610 442.769 461.418
1253.207 1962.232 763.553 864.463 1354.746 414.418 544.984 1730.757 482.004 2377.541 1127.406 726.662 564.632 317.364 608.655 540.971 1271.451 2413.437 340.533 568.523 511.581 578.765 1358.814 424.234 560.069 428.637 940.377 529.591 1605.391 1307.214 557.209 695.523 872.016 681.141 436.699 597.778 401.692 1019.988 443.518 1222.313 743.855 605.653 546.185 2343.364 633.114 678.889 506.438 1493.438 477.575 1026.065 676.761 619.670 1203.935 913.683 482.353 195.102 1518.539 492.283 430.973 677.697 874.108 936.861 1965.380 378.502 538.932 2173.126 623.425 1274.159 864.633 467.119 860.839 922.106 881.551 993.206 2470.623 680.827 429.494 320.785 749.037 433.341 780.108 1438.782 437.062 571.809 506.991 1042.875 597.145 823.042 354.370 554.509 815.658 871.312 0.000 454.582 1809.186 1259.021 675.037 623.704 899.135 1425.153 511.027 646.210 717.837
1258.490 1865.886 561.123 605.236 1340.632 201.381 94.468 1634.412 536.258 2431.795 676.889 389.123 170.589 239.631 214.612 90.454 1276.734 2081.674 247.013 118.007 80.905 178.592 1344.700 203.311 511.859 173.829 986.718 400.695 1651.732 1293.100 163.165 280.860 761.113 253.741 46.232 183.828 309.808 612.658 518.091 1268.653 321.890 195.755 123.384 2397.618 327.294 366.179 112.395 1092.364 22.992 664.673 370.941 225.626 1189.821 463.167 150.336 553.250 1186.777 177.172 250.303 353.628 763.205 600.515 2019.634 353.058 144.889 1780.790 271.914 1320.500 753.730 191.771 623.143 814.662 431.034 941.313 2138.861 375.007 41.974 297.660 411.499 272.889 329.591 1444.064 387.302 265.989 286.068 934.998 282.034 869.383 353.459 136.135 370.718 612.085 481.104 0.000 1358.669 1279.979 341.221 542.309 790.044 1328.808 290.104 227.835 299.463
2464.250 2718.987 1253.280 1170.185 2393.146 1488.737 1312.556 2487.513 1694.064 3515.164 799.210 1177.450 1271.541 1494.957 1177.507 1307.955 2482.493 2365.341 1502.340 1324.734 1379.651 1324.288 2397.214 1490.668 1566.921 1461.185 2242.044 1473.080 2907.058 2345.615 1303.461 1075.848 1842.635 1180.822 1322.621 1191.415 1565.134 1178.937 1616.913 2523.979 1206.506 1296.484 1244.869 3480.987 1293.872 1206.370 1252.623 727.590 1321.739 1340.524 1293.477 1162.169 2242.336 921.179 1311.056 1696.348 1356.545 1349.403 1505.629 1190.774 1844.728 1083.426 3177.440 1608.384 1229.899 2419.931 1285.744 2547.586 1835.252 1393.241 1196.899 1896.185 963.558 1761.285 2422.527 1224.101 1318.363 1596.407 1174.368 1493.339 1058.464 2611.602 1607.452 1282.143 1504.736 1705.006 1384.280 2124.709 1608.785 1235.089 1073.244 1177.034 1756.644 1298.746 0.000 2485.739 1206.167 1601.358 1871.567 2196.050 1508.771 1104.290 1095.016
87.268 2769.181 1570.502 1429.907 613.026 1385.261 1274.282 2537.706 1288.953 3184.490 1826.790 1366.371 1293.929 1075.226 1337.953 1270.269 47.964 2582.771 1078.998 1297.821 1253.896 1358.407 627.884 1387.191 1069.125 1357.709 507.980 1338.411 980.748 594.817 1286.506 1424.821 1678.965 1410.438 1165.996 1327.075 973.488 1792.472 1250.467 1477.161 1501.704 1375.569 1275.483 3150.313 1272.823 1318.597 1235.736 2272.178 1206.872 1833.014 1324.577 1348.967 420.521 1642.981 1178.662 1056.812 1976.515 1361.052 1083.011 1317.406 1681.057 1576.570 2772.329 954.864 1268.230 2960.604 1285.123 127.876 1671.582 1110.819 1426.283 1729.055 1610.848 1084.451 2581.302 1320.536 1158.792 1303.138 1340.808 986.102 1509.406 271.932 967.972 1233.507 1407.511 1849.824 1465.913 504.098 925.398 1283.806 1544.955 1436.757 1183.910 1183.880 2515.112 0.000 1314.746 1132.759 1706.084 2232.102 1419.902 1375.507 1447.135
1355.242 2203.823 753.319 343.076 1434.710 539.318 386.064 1972.349 874.195 2769.732 588.576 128.156 245.909 428.685 174.243 377.453 1373.486 1819.514 436.067 405.005 418.842 448.020 1438.778 541.248 502.772 511.766 1139.961 738.632 1804.975 1387.178 277.829 215.797 1099.050 288.098 339.104 220.861 459.417 718.576 856.028 1421.896 471.127 420.217 274.315 2735.555 168.998 98.922 226.991 1188.778 360.929 833.927 168.603 158.905 1283.899 490.201 285.425 849.306 924.617 473.136 385.779 86.372 1101.142 338.355 2357.571 506.301 201.312 1950.044 221.407 1438.579 1091.667 269.406 369.790 1152.599 424.622 806.758 1876.701 119.698 334.845 635.597 150.531 369.504 373.813 1540.817 483.617 157.268 624.005 1205.045 533.547 1022.626 506.702 280.768 351.482 349.925 690.372 337.937 1276.898 1376.731 0.000 537.209 1127.982 1666.745 628.041 186.103 257.730
1168.022 2396.041 1087.213 568.507 1096.273 731.536 620.557 2164.567 1047.169 2942.706 1003.706 529.548 586.461 481.639 631.682 616.544 1186.265 2117.480 485.411 644.096 600.172 704.682 1100.341 733.467 187.361 703.984 992.521 930.850 1659.392 1048.741 590.685 687.927 1291.268 738.892 512.272 655.076 405.147 1138.747 1008.683 1276.313 847.980 721.845 603.936 2908.529 509.942 552.513 563.736 1618.453 553.148 1190.762 558.493 624.425 945.462 929.965 478.924 761.111 1222.583 707.327 446.815 534.368 1293.360 754.904 2530.545 360.718 596.230 2306.880 554.722 1251.358 1283.885 403.468 564.883 1344.818 864.386 535.378 2174.667 489.897 505.067 823.808 496.283 377.790 845.943 1314.728 412.909 503.107 816.223 1465.154 812.189 875.186 361.119 612.260 823.612 575.356 602.177 530.155 1692.028 1189.511 548.662 0.000 1320.200 1858.963 820.259 658.233 729.861
1824.799 1538.975 797.718 1417.849 1940.915 639.267 893.874 1275.400 601.114 1961.098 1321.036 1201.736 983.201 1006.636 1027.225 889.861 1843.042 2894.287 1033.991 908.927 847.746 873.791 1944.983 641.555 1324.472 658.378 1596.961 584.198 1779.200 1893.383 975.778 1093.472 217.388 1066.354 858.845 996.440 1122.421 1054.152 550.744 1396.121 868.759 899.374 935.997 1926.922 1139.907 1178.792 925.008 1527.603 814.724 1015.644 1183.554 1038.239 1790.104 1113.506 962.949 807.467 1903.631 787.309 1062.916 1166.241 219.481 1413.128 1563.190 1165.671 957.502 2189.621 1084.527 1908.135 210.006 1004.384 1435.756 35.801 1156.708 1574.558 2951.474 1187.620 854.587 758.883 1224.111 1085.502 1117.612 2010.373 1199.914 1078.602 631.895 801.476 764.505 1479.626 1150.068 948.747 1178.815 1424.698 944.289 830.267 1938.558 1846.288 1153.834 1354.921 0.000 1001.897 644.285 1040.448 1112.076
2299.233 982.359 1101.251 1902.430 2415.349 1126.879 1359.401 741.778 1279.617 1769.428 1626.662 1689.348 1470.813 1494.248 1514.837 1354.158 2317.476 3218.053 1521.603 1356.637 1335.358 1321.501 2419.417 1129.168 1812.084 1145.990 2071.395 1058.632 2651.098 2367.817 1463.390 1581.084 856.748 1514.140 1346.457 1484.052 1610.033 1359.778 1202.466 2268.019 1293.293 1323.908 1423.609 1735.252 1627.519 1666.404 1412.620 1833.229 1302.336 1116.657 1671.166 1525.851 2264.538 1509.638 1450.561 1281.900 2209.257 1232.796 1550.528 1653.853 858.840 1884.356 2124.182 1653.283 1445.114 1817.874 1572.139 2382.569 849.365 1491.996 1923.368 1001.898 1552.840 2048.992 3275.240 1675.232 1342.199 1233.317 1711.723 1573.114 1513.744 2484.807 1687.526 1566.214 1119.507 493.120 1189.039 1954.060 1624.501 1436.359 1626.525 1909.279 1418.723 1317.879 2244.184 2320.722 1641.446 1842.534 977.280 0.000 1131.898 1528.060 1561.568
1472.251 1696.162 425.414 863.972 1588.367 122.131 320.943 1464.688 452.635 2348.172 731.471 658.667 466.065 489.500 510.089 315.700 1490.494 2327.056 516.855 318.179 330.610 283.043 1592.435 124.420 807.336 141.242 1244.413 230.971 1824.116 1540.835 458.642 550.403 591.388 475.682 341.709 453.371 605.285 584.924 374.804 1441.037 254.835 285.451 392.927 2313.995 622.771 635.722 407.872 1058.375 297.588 616.736 666.418 521.103 1437.556 499.582 445.813 454.919 1408.202 194.338 545.780 623.171 593.481 845.898 1936.011 648.535 440.366 1732.854 567.391 1555.587 584.006 487.248 890.686 644.938 542.784 1222.010 2384.243 656.498 337.451 314.912 681.042 568.366 503.689 1657.825 682.778 561.466 17.971 704.397 150.581 1127.078 648.936 405.678 588.067 870.821 546.950 313.131 1461.738 1493.740 610.764 837.786 620.320 1159.083 0.000 497.379 523.110
1410.889 2059.624 587.917 414.238 1494.295 438.809 254.954 1828.150 773.686 2669.223 505.230 226.705 171.075 393.293 94.746 246.343 1429.132 1871.967 400.676 273.895 318.333 282.619 1498.363 440.739 623.997 411.257 1140.380 638.123 1805.394 1446.763 202.994 53.907 998.541 122.696 238.897 89.751 463.470 553.174 755.519 1422.316 305.726 254.815 143.205 2635.046 284.208 203.760 152.156 1005.301 260.420 668.525 290.868 105.557 1343.484 323.912 210.590 790.678 977.070 307.734 403.965 191.209 1000.633 390.808 2257.062 506.720 129.433 1784.642 194.581 1474.162 991.158 327.315 440.952 1052.091 304.813 927.983 1929.154 224.536 234.639 535.088 249.080 409.189 190.336 1596.463 539.264 220.971 523.496 1039.643 368.145 1023.045 507.122 133.425 172.074 421.087 654.980 237.428 1187.010 1432.378 178.802 658.434 1027.473 1522.545 527.532 0.000 74.253
1476.036 2101.747 630.041 464.594 1559.442 489.192 320.101 1870.273 838.833 2734.370 494.860 291.852 236.222 458.440 159.893 308.409 1494.279 1927.679 465.823 335.500 383.480 324.742 1563.510 491.122 689.145 461.640 1205.527 688.506 1870.542 1511.910 268.141 120.397 1048.924 128.733 304.044 154.898 528.617 595.298 820.666 1487.463 347.849 296.939 208.352 2700.193 349.355 268.907 217.303 949.493 325.567 710.648 356.015 170.704 1408.631 268.103 275.737 855.826 1032.781 349.857 469.112 256.356 1051.016 446.520 2322.209 571.867 194.580 1826.766 259.728 1539.309 1041.541 392.462 491.308 1102.473 249.005 993.130 1984.865 289.683 299.786 600.236 314.227 474.336 134.528 1661.610 604.411 286.118 573.879 1081.767 410.269 1088.192 572.269 198.572 116.266 471.443 720.127 302.575 1176.640 1497.525 243.949 723.581 1077.855 1564.669 577.915 66.491 0.000
NODE_COORD_SECTION
1 -21955.901072 -17834.085794
2 34639.946646 -14706.763024
3 6966.488471 -625.877266
4 -10004.893544 4561.940208
5 -26439.682239 -14426.351956
6 1081.814823 -4516.171968
7 -1725.123897 -995.611177
8 30792.349156 -16559.071620
9 3778.434548 -11020.248483
10 31072.282351 -28144.977566
11 -1953.553636 9038.313142
12 -6934.662784 2192.153262
13 -4318.938003 -296.072319
14 -3667.005565 -4564.525684
15 -4394.180140 888.949870
16 -1383.978437 -791.536872
17 -22427.324900 -18474.472201
18 -30508.408090 22742.362527
19 -3738.649557 -4866.933338
20 -1274.929266 -1127.047619
21 -2266.202228 -2790.377664
22 -712.299604 -1188.059737
23 -26680.064031 -13822.617097
24 1187.979108 -4340.108296
25 -8931.097679 -5202.203138
26 577.497018 -3954.635808
27 -15939.989346 -16407.547329
28 3026.458664 -7262.789309
29 -7857.640565 -29658.997059
30 -26299.907883 -13669.575727
31 -4287.642061 -664.981055
32 -3865.271538 2069.867092
33 11302.852882 -9907.361184
34 -1343.498077 1390.974346
35 -3272.433437 -1954.122371
36 -3285.804895 493.537441
37 -5416.686371 -5114.164218
38 8505.279290 4979.897958
39 3634.409548 -9154.168243
40 -3514.064929 -25663.296059
41 2180.873127 1755.174343
42 269.434222 -394.153537
43 -2626.657244 -257.178659
44 30362.778067 -28274.986589
45 -6098.686730 -32.519783
46 -6170.023698 1196.769443
47 -3798.708970 -190.384667
48 8562.572373 13896.921966
49 -2455.551855 -2214.179187
50 9019.041964 1366.016599
51 -5682.462147 90.880436
52 -4669.126206 836.488120
53 -24070.985904 -14057.213424
54 -175.792098 5962.192786
55 -4211.653732 -913.448232
56 -623.318405 -10968.564396
57 -14209.532100 18326.237764
58 -101.959975 -2274.857755
59 -4978.673531 -3736.353868
60 -6348.539258 991.732845
61 11438.812845 -9867.970097
62 -7570.385737 7185.139153
63 23731.395529 -34341.809496
64 -6276.643232 -7084.266562
65 -4095.151379 90.623500
66 31141.730560 14850.779091
67 -5235.646794 126.969235
68 -21255.889636 -18241.092837
69 11346.390393 -9929.850260
70 -5602.955256 -2100.394548
71 -9383.858498 4110.929768
72 10102.827560 -12352.831754
73 -1010.691504 5562.002372
74 -17431.918393 -6143.993279
75 -31621.531427 22279.595483
76 -7153.666247 825.100515
77 -3019.328232 -1999.928774
78 970.586522 -7181.418390
79 -7204.481769 2018.727300
80 -5522.979613 -4180.690551
81 -784.484899 4124.911576
82 -24599.539778 -17775.449743
83 -6143.168474 -5370.402937
84 -5584.937881 -263.136631
85 1950.198061 -3824.972787
86 15756.117751 -5445.419197
87 1241.711550 -2110.554094
88 -14869.854637 -15640.064673
89 -6348.972690 -7537.723527
90 -2343.358451 154.919189
91 -2434.693759 3020.774559
92 -10078.169025 4615.236096
93 -2215.889553 -8546.355130
94 -2535.025404 -1891.501333
95 3509.196561 24112.449782
96 -22427.013231 -18534.350018
97 -5730.375429 1142.476709
98 -10218.086001 -5597.650413
99 10286.190698 -12054.537970
100 26261.162725 -8053.209033
101 2009.459626 -4049.385580
102 -3195.428377 1635.355804
103 -2309.500535 2486.932931
DEMAND_SECTION
1 0
2 92
3 46
4 14
5 38
6 43
7 29
8 58
9 28
10 25
11 61
12 29
13 43
14 92
15 89
16 43
17 47
18 36
19 6
20 1
21 73
22 9
23 94
24 51
25 53
26 20
27 18
28 45
29 2
30 83
31 35
32 88
33 9
34 54
35 40
36 83
37 67
38 44
39 8
40 61
41 18
42 77
43 66
44 70
45 34
46 100
47 50
48 92
49 86
50 46
51 62
52 99
53 43
54 9
55 49
56 10
57 15
58 24
59 66
60 20
61 19
62 10
63 79
64 74
65 97
66 38
67 81
68 36
69 9
70 70
71 22
72 59
73 61
74 33
75 32
76 99
77 79
78 72
79 24
80 15
81 86
82 91
83 16
84 53
85 45
86 12
87 60
88 72
89 84
90 96
91 44
92 44
93 20
94 14
95 75
96 2
97 66
98 57
99 31
100 89
101 36
102 34
103 84
DEPOT_SECTION
1
-1
EOF
