NAME : mamut-warsaw-n110-k8-poi
COMMENT : Mamut2026 euclidean metric; city warsaw; No of trucks: 8 (lower bound, fleet not fixed); 3-decimal seconds/meters; ENU ref in mamut-warsaw-n110-k8-poi.vrp.json
TYPE : CVRP
DIMENSION : 111
EDGE_WEIGHT_TYPE : EXPLICIT
EDGE_WEIGHT_FORMAT : FULL_MATRIX
CAPACITY : 770
EDGE_WEIGHT_SECTION
0.000 19710.372 23814.643 19962.237 15344.524 17466.220 25733.430 24738.316 20690.317 23039.843 23051.114 26318.615 38983.420 25397.905 23165.909 21412.630 22668.988 18836.391 22783.331 21582.711 21732.074 18411.054 20229.926 14691.978 16919.118 17291.090 28675.464 22189.783 23770.164 23235.611 20714.776 21612.029 22819.615 18300.597 33779.612 21703.573 14656.104 19001.370 34422.826 32526.260 20184.640 22572.795 23156.382 24045.153 14330.406 20184.526 21414.437 27022.139 15020.383 33145.304 24730.011 21846.563 33970.061 22460.903 25720.980 12579.833 16373.686 24244.403 27387.857 23066.356 15467.615 34575.868 21530.042 23101.408 29086.177 18288.681 12401.780 27443.904 19686.002 21785.316 14232.297 17409.411 15954.774 855.154 22126.657 25448.695 31886.816 16813.569 31076.305 23927.472 19244.887 32067.394 27564.922 15881.222 20763.951 28054.783 22807.954 28474.957 20790.984 25569.696 27162.547 21513.540 18625.452 24685.249 24873.322 22716.485 22791.879 9689.007 29640.883 33297.806 19832.506 24587.855 32228.496 16420.826 38900.069 23376.630 26251.184 38871.337 27918.059 25399.272 19849.287
19710.372 0.000 15996.144 3592.605 7495.266 3127.831 10058.360 5029.298 982.115 3330.363 3354.341 7446.587 22637.516 5891.054 6240.391 3293.037 11610.900 999.737 3080.880 2612.740 3445.121 7191.148 5785.156 5095.784 6542.493 5020.617 9072.644 9366.200 4778.657 3843.191 1953.064 2765.546 3148.977 1417.869 15067.524 3350.093 5535.277 2803.133 25993.273 17951.167 814.097 5811.137 3615.288 5562.838 5537.556 3564.455 2226.699 7323.507 6792.729 13490.025 6334.631 3547.057 15256.265 3354.834 7049.894 14608.984 3347.057 5753.778 9173.074 4347.550 12513.656 26289.695 5812.232 3396.726 9740.646 3542.105 10156.936 9252.496 245.241 5963.385 6314.297 3148.643 11474.342 19814.656 3691.837 21290.146 15143.378 4019.624 13169.546 4697.808 6144.243 16883.616 8706.914 3831.255 1264.579 8557.361 9504.248 10097.641 1352.644 19289.390 9519.773 2835.111 5744.204 5035.590 5170.626 3022.466 3750.191 11495.581 10832.065 16476.298 2287.563 6067.837 14257.299 5725.441 21783.922 4148.489 7211.240 21765.037 8735.317 5751.396 3353.833
23814.643 15996.144 0.000 19558.623 21431.293 13834.165 9308.815 17464.908 16211.226 16812.559 16427.105 14507.532 17660.805 16041.779 11319.621 13398.920 4600.913 15438.974 16880.240 14464.539 13494.522 9179.042 10231.305 16921.735 21354.881 11822.892 20650.593 6935.714 14361.333 15214.962 14452.443 14279.160 16152.919 15739.495 27533.566 13589.202 18106.913 18562.418 11133.932 10769.780 16721.603 11301.333 17887.034 13443.481 17342.792 19551.602 14829.071 17964.853 20397.098 20981.501 13315.085 13475.786 27684.153 14577.597 13949.876 11377.941 16174.543 13459.913 13446.564 13872.182 26340.256 11359.454 10593.918 16954.477 16884.804 18991.275 12344.694 23630.402 15750.940 10561.450 18911.701 13866.725 25613.212 24452.743 13583.373 5673.644 29707.550 18476.828 14375.127 14889.826 9912.045 32090.095 14847.394 16098.681 16862.516 20814.747 7098.776 24082.720 16982.369 3308.527 24314.618 14072.446 10452.267 16521.835 17688.450 16955.367 14445.712 14928.261 15571.755 30824.339 18267.514 13525.492 15134.796 20204.822 18525.790 14833.116 21062.003 18488.996 15833.578 18483.733 19311.679
19962.237 3592.605 19558.623 0.000 5502.876 6086.775 13408.246 6164.813 3679.120 4887.884 5195.783 9884.563 25394.237 7807.309 9613.925 6710.424 15201.178 4145.455 4598.655 5803.682 6785.240 10606.204 9371.298 5713.448 4037.899 8189.766 9191.015 12958.106 7494.681 6334.048 5402.234 5992.304 5209.213 3969.359 13837.149 6682.211 5369.347 1245.184 29570.863 21185.356 2971.287 9252.104 4239.351 8486.512 5894.150 233.544 5369.823 8432.530 5269.259 14429.529 9202.917 6865.861 14028.258 6266.504 9673.575 17075.570 4678.912 8646.752 11847.118 7328.611 9890.388 29869.095 9376.260 4839.159 11496.016 1684.071 12407.983 7534.116 3836.016 9512.924 5731.102 6078.612 8766.413 19912.006 6932.695 24783.923 12759.326 3189.261 15726.366 7207.648 9664.176 14024.034 11029.062 5118.614 3082.863 8432.636 13086.280 8545.034 2982.005 22842.570 7413.409 6131.049 9196.992 6727.837 6175.162 4479.383 6625.630 13085.330 13023.039 14159.639 1305.858 8902.881 16732.042 3828.072 24333.381 6768.781 6381.583 24318.225 10765.839 6319.005 251.703
15344.524 7495.266 21431.293 5502.876 0.000 7907.900 17310.922 11552.332 8175.369 10086.030 10311.237 14848.210 30131.579 13002.128 13554.252 10676.110 17644.469 7270.511 9785.919 10106.947 10878.722 12317.745 12139.307 4536.869 1632.222 9684.924 14675.080 15725.838 12233.078 11194.543 9384.021 10254.606 10232.857 6690.412 18718.874 10791.277 3352.887 5139.484 32211.343 25248.467 7394.020 13050.612 9641.945 13057.296 4176.494 5732.735 9719.898 13875.055 1046.904 19926.955 13827.751 10989.026 18905.733 10831.354 14506.063 15770.976 5422.616 13246.999 16652.460 11841.764 5146.875 32481.541 12711.719 10072.227 16811.017 4224.043 11227.674 12404.327 7651.522 12922.679 2669.176 7859.371 4243.676 15154.453 11162.140 26008.025 16543.473 3511.731 20638.809 12081.963 11923.254 16898.380 16076.097 5385.229 7825.156 13895.138 16051.065 13452.444 7775.482 24528.821 11977.387 10306.694 11247.196 11975.543 11590.874 9676.232 11225.847 10692.555 18160.876 17955.940 6090.149 13557.011 21709.488 1800.012 29264.696 11560.534 11752.429 29246.416 15962.145 11802.282 5514.686
17466.220 3127.831 13834.165 6086.775 7907.900 0.000 9724.640 7706.411 3956.699 6079.553 5957.069 8881.240 23014.602 7998.181 6239.462 3964.996 9794.357 2162.941 5896.932 4155.115 4279.288 4673.852 4251.211 3879.498 7572.295 2115.231 11880.118 7818.614 6303.975 5843.189 3314.455 4164.283 5672.442 2127.665 18127.690 4244.656 4884.766 4927.738 24376.723 17596.296 3921.480 5658.546 6622.534 6637.196 4401.726 6149.448 4054.606 9797.323 6945.036 15768.839 7362.245 4396.155 18315.020 5021.512 8312.918 11482.144 2486.098 6840.388 10154.946 5605.501 13034.158 24654.591 5010.371 6182.588 11621.071 5205.185 7077.816 12380.096 2953.377 5249.726 5782.981 61.848 12149.629 17671.105 4671.392 18840.036 18250.896 4671.013 14063.017 6477.076 4043.437 19897.141 10144.467 2611.139 4386.953 11458.744 8148.387 13218.168 4479.390 17054.294 12636.618 4053.140 3409.080 7417.711 7888.033 5873.962 5335.961 8654.657 12255.420 19592.434 4933.071 7186.946 15207.375 6460.542 22451.018 5935.584 10292.187 22427.771 10454.195 8579.604 5836.274
25733.430 10058.360 9308.815 13408.246 17310.922 9724.640 0.000 9209.885 9734.934 9199.359 8791.372 5454.687 13445.288 7420.793 3818.763 6766.615 5274.688 10063.738 9384.706 7605.271 6643.612 7328.558 5730.911 13604.095 16558.003 8817.799 11655.529 3978.308 6310.884 7451.230 8108.085 7418.199 8614.332 10624.809 18403.265 6744.483 14572.451 12844.375 16807.296 7937.551 10483.567 4271.428 10285.785 5229.537 14126.357 13303.908 8038.980 9057.964 16450.691 11716.500 4751.887 6554.642 18544.016 7215.794 5029.662 15633.722 12080.702 5142.820 4141.444 6192.866 22438.999 17129.295 4715.772 9321.275 7583.397 13597.603 13440.104 15255.211 9850.901 4474.936 15469.405 9784.067 21448.432 26124.593 6475.563 14912.923 21117.250 13816.346 5917.978 6783.168 6561.149 23794.667 5580.741 12305.962 10327.399 11963.073 3350.132 15509.476 10431.644 12290.130 16101.909 7290.165 7245.334 8204.526 9405.242 9493.054 6906.422 16064.461 6326.189 22106.895 12162.470 5041.085 6972.049 15634.382 13175.072 6990.822 12700.015 13147.091 6579.784 10099.046 13205.462
24738.316 5029.298 17464.908 6164.813 11552.332 7706.411 9209.885 0.000 4048.266 1698.939 1749.905 4282.288 19600.742 1966.098 6151.401 4670.626 12866.514 5938.479 1958.781 3826.052 4425.282 10226.806 7969.689 10085.721 10182.389 8990.725 4185.295 10551.954 3106.543 2376.726 4491.443 3924.044 2037.048 6443.889 10790.664 4365.950 10370.453 6439.103 26017.014 16219.215 4596.123 6181.388 1925.870 4093.403 10497.696 5956.828 3745.895 2361.581 11119.463 8542.538 4459.120 4383.899 10968.818 3219.985 4372.189 18823.389 8366.756 4127.218 6340.900 3630.218 16041.533 26338.646 7074.317 1639.595 5339.947 7348.899 14699.016 6177.678 5067.345 7034.726 11048.436 7749.194 14908.875 24834.421 4169.674 23097.581 12243.731 8478.738 9894.241 2578.431 8880.514 14701.173 5184.966 8857.173 4029.411 3865.785 10370.211 6631.227 4025.930 20726.852 6937.890 4125.310 8873.167 1005.364 228.561 2034.476 3184.031 16349.646 6995.040 13385.691 5480.105 4176.400 10808.834 9779.774 18376.912 2674.385 3600.581 18364.421 4720.013 1049.199 6093.709
20690.317 982.115 16211.226 3679.120 8175.369 3956.699 9734.934 4048.266 0.000 2349.541 2391.141 6676.891 22019.171 4987.324 5935.096 3042.989 11738.766 1936.984 2098.823 2131.108 3106.313 7655.614 5986.417 6058.281 7089.135 5693.974 8098.188 9441.299 4065.666 3027.360 1783.146 2316.775 2207.174 2399.632 14175.003 3003.185 6442.211 3197.176 25962.709 17551.070 793.806 5578.027 2680.076 4953.029 6489.078 3589.559 1698.563 6351.620 7545.138 12526.058 5707.368 3186.889 14362.771 2699.380 6334.226 15417.135 4321.749 5131.546 8491.408 3750.710 13093.784 26264.947 5784.457 2414.632 8845.694 4050.180 11029.610 8479.619 1052.627 5898.553 7190.624 3985.844 12024.421 20791.003 3262.055 21602.208 14455.020 4779.287 12467.346 3909.927 6503.375 16324.058 7916.852 4809.627 653.742 7597.180 9513.241 9284.379 773.134 19516.834 8820.939 2451.929 6196.255 4088.942 4188.539 2041.735 3086.065 12443.689 10023.713 15764.857 2431.388 5423.090 13534.208 6380.925 21097.047 3385.205 6335.571 21079.252 7880.687 4775.136 3471.405
23039.843 3330.363 16812.559 4887.884 10086.030 6079.553 9199.359 1698.939 2349.541 0.000 409.796 5019.061 20536.661 2934.809 5702.466 3525.875 12224.278 4246.087 300.114 2515.778 3361.578 9001.421 6904.399 8395.169 8803.033 7507.225 5810.034 9881.683 2903.150 1749.530 2996.307 2666.162 659.952 4745.212 12172.989 3276.787 8713.305 4946.635 25896.813 16652.199 2925.473 5569.287 1104.638 3983.215 8813.815 4706.767 2301.907 4018.535 9582.890 10204.294 4586.499 3361.432 12356.473 2235.231 4874.645 17349.587 6669.602 4096.277 7025.170 3071.493 14754.866 26211.239 6233.557 142.920 6727.088 5861.989 13123.719 6969.196 3371.123 6252.031 9415.985 6119.082 13640.625 23138.430 3231.095 22374.259 13082.327 6886.307 10849.048 2486.849 7699.334 15291.883 6141.995 7158.944 2374.448 5384.060 9798.419 7611.907 2387.056 20109.496 7541.428 2882.999 7588.835 1889.636 1846.377 412.842 2406.465 14695.955 8145.206 14309.769 4001.362 4278.246 11845.501 8293.242 19446.880 2208.568 4529.307 19431.916 5903.164 2500.051 4769.949
23051.114 3354.341 16427.105 5195.783 10311.237 5957.069 8791.372 1749.905 2391.141 409.796 0.000 4689.925 20205.508 2691.437 5295.864 3187.934 11835.784 4220.993 623.595 2212.664 3005.430 8702.238 6565.362 8447.286 9063.855 7295.173 5927.078 9493.854 2500.643 1340.569 2777.648 2348.425 315.673 4752.218 12403.729 2924.785 8818.592 5179.023 25487.237 16262.804 3042.831 5170.524 1512.924 3578.799 8880.214 5022.837 2050.744 3972.160 9775.862 10136.566 4192.709 2997.874 12585.642 1851.959 4514.665 17138.893 6700.846 3695.179 6675.671 2663.087 15035.050 25801.731 5857.801 541.532 6528.525 6091.410 12964.658 7313.191 3365.323 5869.645 9544.752 5999.598 13926.956 23164.741 2853.413 21997.403 13429.579 7052.706 10530.587 2098.340 7386.961 15669.814 5841.140 7181.501 2523.372 5554.373 9402.666 7928.686 2554.108 19721.880 7909.804 2563.416 7303.500 1710.512 1932.501 743.082 2004.110 14600.034 7874.161 14645.198 4248.030 3884.400 11540.599 8513.701 19141.066 1800.686 4839.921 19125.610 5652.644 2663.371 5065.654
26318.615 7446.587 14507.532 9884.563 14848.210 8881.240 5454.687 4282.288 6676.891 5019.061 4689.925 0.000 15517.968 2316.260 3898.812 4916.489 10072.477 7987.588 5297.181 4964.373 4602.413 9297.277 6877.383 12289.631 13692.319 9220.580 6208.189 7998.999 2689.252 3653.773 5823.932 4876.603 4687.071 8608.467 13030.821 4641.168 12917.456 9778.656 22096.472 11950.657 7454.260 4334.161 5898.435 2285.890 12782.628 9712.762 5268.165 3610.592 14215.752 7475.688 1706.092 4485.158 13179.352 4120.242 686.153 18363.397 10520.425 2094.008 2060.912 3293.719 19687.851 22424.488 5549.770 5088.651 2985.782 10674.157 14954.857 9942.923 7342.292 5363.377 13733.900 8940.220 18590.429 26544.434 4212.208 20174.666 15690.158 11443.302 5844.237 2767.015 7987.486 18437.740 1278.053 10925.011 7042.025 6513.571 7603.655 10113.071 7103.932 17624.796 10854.992 4920.654 8331.843 3365.494 4423.282 5417.719 3733.014 17135.611 3415.527 16657.883 8883.087 1763.483 6875.713 13050.594 14467.084 3301.220 7451.599 14450.837 1719.708 4956.227 9749.182
38983.420 22637.516 17660.805 25394.237 30131.579 23014.602 13445.288 19600.742 22019.171 20536.661 20205.508 15517.968 0.000 17710.955 16792.877 19507.997 16615.012 22925.971 20815.025 20025.003 19279.866 20631.514 19173.098 26860.697 29107.717 22260.994 19226.721 16793.968 17965.306 19085.201 20760.596 19877.216 20185.680 23536.902 23453.501 19362.280 27733.902 25200.926 15805.618 6920.725 22812.770 17362.144 21376.392 17081.544 27383.222 25226.801 20416.817 17912.625 29386.465 14911.590 16316.676 19165.908 23494.731 19325.622 15730.099 27844.537 25224.771 16895.874 13554.692 18296.243 35112.948 16094.733 18079.258 20603.760 14630.796 26069.077 26586.582 23879.122 22480.515 17826.087 28615.046 23075.800 34038.801 39424.439 18978.144 21085.028 28135.394 26635.674 9710.616 18199.659 19991.683 31321.753 14437.893 25516.121 22467.466 20009.620 16176.076 23554.812 22542.103 18614.227 24941.800 19830.214 20685.878 18806.045 19685.047 20935.598 18935.054 29297.338 12671.173 28550.519 24344.225 16596.798 8819.331 28360.975 2229.065 18672.837 21921.187 2204.705 14912.058 19970.668 25250.744
25397.905 5891.054 16041.779 7807.309 13002.128 7998.181 7420.793 1966.098 4987.324 2934.809 2691.437 2316.260 17710.955 0.000 4794.462 4295.130 11479.414 6629.908 3232.543 3843.134 3982.569 9587.989 7189.222 10956.238 11737.346 8855.382 4744.850 9231.685 2008.518 2163.452 4694.593 3845.135 2797.632 7216.744 11667.915 3967.720 11421.475 7867.271 24206.699 14259.398 5699.654 4984.364 3668.199 2638.347 11415.214 7618.365 3983.559 2097.445 12462.558 7771.250 2753.021 3895.164 11832.990 2986.615 2453.332 18503.046 9182.535 2592.590 4375.023 2760.714 17686.680 24531.252 6065.648 2970.944 3858.702 8780.836 14674.785 7834.964 5848.636 5962.494 12177.938 8050.601 16569.583 25555.956 3617.240 21708.541 13760.613 9727.418 8001.104 1611.391 8221.276 16377.556 3273.080 9637.618 5204.289 4787.182 8962.199 8128.400 5241.195 19254.874 8688.718 3982.909 8372.928 1096.422 2110.178 3347.635 2719.148 16590.365 5215.774 14816.303 6929.665 2519.930 8958.804 11204.977 16554.081 2090.181 5281.742 16540.091 2968.533 2701.552 7698.424
23165.909 6240.391 11319.621 9613.925 13554.252 6239.462 3818.763 6151.401 5935.096 5702.466 5295.864 3898.812 16792.877 4794.462 0.000 2947.957 6727.592 6285.818 5836.787 3815.283 2831.948 5456.170 3098.667 10068.092 12752.814 5875.642 9520.027 4444.323 3044.902 3991.836 4289.396 3624.078 5066.032 6865.681 16450.756 2934.073 10955.388 9025.950 20222.555 11724.108 6672.782 598.319 6806.920 2156.672 10590.476 9518.303 4248.482 6830.616 12725.753 11359.099 2266.407 2748.235 16613.337 3545.143 3215.117 14510.888 8445.560 2212.853 4277.546 2637.323 18663.468 20533.990 1728.436 5837.362 6857.663 9780.956 11342.014 12326.947 6034.795 1506.545 11843.303 6301.110 17658.032 23468.546 2697.885 16966.571 18389.319 10047.010 7940.675 3573.247 4206.050 20829.968 4866.860 8724.440 6542.082 9577.620 4221.261 12763.112 6649.819 14575.654 13051.306 3483.713 4665.679 5202.233 6373.259 5933.284 3301.969 13705.685 6692.156 19507.189 8355.497 2373.227 9094.376 11851.738 16215.577 3570.481 9751.806 16191.987 5595.633 7164.562 9405.882
21412.630 3293.037 13398.920 6710.424 10676.110 3964.996 6766.615 4670.626 3042.989 3525.875 3187.934 4916.489 19507.997 4295.130 2947.957 0.000 8849.925 3420.954 3536.691 1065.689 323.743 5557.680 3379.049 7510.600 9818.668 4560.864 8731.658 6517.907 2403.803 2340.017 1341.473 883.151 2881.287 4028.998 15460.483 328.199 8271.933 6079.598 22934.182 14661.304 3747.219 2543.737 4539.560 2683.724 8021.130 6629.670 1446.089 6300.836 9888.845 11973.234 3430.202 434.243 15638.094 1454.805 4352.959 14263.312 5785.622 2888.053 6275.091 1662.359 15756.919 23238.251 2822.731 3668.020 7703.007 6834.659 10381.574 10494.460 3090.668 2900.973 9136.813 4024.151 14736.902 21630.269 718.231 18906.816 16608.202 7164.614 10247.585 2688.212 4219.279 18778.617 6179.953 6138.787 3677.761 8518.229 6530.503 11115.305 3791.892 16706.021 11054.749 673.565 4209.867 4025.203 4893.298 3597.294 1596.961 12362.099 8295.717 17831.726 5433.077 3234.322 11375.603 8946.015 18773.781 2226.213 8025.833 18752.767 6509.820 5703.400 6494.098
22668.988 11610.900 4600.913 15201.178 17644.469 9794.357 5274.688 12866.514 11738.766 12224.278 11835.784 10072.477 16615.012 11479.414 6727.592 8849.925 0.000 11152.362 12299.810 9912.926 8927.718 5417.765 5832.878 13270.183 17362.478 7977.769 16136.243 2342.943 9765.045 10615.189 9961.993 9724.395 11565.339 11522.336 23048.705 9024.492 14424.165 14279.749 14582.645 9905.438 12298.011 6700.517 13304.923 8863.963 13741.530 15174.594 10290.631 13441.528 16642.904 16927.627 8778.332 8903.216 23204.019 9989.165 9478.407 11251.908 12247.024 8889.439 9259.655 9271.357 22707.765 14860.265 6029.933 12365.762 12638.206 14793.274 10360.073 19029.737 11366.566 5981.179 15284.709 9836.256 21883.448 23188.726 8999.742 10239.246 25110.080 14459.295 10999.161 10293.357 5751.991 27492.409 10554.072 12259.931 12392.476 16263.322 2517.216 19488.620 12511.891 7886.402 19715.495 9521.764 6401.853 11928.545 13090.545 12377.835 9848.998 13115.940 11575.175 26234.676 13897.862 8973.479 11949.164 16254.585 16936.681 10232.208 16462.284 16903.247 11510.405 13888.311 14959.383
18836.391 999.737 15438.974 4145.455 7270.511 2162.941 10063.738 5938.479 1936.984 4246.087 4220.993 7987.588 22925.971 6629.908 6285.818 3420.954 11152.362 0.000 4015.288 3027.365 3647.678 6466.669 5330.875 4338.688 6516.290 4147.513 10029.814 8975.900 5298.474 4504.778 2197.312 3133.923 3983.376 624.002 16067.217 3568.064 4935.491 3130.755 25642.669 17997.253 1764.287 5793.587 4604.925 5948.805 4814.506 4166.706 2729.111 8187.374 6468.208 14319.916 6723.312 3762.994 16255.936 3871.245 7529.413 13629.946 2560.192 6148.872 9588.978 4757.576 12379.594 25933.124 5585.520 4324.968 10441.698 3678.160 9160.065 10233.309 884.668 5769.822 5771.462 2178.070 11384.918 18962.792 3966.543 20638.472 16087.968 3761.301 13587.088 5304.454 5530.166 17760.932 9262.836 3007.732 2261.000 9534.091 9176.763 11088.360 2343.964 18713.343 10474.692 3135.448 5051.578 5852.952 6092.446 3967.463 4254.916 10508.387 11399.979 17430.046 2895.733 6481.315 14697.527 5570.900 22159.890 4742.286 8210.918 22139.633 9379.816 6705.881 3894.944
22783.331 3080.880 16880.240 4598.655 9785.919 5896.932 9384.706 1958.781 2098.823 300.114 623.595 5297.181 20815.025 3232.543 5836.787 3536.691 12299.810 4015.288 0.000 2497.510 3397.148 8953.855 6905.355 8127.024 8504.833 7383.734 6019.406 9956.965 3112.617 1938.662 2896.125 2661.340 774.524 4498.425 12299.916 3307.310 8429.332 4646.531 26049.441 16883.462 2644.110 5675.620 1007.785 4186.051 8540.809 4420.254 2238.343 4296.898 9284.015 10484.113 4811.994 3407.561 12484.562 2323.022 5135.534 17218.560 6410.167 4307.885 7293.240 3222.202 14459.795 26362.650 6289.495 319.285 7027.087 5561.878 12957.454 6984.441 3134.763 6320.009 9126.441 5934.551 13346.741 22876.329 3300.346 22424.313 13087.870 6590.710 11132.331 2720.881 7667.535 15247.267 6430.449 6902.384 2086.593 5562.739 9892.391 7660.466 2095.072 20181.147 7518.664 2877.768 7529.042 2189.740 2090.709 120.738 2535.031 14490.848 8440.606 14330.628 3701.571 4503.763 12133.412 7993.157 19734.780 2401.726 4592.127 19719.665 6201.068 2697.545 4477.255
21582.711 2612.740 14464.539 5803.682 10106.947 4155.115 7605.271 3826.052 2131.108 2515.778 2212.664 4964.373 20025.003 3843.134 3815.283 1065.689 9912.926 3027.365 2497.510 0.000 1018.082 6490.931 4409.160 7329.425 9132.394 5182.016 7978.247 7578.554 2278.395 1695.390 875.586 195.419 1897.786 3650.351 14592.261 914.731 7962.501 5292.168 23941.060 15426.474 2895.452 3493.989 3492.147 2957.691 7819.518 5704.012 433.872 5698.975 9386.485 11613.782 3732.279 1078.936 14772.658 880.576 4503.581 15000.348 5557.189 3152.246 6586.912 1746.832 15118.589 24247.229 3883.608 2655.423 7523.633 6105.339 10948.646 9477.278 2459.664 3951.459 8792.269 4207.725 14070.159 21759.698 1130.948 19969.769 15584.503 6620.080 10587.488 2350.119 5183.602 17723.618 6241.341 5969.462 2727.029 7691.340 7577.181 10127.206 2834.540 17771.541 10013.124 392.125 5091.602 3335.267 4038.643 2550.382 1240.557 12765.637 8379.214 16821.503 4561.972 3475.014 11688.200 8337.920 19187.575 1794.532 7042.364 19168.225 6407.865 4825.105 5600.236
21732.074 3445.121 13494.522 6785.240 10878.722 4279.288 6643.612 4425.282 3106.313 3361.578 3005.430 4602.413 19279.866 3982.569 2831.948 323.743 8927.718 3647.678 3397.148 1018.082 0.000 5804.532 3571.098 7789.834 9985.878 4876.635 8453.780 6588.358 2080.402 2070.339 1500.114 822.722 2706.956 4262.980 15208.535 104.043 8530.570 6206.401 22923.145 14510.401 3841.212 2481.276 4404.636 2385.011 8297.840 6694.246 1439.748 6000.340 10108.001 11650.724 3140.507 120.197 15385.190 1207.233 4047.099 14557.288 6054.320 2589.519 5995.760 1339.304 15942.236 23229.222 2900.908 3504.453 7379.921 6983.966 10697.880 10318.536 3255.460 2951.718 9389.737 4338.091 14913.058 21947.474 395.357 19027.423 16435.006 7369.801 9977.614 2373.186 4455.267 18643.661 5868.739 6417.644 3723.469 8258.544 6569.508 10918.321 3834.060 16798.916 10902.483 655.695 4479.668 3745.971 4650.073 3466.310 1302.218 12685.470 7988.497 17647.041 5523.553 2934.786 11101.479 9136.267 18521.708 1925.275 7829.135 18501.040 6188.627 5465.009 6575.243
18411.054 7191.148 9179.042 10606.204 12317.745 4673.852 7328.558 10226.806 7655.614 9001.421 8702.238 9297.277 20631.514 9587.989 5456.170 5557.680 5417.765 6466.669 8953.855 6490.931 5804.532 0.000 2434.784 7877.678 12177.472 2647.941 14226.096 3980.157 7579.648 7872.378 6105.145 6355.400 8388.072 6672.346 21013.067 5861.120 9045.043 9521.183 19908.494 14459.326 7984.259 4967.183 9911.720 7195.599 8338.548 10633.177 6715.560 11677.413 11298.264 16771.972 7599.858 5853.833 21189.677 7007.041 8612.232 9066.399 6999.321 7339.526 9642.620 6839.336 17330.559 20174.228 3750.685 9139.033 12280.564 9869.802 6134.380 15928.587 6954.402 3952.536 9891.821 4702.712 16538.893 18816.923 6090.821 14192.849 22007.970 9298.010 12906.323 8017.442 1367.210 23977.062 10321.581 6946.322 8264.475 14061.124 4531.833 16611.142 8380.307 12382.209 16391.930 6142.238 1459.359 9530.274 10450.253 8989.127 7083.325 8736.017 12109.013 23273.677 9360.728 7609.969 14038.270 11031.978 20489.035 7674.126 13530.714 20460.334 11013.974 11261.078 10354.858
20229.926 5785.156 10231.305 9371.298 12139.307 4251.211 5730.911 7969.689 5986.417 6904.399 6565.362 6877.383 19173.098 7189.222 3098.667 3379.049 5832.878 5330.875 6905.355 4409.160 3571.098 2434.784 0.000 8062.599 11678.782 3087.924 11871.512 3655.232 5186.071 5593.573 4250.248 4244.528 6260.034 5734.492 18714.075 3645.085 9121.180 8451.818 20320.092 13442.343 6493.375 2568.068 7901.106 4761.222 8575.772 9349.463 4716.320 9284.926 11190.805 14347.551 5175.045 3596.891 18887.581 4772.253 6194.200 11490.376 6729.698 4904.790 7361.557 4465.702 17276.504 20608.463 1370.568 7046.338 9862.979 8994.158 8254.392 13873.394 5540.234 1605.353 10016.639 4304.170 16373.075 20570.492 3800.059 15629.487 19986.425 8790.659 10857.910 5645.241 1113.587 22121.439 7934.299 6855.109 6635.532 11753.614 3918.084 14488.236 6755.375 13534.096 14422.277 4027.824 1608.586 7207.478 8196.830 6959.537 4788.297 10675.729 9790.626 21210.338 8069.742 5177.270 12007.338 10618.751 18821.579 5346.382 11398.699 18795.241 8596.438 9016.202 9128.520
14691.978 5095.784 16921.735 5713.448 4536.869 3879.498 13604.095 10085.721 6058.281 8395.169 8447.286 12289.631 26860.697 10956.238 10068.092 7510.600 13270.183 4338.688 8127.024 7329.425 7789.834 7877.678 8062.599 0.000 4840.838 5300.602 13984.142 11494.080 9607.658 8842.887 6465.700 7413.088 8244.339 3740.125 19406.384 7728.335 1187.197 4554.540 27783.265 21467.457 5502.216 9499.862 8464.417 10165.943 523.276 5901.001 7060.540 12408.667 3491.995 18583.783 10928.992 7909.895 19597.855 8192.841 11797.035 11840.843 1778.630 10369.794 13784.658 9016.019 9454.456 28046.804 8889.726 8446.286 14779.430 4091.747 7147.934 13183.660 5112.611 9129.161 2014.894 3820.224 8692.025 14758.389 8152.249 21476.633 18440.776 2651.524 17755.608 9639.184 7652.700 19490.769 13567.561 1372.190 6079.593 13375.504 11886.926 14165.658 6102.493 19998.042 13121.837 7378.120 6941.188 10130.662 10208.987 8053.164 8568.519 7411.527 15705.115 19848.413 5253.894 10711.640 18885.879 3675.738 26238.009 9076.454 11669.674 26215.815 13715.525 10710.808 5534.234
16919.118 6542.493 21354.881 4037.899 1632.222 7572.295 16558.003 10182.389 7089.135 8803.033 9063.855 13692.319 29107.717 11737.346 12752.814 9818.668 17362.478 6516.290 8504.833 9132.394 9985.878 12177.472 11678.782 4840.838 0.000 9531.989 13136.171 15322.804 11145.765 10052.269 8488.175 9296.035 9019.941 6001.095 17087.029 9891.792 3780.044 3915.624 31941.783 24476.575 6295.361 12288.087 8257.894 12037.812 4633.065 4259.194 8722.000 12468.495 1997.428 18451.496 12795.823 10089.042 17273.974 9786.377 13400.973 16558.385 5181.084 12218.873 15569.007 10828.511 6006.058 32221.712 12089.115 8774.225 15493.087 3038.977 11910.953 10772.419 6731.455 12280.607 3431.807 7532.707 4938.838 16749.326 10231.676 26152.213 14990.542 2903.206 19523.724 10943.347 11610.690 15476.624 14889.494 5297.941 6655.808 12340.876 15590.430 11820.588 6589.648 24527.315 10348.842 9376.196 10979.896 10681.552 10202.711 8390.221 10174.846 11709.516 16937.980 16406.659 4817.841 12512.224 20568.018 1180.895 28154.668 10447.045 10168.033 28137.792 14705.879 10355.184 4089.714
17291.090 5020.617 11822.892 8189.766 9684.924 2115.231 8817.799 8990.725 5693.974 7507.225 7295.173 9220.580 22260.994 8855.382 5875.642 4560.864 7977.769 4147.513 7383.734 5182.016 4876.635 2647.941 3087.924 5300.602 9531.989 0.000 13158.807 6225.421 6937.092 6823.507 4518.286 5113.166 6985.218 4220.812 19679.556 4887.819 6447.036 7041.677 22527.552 16453.963 5834.654 5281.785 8237.161 6941.282 5783.372 8244.125 5250.080 10835.215 8673.111 16499.901 7554.336 4970.142 19863.340 5930.126 8577.140 9844.327 4352.168 7128.097 10108.504 6172.624 14730.090 22796.914 4278.034 7630.001 12141.621 7307.577 5821.297 14169.226 4808.398 4536.293 7312.543 2132.106 13915.667 17594.446 5254.107 16743.271 20139.674 6659.907 13803.613 7248.958 2406.226 21898.136 10412.163 4304.407 6224.018 12844.317 6660.026 14950.184 6329.595 15008.544 14507.166 4935.335 1676.991 8502.510 9196.177 7387.983 6144.113 7919.001 12423.337 21456.777 7006.933 7457.570 14957.361 8384.348 21893.068 6776.358 11938.422 21867.159 10904.521 9957.108 7938.587
28675.464 9072.644 20650.593 9191.015 14675.080 11880.118 11655.529 4185.295 8098.188 5810.034 5927.078 6208.189 19226.721 4744.850 9520.027 8731.658 16136.243 10029.814 6019.406 7978.247 8453.780 14226.096 11871.512 13984.142 13136.171 13158.807 0.000 13933.931 6701.510 6392.138 8674.578 8057.816 6220.938 10486.274 6930.972 8410.873 14101.806 9859.974 28107.277 17321.384 8512.818 9729.065 5522.388 7372.293 14350.488 8958.181 7926.436 2696.785 14448.108 5540.676 7359.750 8391.573 7093.335 7284.865 6712.800 22971.909 12338.563 7307.316 7791.858 7405.852 18554.674 28439.435 10799.621 5717.113 4890.712 10701.138 18884.132 4656.217 9146.232 10703.907 14676.683 11921.382 17404.726 28724.210 8141.908 26324.189 9661.178 12042.394 10044.482 6226.892 12861.676 12606.224 6270.749 12841.197 7933.197 882.225 13625.486 4385.516 7897.272 23808.250 5723.946 8247.903 12933.035 4707.851 3994.632 6062.707 7155.687 20505.910 6984.474 10525.051 8946.815 7179.503 10604.922 13017.002 17622.207 6553.225 3179.381 17618.194 5313.354 3323.941 9214.660
22189.783 9366.200 6935.714 12958.106 15725.838 7818.614 3978.308 10551.954 9441.299 9881.683 9493.854 7998.999 16793.968 9231.685 4444.323 6517.907 2342.943 8975.900 9956.965 7578.554 6588.358 3980.157 3655.232 11494.080 15322.804 6225.421 13933.931 0.000 7459.832 8280.871 7659.443 7388.911 9222.623 9389.590 20862.217 6685.786 12607.779 12084.175 16667.488 10489.077 10026.867 4373.460 10961.989 6598.238 11989.672 12920.660 7961.623 11237.662 14753.578 15138.431 6584.754 6562.145 21021.728 7646.497 7367.620 11664.774 10303.223 6640.195 7483.553 6942.506 20842.801 16957.312 3695.284 10023.243 10729.217 12646.231 9793.474 16704.126 9123.768 3639.307 13491.138 7866.616 19968.173 22638.493 6656.826 12546.170 22794.058 12427.642 9892.521 7986.841 3841.391 25154.381 8631.813 10376.776 10094.696 14018.222 645.692 17180.915 10213.595 10228.060 17379.336 7188.170 4557.691 9627.636 10777.291 10035.247 7510.002 12506.098 9920.332 23932.465 11652.343 6754.472 10949.998 14248.669 16805.429 7904.668 14141.741 16774.807 9540.918 11580.778 12720.033
23770.164 4778.657 14361.333 7494.681 12233.078 6303.975 6310.884 3106.543 4065.666 2903.150 2500.643 2689.252 17965.306 2008.518 3044.902 2403.803 9765.045 5298.474 3112.617 2278.395 2080.402 7579.648 5186.071 9607.658 11145.765 6937.092 6701.510 7459.832 0.000 1184.491 3145.031 2201.533 2364.759 5919.216 13591.376 2090.089 10228.582 7235.779 23063.778 13782.374 4856.659 3106.319 3977.467 1082.526 10097.813 7348.002 2580.938 4099.937 11566.580 9572.251 1716.929 1977.100 13760.656 1432.866 2274.390 16508.665 7835.503 1195.269 4425.900 768.608 17151.821 23381.258 4105.898 3019.294 5318.484 8109.111 12755.445 9283.065 4663.655 4026.584 11047.758 6360.759 16073.686 23969.051 1690.395 20000.734 15346.244 8792.001 8405.760 528.529 6212.836 17795.313 3964.559 8246.454 4503.684 6649.190 7264.718 9723.941 4581.217 17620.513 10020.652 2268.438 6372.525 2168.312 3328.429 3227.059 1043.774 14765.868 6102.120 16473.205 6386.788 1412.159 9483.020 10442.560 17033.001 729.336 6707.061 17015.010 4157.611 4123.331 7330.757
23235.611 3843.191 15214.962 6334.048 11194.543 5843.189 7451.230 2376.726 3027.360 1749.530 1340.569 3653.773 19085.201 2163.452 3991.836 2340.017 10615.189 4504.778 1938.662 1695.390 2070.339 7872.378 5593.573 8842.887 10052.269 6823.507 6392.138 8280.871 1184.491 0.000 2533.170 1723.365 1181.400 5106.104 13142.139 2021.551 9369.600 6136.645 24154.598 14966.812 3800.821 3917.693 2845.895 2248.553 9313.495 6181.547 1821.597 4017.420 10572.049 9931.832 2899.552 2018.707 13318.152 896.901 3355.880 16591.193 7064.753 2376.446 5530.682 1357.139 16054.679 24469.809 4722.967 1875.101 5936.937 7025.976 12618.898 8432.049 3768.236 4701.116 10157.298 5894.700 14966.108 23397.387 1794.305 20817.692 14538.244 7803.636 9471.568 891.166 6518.457 16878.873 4889.521 7508.147 3396.509 6188.956 8151.656 8961.483 3464.205 18498.312 9100.522 1889.261 6547.205 1688.999 2604.365 2050.644 808.044 14460.957 7000.586 15712.738 5260.450 2593.236 10523.338 9396.822 18102.915 463.169 5887.995 18085.897 4894.857 3424.738 6177.334
20714.776 1953.064 14452.443 5402.234 9384.021 3314.455 8108.085 4491.443 1783.146 2996.307 2777.648 5823.932 20760.596 4694.593 4289.396 1341.473 9961.993 2197.312 2896.125 875.586 1500.114 6105.145 4250.248 6465.700 8488.175 4518.286 8674.578 7659.443 3145.031 2533.170 0.000 947.629 2469.415 2820.813 15167.601 1409.224 7126.831 4738.985 24190.409 15998.339 2431.056 3874.980 3817.647 3751.494 6959.652 5333.353 752.403 6491.832 8626.733 12464.820 4526.083 1607.182 15350.651 1755.509 5342.901 14362.563 4698.050 3951.628 7391.668 2564.348 14442.187 24491.507 4003.142 3123.274 8398.441 5495.167 10211.349 9831.270 1756.730 4123.051 7968.201 3364.859 13413.444 20887.885 1782.651 19879.733 15902.882 5878.102 11389.947 3224.614 4868.060 17919.024 7101.864 5102.140 2435.787 8330.602 7731.323 10543.875 2554.436 17759.996 10288.740 938.889 4661.699 4113.606 4690.704 2915.514 2113.464 11954.242 9239.432 17172.784 4112.888 4284.795 12500.365 7637.166 19968.458 2667.033 7486.123 19948.450 7282.777 5440.749 5179.990
21612.029 2765.546 14279.160 5992.304 10254.606 4164.283 7418.199 3924.044 2316.775 2666.162 2348.425 4876.603 19877.216 3845.135 3624.078 883.151 9724.395 3133.923 2661.340 195.419 822.722 6355.400 4244.528 7413.088 9296.035 5113.166 8057.816 7388.911 2201.533 1723.365 947.629 0.000 2035.706 3757.902 14703.571 719.460 8068.324 5466.762 23745.643 15247.822 3075.103 3298.998 3660.890 2825.117 7907.280 5894.360 624.695 5739.859 9523.870 11609.631 3600.659 884.219 14883.257 859.125 4397.683 14914.820 5645.627 3022.498 6461.814 1624.127 15277.418 24051.820 3694.572 2807.073 7481.280 6272.957 10897.763 9633.569 2603.307 3759.590 8904.583 4218.351 14232.609 21796.439 948.402 19789.966 15743.754 6761.538 10462.126 2315.875 5038.930 17897.469 6154.597 6048.732 2918.062 7789.405 7384.177 10273.136 3026.290 17585.752 10179.762 216.984 4967.161 3390.224 4139.990 2718.466 1182.489 12748.296 8292.040 16975.732 4746.179 3350.711 11567.487 8490.241 19054.141 1771.324 7186.008 19034.547 6349.562 4934.575 5787.499
22819.615 3148.977 16152.919 5209.213 10232.857 5672.442 8614.332 2037.048 2207.174 659.952 315.673 4687.071 20185.680 2797.632 5066.032 2881.287 11565.339 3983.376 774.524 1897.786 2706.956 8388.072 6260.034 8244.339 9019.941 6985.218 6220.938 9222.623 2364.759 1181.400 2469.415 2035.706 0.000 4530.173 12718.023 2624.039 8649.106 5116.802 25275.575 16146.687 2902.222 4917.563 1749.349 3428.548 8685.505 5046.254 1737.911 4204.786 9670.544 10347.012 4076.321 2703.995 12899.792 1576.210 4466.760 16828.227 6488.009 3557.815 6638.572 2447.754 15006.360 25588.947 5573.832 802.409 6653.720 6023.572 12665.643 7614.871 3142.471 5592.180 9390.724 5716.018 13905.250 22941.302 2571.144 21714.568 13730.288 6930.143 10531.019 2011.134 7074.632 15951.555 5869.601 6962.946 2413.294 5861.187 9143.166 8238.682 2457.683 19450.240 8198.765 2251.231 6988.144 1886.648 2227.735 879.216 1764.266 14321.350 7930.875 14950.447 4203.229 3769.002 11556.584 8433.195 19152.811 1643.399 5150.709 19136.786 5734.352 2971.932 5066.090
18300.597 1417.869 15739.495 3969.359 6690.412 2127.665 10624.809 6443.889 2399.632 4745.212 4752.218 8608.467 23536.902 7216.744 6865.681 4028.998 11522.336 624.002 4498.425 3650.351 4262.980 6672.346 5734.492 3740.125 6001.095 4220.812 10486.274 9389.590 5919.216 5106.104 2820.813 3757.902 4530.173 0.000 16391.822 4185.081 4312.156 2848.889 26053.359 18561.761 2043.220 6360.596 5006.068 6572.206 4207.407 4024.713 3345.581 8724.374 5867.924 14876.851 7346.526 4379.117 16581.499 4490.271 8152.998 13452.543 1966.293 6772.440 10212.402 5381.578 11814.405 26340.668 6089.170 4813.783 11041.015 3271.290 8911.201 10455.809 1387.946 6284.156 5147.580 2124.967 10833.915 18413.015 4586.704 20865.063 16222.298 3192.053 14210.125 5916.427 5832.690 17793.717 9883.058 2433.109 2599.155 9958.804 9620.160 11342.099 2661.635 18996.920 10637.515 3758.522 5299.807 6411.115 6587.524 4440.299 4875.471 10123.957 12019.778 17580.191 2807.377 7105.159 15321.170 5017.696 22779.891 5355.033 8533.566 22759.532 9989.626 7166.888 3718.037
33779.612 15067.524 27533.566 13837.149 18718.874 18127.690 18403.265 10790.664 14175.003 12172.989 12403.729 13030.821 23453.501 11667.915 16450.756 15460.483 23048.705 16067.217 12299.916 14592.261 15208.535 21013.067 18714.075 19406.384 17087.029 19679.556 6930.972 20862.217 13591.376 13142.139 15167.601 14703.571 12718.023 16391.822 0.000 15152.840 19199.094 14881.665 34401.714 23110.508 14350.671 16650.329 11506.191 14301.149 19662.368 13620.811 14453.742 9625.170 18839.540 8600.905 14281.751 15160.692 191.491 14007.471 13585.227 29518.425 17996.544 14238.174 14357.399 14265.955 21274.424 34737.726 17697.273 12049.558 11028.481 15520.168 25204.234 6342.224 15205.436 17612.423 19553.067 18158.694 20196.605 33697.608 14931.320 33203.664 5321.418 17018.748 15607.360 13097.845 19660.585 8457.229 12851.412 18499.048 13812.664 6960.461 20543.457 5305.298 13739.117 30651.783 6770.531 14909.108 19663.184 11506.730 10569.664 12302.332 13937.657 26497.576 12901.917 5262.524 14156.666 14108.127 15793.780 17401.631 21486.275 13367.709 7859.453 21493.470 11849.621 9768.997 13968.348
21703.573 3350.093 13589.202 6682.211 10791.277 4244.656 6744.483 4365.950 3003.185 3276.787 2924.785 4641.168 19362.280 3967.720 2934.073 328.199 9024.492 3568.064 3307.310 914.731 104.043 5861.120 3645.085 7728.335 9891.792 4887.819 8410.873 6685.786 2090.089 2021.551 1409.224 719.460 2624.039 4185.081 15152.840 0.000 8459.865 6107.359 23026.761 14607.921 3739.684 2585.310 4314.370 2440.052 8235.007 6590.805 1335.740 5973.093 10024.592 11654.239 3200.666 197.959 15329.918 1145.976 4094.778 14589.330 5988.267 2644.396 6060.215 1362.842 15851.007 23332.779 2996.361 3419.577 7399.557 6887.539 10708.113 10237.792 3162.550 3050.345 9316.775 4303.006 14820.213 21915.198 429.904 19118.420 16353.845 7283.328 10045.850 2361.954 4515.757 18554.497 5910.456 6356.248 3619.666 8206.103 6670.025 10843.161 3730.178 16894.049 10816.445 551.993 4525.659 3703.402 4589.920 3374.968 1269.559 12678.570 8033.836 17568.776 5421.492 2988.505 11167.716 9046.373 18596.603 1898.182 7753.657 18576.059 6214.850 5403.089 6472.541
14656.104 5535.277 18106.913 5369.347 3352.887 4884.766 14572.451 10370.453 6442.211 8713.305 8818.592 12917.456 27733.902 11421.475 10955.388 8271.933 14424.165 4935.491 8429.332 7962.501 8530.570 9045.043 9121.180 1187.197 3780.044 6447.036 14101.806 12607.779 10228.582 9369.600 7126.831 8068.324 8649.106 4312.156 19199.094 8459.865 0.000 4347.004 28953.406 22470.940 5788.217 10403.097 8632.443 10873.523 858.548 5581.058 7649.956 12724.525 2306.775 18911.413 11645.757 8649.221 19390.382 8797.366 12464.865 12788.987 2510.111 11075.077 14511.959 9690.733 8286.625 29218.386 9873.018 8746.160 15274.960 3686.009 8131.447 12903.384 5601.629 10104.984 898.708 4828.680 7508.605 14653.573 8872.973 22656.091 17920.022 2180.974 18504.451 10205.311 8770.001 18801.924 14190.312 2274.693 6343.879 13440.392 12982.161 13913.135 6344.524 21185.220 12747.868 8060.779 8067.461 10526.100 10471.351 8342.892 9184.908 8097.452 16325.509 19335.718 5184.784 11410.552 19621.813 2659.389 27044.989 9647.195 11595.089 27023.814 14264.453 10898.590 5230.832
19001.370 2803.133 18562.418 1245.184 5139.484 4927.738 12844.375 6439.103 3197.176 4946.635 5179.023 9778.656 25200.926 7867.271 9025.950 6079.598 14279.749 3130.755 4646.531 5292.168 6206.401 9521.183 8451.818 4554.540 3915.624 7041.677 9859.974 12084.175 7235.779 6136.645 4738.985 5466.762 5116.802 2848.889 14881.665 6107.359 4347.004 0.000 28742.316 20711.693 2406.908 8610.201 4555.494 8148.969 4782.314 1388.404 4868.928 8783.976 4684.750 14907.144 8899.587 6300.905 15073.131 5895.167 9486.360 15830.416 3435.983 8325.691 11655.993 6947.856 9919.360 29035.432 8595.738 4933.268 11671.820 915.574 11163.583 8631.053 3027.688 8755.295 4832.647 4914.580 8837.915 18986.835 6413.825 23713.758 13980.748 2200.067 15608.123 7027.725 8650.448 15269.052 10982.826 3882.167 2740.212 9157.192 12257.654 9619.647 2674.796 21829.918 8578.942 5570.732 8141.081 6836.079 6492.783 4536.753 6279.150 11880.755 13046.084 15376.660 959.038 8611.936 16654.232 3349.542 24239.186 6533.203 7251.342 24222.270 10831.608 6781.963 1021.865
34422.826 25993.273 11133.932 29570.863 32211.343 24376.723 16807.296 26017.014 25962.709 25896.813 25487.237 22096.472 15805.618 24206.699 20222.555 22934.182 14582.645 25642.669 26049.441 23941.060 22923.145 19908.494 20320.092 27783.265 31941.783 22527.552 28107.277 16667.488 23063.778 24154.598 24190.409 23745.643 25275.575 26053.359 34401.714 23026.761 28953.406 28742.316 0.000 11680.250 26608.971 20456.741 26999.000 21994.787 28235.502 29516.472 24359.953 25679.779 31200.281 26344.321 21558.236 22865.846 34512.877 23767.234 21773.589 21844.982 26827.179 21926.500 20321.518 22828.720 37237.663 337.020 20195.852 26026.868 23426.405 29313.552 23451.039 32022.635 25754.210 20067.388 29795.462 24418.824 36442.768 35121.255 22876.873 9477.343 37742.642 29038.724 18947.805 23556.952 20333.624 40534.208 21837.924 26826.851 26606.785 28549.182 16489.446 32205.701 26722.442 8854.108 32895.408 23570.175 20982.125 25011.681 26212.454 26149.203 23516.835 25972.365 21499.839 38629.537 28267.263 21844.550 19055.921 30837.144 17733.504 23705.527 29487.311 17698.173 22797.458 26898.371 29338.838
32526.260 17951.167 10769.780 21185.356 25248.467 17596.296 7937.551 16219.215 17551.070 16652.199 16262.804 11950.657 6920.725 14259.398 11724.108 14661.304 9905.438 17997.253 16883.462 15426.474 14510.401 14459.326 13442.343 21467.457 24476.575 16453.963 17321.384 10489.077 13782.374 14966.812 15998.339 15247.822 16146.687 18561.761 23110.508 14607.921 22470.940 20711.693 11680.250 0.000 18321.917 12203.779 17669.308 12735.121 21986.632 21061.198 15855.400 15230.547 24384.615 14792.765 12072.174 14412.996 23204.762 14920.342 11870.500 21036.804 19994.075 12593.092 9917.984 13860.174 30375.275 12014.364 12598.943 16754.684 12444.673 21492.898 20146.261 21668.717 17751.938 12370.467 23369.459 17654.201 29379.443 33018.345 14299.615 14638.915 26938.846 21752.788 7503.260 14165.753 14069.177 29927.607 11289.490 20197.761 18109.538 17911.925 9928.675 21645.699 18206.289 12023.918 22650.220 15141.128 14795.269 15262.619 16369.573 17000.392 14569.047 22894.593 10377.698 27672.745 19980.491 12380.213 7439.200 23568.054 7813.846 14508.096 19300.869 7776.345 12118.852 16895.273 20997.232
20184.640 814.097 16721.603 2971.287 7394.020 3921.480 10483.567 4596.123 793.806 2925.473 3042.831 7454.260 22812.770 5699.654 6672.782 3747.219 12298.011 1764.287 2644.110 2895.452 3841.212 7984.259 6493.375 5502.216 6295.361 5834.654 8512.818 10026.867 4856.659 3800.821 2431.056 3075.103 2902.222 2043.220 14350.671 3739.684 5788.217 2406.908 26608.971 18321.917 0.000 6290.947 2997.129 5746.104 5903.800 2907.573 2467.777 6940.990 6784.608 13128.119 6501.121 3928.927 14540.191 3492.734 7122.603 15394.233 3825.798 5925.111 9282.550 4541.995 12300.181 26908.552 6413.313 2962.318 9555.677 3256.429 10911.626 8469.732 1036.058 6544.877 6502.462 3939.148 11230.675 20260.354 4023.480 22050.610 14336.178 4031.096 13254.966 4687.973 6908.899 16070.311 8686.716 4328.517 580.017 7950.968 10132.606 9331.247 623.154 20020.614 8716.387 3193.584 6532.504 4753.303 4711.030 2562.109 3879.841 12166.184 10784.856 15672.812 1685.867 6216.867 14318.111 5597.158 21885.584 4170.498 6491.596 21867.931 8621.523 5215.680 2749.468
22572.795 5811.137 11301.333 9252.104 13050.612 5658.546 4271.428 6181.388 5578.027 5569.287 5170.524 4334.161 17362.144 4984.364 598.319 2543.737 6700.517 5793.587 5675.620 3493.989 2481.276 4967.183 2568.068 9499.862 12288.087 5281.785 9729.065 4373.460 3106.319 3917.693 3874.980 3298.998 4917.563 6360.596 16650.329 2585.310 10403.097 8610.201 20456.741 12203.779 6290.947 0.000 6666.909 2375.175 10022.726 9167.514 3920.381 7059.460 12206.916 11809.718 2649.183 2415.173 16816.244 3354.111 3648.225 14033.141 7894.982 2476.215 4851.433 2570.849 18171.864 20764.598 1216.632 5708.303 7314.476 9340.846 10784.473 12331.281 5596.730 1034.986 11293.733 5720.058 17177.503 22873.053 2422.195 16919.307 18421.205 9549.918 8538.759 3628.694 3681.411 20796.446 5366.553 8162.546 6202.546 9734.564 4236.206 12812.316 6314.000 14581.176 13017.563 3135.986 4106.023 5272.168 6407.465 5764.458 3168.109 13126.466 7242.581 19566.037 7976.809 2698.289 9692.415 11364.483 16803.750 3532.133 9768.361 16779.962 6048.188 7214.896 9037.132
23156.382 3615.288 17887.034 4239.351 9641.945 6622.534 10285.785 1925.870 2680.076 1104.638 1512.924 5898.435 21376.392 3668.199 6806.920 4539.560 13304.923 4604.925 1007.785 3492.147 4404.636 9911.720 7901.106 8464.417 8257.894 8237.161 5522.388 10961.989 3977.467 2845.895 3817.647 3660.890 1749.349 5006.068 11506.191 4314.370 8632.443 4555.494 26999.000 17669.308 2997.129 6666.909 0.000 5059.988 8839.553 4032.660 3206.385 4234.888 9239.903 10357.124 5631.129 4415.324 11693.222 3320.803 5831.030 18040.118 6819.880 5162.842 7941.884 4175.900 14120.920 27313.750 7297.098 972.222 7259.400 5456.716 13700.234 6016.944 3726.266 7326.167 9261.637 6654.423 12990.492 23214.469 4305.220 23431.970 12106.471 6654.500 11667.983 3531.525 8641.252 14240.884 6939.919 7323.928 2419.990 4955.842 10890.909 6731.733 2377.653 21187.328 6521.372 3876.505 8475.959 2571.830 1949.305 942.439 3509.061 15110.754 8850.355 13362.199 3599.072 5324.138 12624.526 7879.143 20215.199 3300.239 3701.806 20201.642 6577.935 2266.267 4168.543
24045.153 5562.838 13443.481 8486.512 13057.296 6637.196 5229.537 4093.403 4953.029 3983.215 3578.799 2285.890 17081.544 2638.347 2156.672 2683.724 8863.963 5948.805 4186.051 2957.691 2385.011 7195.599 4761.222 10165.943 12037.812 6941.282 7372.293 6598.238 1082.526 2248.553 3751.494 2825.117 3428.548 6572.206 14301.149 2440.052 10873.523 8148.969 21994.787 12735.121 5746.104 2375.175 5059.988 0.000 10670.741 8349.744 3337.450 4691.216 12344.171 9639.394 775.555 2264.979 14464.910 2253.834 1678.078 16232.633 8418.675 204.511 3640.196 1215.552 18038.470 22313.122 3522.635 4100.789 5211.281 8999.615 12699.759 10260.796 5416.789 3387.374 11719.154 6697.139 16975.380 24279.936 2013.919 19101.506 16286.447 9576.904 7638.889 1562.220 5849.637 18793.453 3519.872 8794.187 5446.984 7421.153 6348.949 10652.315 5533.649 16680.078 11030.547 2813.969 6127.160 3109.320 4306.831 4298.871 1872.412 14852.503 5618.478 17383.114 7336.299 550.634 8749.382 11280.842 16230.268 1785.547 7681.063 16210.834 3964.880 5071.975 8312.070
14330.406 5537.556 17342.792 5894.150 4176.494 4401.726 14126.357 10497.696 6489.078 8813.815 8880.214 12782.628 27383.222 11415.214 10590.476 8021.130 13741.530 4814.506 8540.809 7819.518 8297.840 8338.548 8575.772 523.276 4633.065 5783.372 14350.488 11989.672 10097.813 9313.495 6959.652 7907.280 8685.505 4207.407 19662.368 8235.007 858.548 4782.314 28235.502 21986.632 5903.800 10022.726 8839.553 10670.741 0.000 6092.587 7541.818 12831.529 3130.330 19013.100 11435.462 8417.798 19853.851 8678.602 12296.520 11950.866 2262.332 10874.359 14293.491 9515.022 9008.518 28497.051 9411.653 8859.990 15247.516 4234.850 7283.127 13406.873 5566.779 9651.451 1568.933 4342.306 8275.276 14375.245 8657.702 21836.031 18562.975 2743.488 18267.842 10118.835 8148.708 19529.715 14060.207 1883.666 6477.135 13724.479 12389.238 14400.823 6493.565 20397.383 13306.191 7876.947 7433.657 10572.029 10614.829 8463.290 9056.924 7349.928 16198.059 19974.943 5538.363 11215.430 19396.715 3498.778 26756.637 9556.504 11969.306 26734.523 14194.309 11095.497 5730.667
20184.526 3564.455 19551.602 233.544 5732.735 6149.448 13303.908 5956.828 3589.559 4706.767 5022.837 9712.762 25226.801 7618.365 9518.303 6629.670 15174.594 4166.706 4420.254 5704.012 6694.246 10633.177 9349.463 5901.001 4259.194 8244.125 8958.181 12920.660 7348.002 6181.547 5333.353 5894.360 5046.254 4024.713 13620.811 6590.805 5581.058 1388.404 29516.472 21061.198 2907.573 9167.514 4032.660 8349.744 6092.587 0.000 5270.342 8215.405 5502.795 14202.449 9059.653 6772.007 13811.994 6140.928 9512.842 17204.921 4821.953 8507.129 11684.644 7201.305 10090.422 29815.897 9320.685 4653.984 11291.597 1899.664 12545.441 7324.738 3809.262 9452.041 5954.847 6143.543 8963.340 20137.143 6830.182 24800.051 12594.004 3400.113 15551.961 7050.241 9668.611 13899.190 10848.710 5270.562 2977.389 8199.173 13037.641 8332.083 2872.269 22839.797 7221.141 6038.935 9215.439 6535.463 5963.324 4300.416 6494.822 13258.885 12833.314 13991.374 1284.437 8758.226 16552.254 4061.459 24153.615 6620.525 6149.714 24138.673 10572.959 6096.074 369.240
21414.437 2226.699 14829.071 5369.823 9719.898 4054.606 8038.980 3745.895 1698.563 2301.907 2050.744 5268.165 20416.817 3983.559 4248.482 1446.089 10290.631 2729.111 2238.343 433.872 1439.748 6715.560 4716.320 7060.540 8722.000 5250.080 7926.436 7961.623 2580.938 1821.597 752.403 624.695 1737.911 3345.581 14453.742 1335.740 7649.956 4868.928 24359.953 15855.400 2467.777 3920.381 3206.385 3337.450 7541.818 5270.342 0.000 5744.541 9016.433 11745.666 4108.255 1507.536 14635.876 1148.173 4838.685 15091.444 5282.744 3527.416 6948.576 2121.898 14713.990 24665.457 4267.281 2435.335 7738.272 5690.495 10961.829 9217.886 2091.795 4346.645 8466.826 4103.626 13660.677 21576.022 1564.021 20313.740 15312.830 6245.031 10946.942 2578.884 5435.184 17405.146 6540.356 5712.229 2293.607 7594.238 7975.839 9897.833 2401.615 18137.179 9721.053 789.946 5292.409 3365.255 3948.045 2275.166 1539.327 12701.596 8675.919 16564.456 4129.872 3841.359 12039.768 7944.257 19557.881 2016.053 6823.732 19538.913 6655.189 4708.168 5166.626
27022.139 7323.507 17964.853 8432.530 13875.055 9797.323 9057.964 2361.581 6351.620 4018.535 3972.160 3610.592 17912.625 2097.445 6830.616 6300.836 13441.528 8187.374 4296.898 5698.975 6000.340 11677.413 9284.926 12408.667 12468.495 10835.215 2696.785 11237.662 4099.937 4017.420 6491.832 5739.859 4204.786 8724.374 9625.170 5973.093 12724.525 8783.976 25679.779 15230.547 6940.990 7059.460 4234.888 4691.216 12831.529 8215.405 5744.541 0.000 13468.138 6187.310 4663.756 5922.932 9785.851 4906.101 4056.066 20554.827 10670.530 4618.121 5404.346 4839.815 18252.219 26009.152 8158.984 3979.066 3311.309 9689.294 16636.218 6447.229 7337.263 8050.208 13408.941 9845.360 17110.801 27136.703 5654.572 23638.360 12082.394 10839.624 8326.564 3667.209 10310.248 14867.136 3947.923 11153.081 6380.678 2905.114 10929.638 6530.130 6381.752 21136.710 7419.683 5905.736 10441.149 2379.628 2291.300 4381.665 4703.999 18445.872 5257.882 13049.297 7825.386 4483.213 9100.918 12113.964 16532.207 4075.441 4105.465 16522.796 3138.956 2183.269 8382.543
15020.383 6792.729 20397.098 5269.259 1046.904 6945.036 16450.691 11119.463 7545.138 9582.890 9775.862 14215.752 29386.465 12462.558 12725.753 9888.845 16642.904 6468.208 9284.015 9386.485 10108.001 11298.264 11190.805 3491.995 1997.428 8673.111 14448.108 14753.578 11566.580 10572.049 8626.733 9523.870 9670.544 5867.924 18839.540 10024.592 2306.775 4684.750 31200.281 24384.615 6784.608 12206.916 9239.903 12344.171 3130.330 5502.795 9016.433 13468.138 0.000 19585.887 13118.512 10221.269 19028.421 10147.184 13840.137 14808.629 4461.211 12538.120 15964.936 11131.545 6089.884 31468.771 11813.932 9582.474 16302.589 3786.919 10232.078 12499.353 6928.029 12031.251 1644.956 6894.461 5242.563 14886.141 10409.379 24961.175 16945.059 2774.580 19962.230 11450.986 10937.211 17473.935 15461.436 4386.280 7258.626 13700.017 15093.386 13542.465 7222.114 23487.536 12157.113 9560.046 10253.019 11467.354 11176.842 9179.739 10542.593 9813.549 17567.632 18363.108 5642.854 12856.788 21048.744 1455.894 28573.157 10915.620 11633.568 28553.979 15402.524 11454.659 5233.634
33145.304 13490.025 20981.501 14429.529 19926.955 15768.839 11716.500 8542.538 12526.058 10204.294 10136.566 7475.688 14911.590 7771.250 11359.099 11973.234 16927.627 14319.916 10484.113 11613.782 11650.724 16771.972 14347.551 18583.783 18451.496 16499.901 5540.676 15138.431 9572.251 9931.832 12464.820 11609.631 10347.012 14876.851 8600.905 11654.239 18911.413 14907.144 26344.321 14792.765 13128.119 11809.718 10357.124 9639.394 19013.100 14202.449 11745.666 6187.310 19585.887 0.000 9172.907 11549.108 8660.581 10750.616 8161.502 25837.098 16834.298 9474.323 7678.733 10331.022 24030.426 26681.259 13025.457 10166.374 4501.680 15798.975 22306.428 9834.835 13489.413 12837.425 19588.925 15821.503 22880.226 33282.493 11262.526 26491.444 13255.486 17004.098 7403.563 9315.203 15454.405 16462.478 6552.958 17309.846 12567.762 6419.668 14641.042 9225.843 12567.574 23797.559 10888.517 11736.658 15765.373 8467.380 8451.622 10568.817 10456.258 24331.057 5409.831 13639.087 13953.913 9180.244 7360.942 18199.493 13024.997 9841.088 8719.641 13028.748 5764.288 8132.899 14412.499
24730.011 6334.631 13315.085 9202.917 13827.751 7362.245 4751.887 4459.120 5707.368 4586.499 4192.709 1706.092 16316.676 2753.021 2266.407 3430.202 8778.332 6723.312 4811.994 3732.279 3140.507 7599.858 5175.045 10928.992 12795.823 7554.336 7359.750 6584.754 1716.929 2899.552 4526.083 3600.659 4076.321 7346.526 14281.751 3200.666 11645.757 8899.587 21558.236 12072.174 6501.121 2649.183 5631.129 775.555 11435.462 9059.653 4108.255 4663.756 13118.512 9172.907 0.000 3020.321 14439.921 3009.721 1032.055 16664.208 9186.191 580.853 2866.407 1987.491 18798.820 21879.674 3859.262 4694.065 4690.815 9756.927 13260.454 10554.903 6190.716 3683.615 12492.985 7422.738 17731.789 24976.595 2778.300 18986.778 16512.304 10350.376 6863.901 2101.875 6283.655 19100.723 2857.971 9556.884 6184.806 7500.287 6265.886 10878.409 6267.937 16512.414 11371.854 3588.016 6626.937 3453.991 4657.084 4928.551 2621.327 15473.336 4912.063 17568.105 8073.495 308.316 7976.193 12049.089 15455.319 2446.169 7983.724 15435.950 3425.493 5370.935 9034.573
21846.563 3547.057 13475.786 6865.861 10989.026 4396.155 6554.642 4383.899 3186.889 3361.432 2997.874 4485.158 19165.908 3895.164 2748.235 434.243 8903.216 3762.994 3407.561 1078.936 120.197 5853.833 3596.891 7909.895 10089.042 4970.142 8391.573 6562.145 1977.100 2018.707 1607.182 884.219 2703.995 4379.117 15160.692 197.959 8649.221 6300.905 22865.846 14412.996 3928.927 2415.173 4415.324 2264.979 8417.798 6772.007 1507.536 5922.932 10221.269 11549.108 3020.321 0.000 15336.809 1175.449 3927.875 14632.336 6173.874 2469.489 5875.875 1229.461 16048.901 23172.567 2882.561 3504.345 7269.701 7083.587 10791.329 10308.524 3360.230 2923.085 9507.772 4455.079 15017.831 22063.264 286.810 19017.892 16425.358 7480.882 9858.312 2284.198 4500.105 18650.063 5750.648 6537.706 3798.073 8207.296 6531.903 10898.604 3907.483 16778.773 10902.614 735.905 4541.952 3684.931 4609.654 3480.122 1235.916 12789.944 7869.581 17632.175 5609.044 2814.835 10981.847 9244.331 18404.210 1850.977 7810.351 18383.586 6075.580 5426.604 6657.706
33970.061 15256.265 27684.153 14028.258 18905.733 18315.020 18544.016 10968.818 14362.771 12356.473 12585.642 13179.352 23494.731 11832.990 16613.337 15638.094 23204.019 16255.936 12484.562 14772.658 15385.190 21189.677 18887.581 19597.855 17273.974 19863.340 7093.335 21021.728 13760.656 13318.152 15350.651 14883.257 12899.792 16581.499 191.491 15329.918 19390.382 15073.131 34512.877 23204.762 14540.191 16816.244 11693.222 14464.910 19853.851 13811.994 14635.876 9785.851 19028.421 8660.581 14439.921 15336.809 0.000 14184.748 13737.320 29702.898 18187.539 14400.575 14491.048 14437.517 21447.354 34849.003 17866.501 12233.363 11152.530 15711.324 25391.797 6531.750 15393.729 17780.403 19743.809 18346.141 20371.098 33887.496 15106.574 33353.421 5387.192 17210.010 15702.261 13268.379 19836.470 8501.769 12987.510 18690.092 14001.745 7134.254 20700.050 5495.483 13928.400 30797.743 6953.942 15088.481 19841.747 11680.105 10748.200 12487.463 14112.863 26687.930 13013.979 5278.419 14348.088 14268.204 15876.400 17590.894 21518.807 13541.350 8048.813 21526.329 11985.402 9948.743 14159.621
22460.903 3354.834 14577.597 6266.504 10831.354 5021.512 7215.794 3219.985 2699.380 2235.231 1851.959 4120.242 19325.622 2986.615 3545.143 1454.805 9989.165 3871.245 2323.022 880.576 1207.233 7007.041 4772.253 8192.841 9786.377 5930.126 7284.865 7646.497 1432.866 896.901 1755.509 859.125 1576.210 4490.271 14007.471 1145.976 8797.366 5895.167 23767.234 14920.342 3492.734 3354.111 3320.803 2253.834 8678.602 6140.928 1148.173 4906.101 10147.184 10750.616 3009.721 1175.449 14184.748 0.000 3696.279 15694.798 6417.224 2432.570 5822.357 1063.004 15789.099 24078.272 4006.696 2376.957 6643.107 6747.621 11731.674 9146.239 3233.193 4018.170 9614.970 5075.184 14723.028 22639.711 1003.296 20145.512 15262.630 7373.293 9815.888 1469.555 5661.123 17521.730 5393.257 6837.410 3203.383 7063.434 7570.423 9725.468 3294.536 17874.265 9760.381 1002.903 5664.486 2585.456 3444.092 2410.444 395.416 13604.934 7529.570 16462.768 5090.525 2729.757 10902.525 9047.039 18435.110 915.936 6638.222 18416.561 5532.022 4258.077 6083.172
25720.980 7049.894 13949.876 9673.575 14506.063 8312.918 5029.662 4372.189 6334.226 4874.645 4514.665 686.153 15730.099 2453.332 3215.117 4352.959 9478.407 7529.413 5135.534 4503.581 4047.099 8612.232 6194.200 11797.035 13400.973 8577.140 6712.800 7367.620 2274.390 3355.880 5342.901 4397.683 4466.760 8152.998 13585.227 4094.778 12464.865 9486.360 21773.589 11870.500 7122.603 3648.225 5831.030 1678.078 12296.520 9512.842 4838.685 4056.066 13840.137 8161.502 1032.055 3927.875 13737.320 3696.279 0.000 17678.533 10037.424 1477.108 2175.511 2781.523 19405.720 22099.364 4864.049 4960.403 3669.052 10368.483 14292.143 10250.234 6928.823 4677.225 13295.628 8372.671 18320.302 25957.714 3665.120 19621.894 16088.453 11065.615 6133.263 2469.642 7305.096 18777.953 1845.091 10427.582 6747.005 6955.068 6992.382 10480.657 6817.865 17095.556 11127.483 4419.574 7657.643 3396.595 4539.142 5255.986 3301.546 16495.589 3942.973 17090.262 8616.283 1133.157 7208.827 12714.165 14763.024 2954.461 7717.558 14745.337 2402.383 5154.240 9524.284
12579.833 14608.984 11377.941 17075.570 15770.976 11482.144 15633.722 18823.389 15417.135 17349.587 17138.893 18363.397 27844.537 18503.046 14510.888 14263.312 11251.908 13629.946 17218.560 15000.348 14557.288 9066.399 11490.376 11840.843 16558.385 9844.327 22971.909 11664.774 16508.665 16591.193 14362.563 14914.820 16828.227 13452.543 29518.425 14589.330 12788.987 15830.416 21844.982 21036.804 15394.233 14033.141 18040.118 16232.633 11950.866 17204.921 15091.444 20554.827 14808.629 25837.098 16664.208 14632.336 29702.898 15694.798 17678.533 0.000 12407.601 16385.234 18611.914 15745.617 19449.276 22001.205 12816.512 17470.882 21346.963 15683.103 4704.472 23861.286 14434.579 13013.531 13184.948 11460.369 19142.598 13277.325 14900.457 13038.299 29671.462 14413.380 21523.072 16897.593 10387.239 31099.197 19377.147 12000.962 15869.080 22683.751 12304.945 24697.296 15961.222 12991.034 24088.003 14724.033 10138.791 18280.162 19032.105 17217.616 15858.140 5465.093 21098.805 31032.604 16156.674 16665.643 22601.436 15447.243 28180.176 16482.221 21737.557 28147.103 20080.371 19799.594 16846.453
16373.686 3347.057 16174.543 4678.912 5422.616 2486.098 12080.702 8366.756 4321.749 6669.602 6700.846 10520.425 25224.771 9182.535 8445.560 5785.622 12247.024 2560.192 6410.167 5557.189 6054.320 6999.321 6729.698 1778.630 5181.084 4352.168 12338.563 10303.223 7835.503 7064.753 4698.050 5645.627 6488.009 1966.293 17996.544 5988.267 2510.111 3435.983 26827.179 19994.075 3825.798 7894.982 6819.880 8418.675 2262.332 4821.953 5282.744 10670.530 4461.211 16834.298 9186.191 6173.874 18187.539 6417.224 10037.424 12407.601 0.000 8621.818 12048.422 7255.999 10548.955 27101.829 7397.109 6728.556 13001.542 3313.589 7730.274 11883.526 3347.710 7623.628 3398.751 2436.961 9665.370 16469.269 6407.976 21012.657 17398.004 2339.154 16031.396 7861.093 6508.306 18694.699 11797.942 507.011 4405.599 11766.520 10633.638 12827.719 4442.357 19348.497 11930.336 5618.258 5845.360 8372.116 8499.726 6342.801 6794.809 8539.448 13935.810 18787.412 3907.637 8961.544 17155.674 4032.988 24549.848 7298.436 10180.254 24528.340 11937.354 9037.912 4457.426
24244.403 5753.778 13459.913 8646.752 13246.999 6840.388 5142.820 4127.218 5131.546 4096.277 3695.179 2094.008 16895.874 2592.590 2212.853 2888.053 8889.439 6148.872 4307.885 3152.246 2589.519 7339.526 4904.790 10369.794 12218.873 7128.097 7307.316 6640.195 1195.269 2376.446 3951.628 3022.498 3557.815 6772.440 14238.174 2644.396 11075.077 8325.691 21926.500 12593.092 5925.111 2476.215 5162.842 204.511 10874.359 8507.129 3527.416 4618.121 12538.120 9474.323 580.853 2469.489 14400.575 2432.570 1477.108 16385.234 8621.818 0.000 3440.344 1406.769 18221.020 22245.788 3645.204 4210.346 5033.865 9180.176 12878.049 10280.490 5610.205 3499.605 11919.705 6900.382 17155.585 24480.633 2218.004 19122.825 16288.775 9769.682 7439.979 1641.071 5999.095 18819.194 3320.594 8998.098 5616.720 7379.754 6372.499 10652.945 5701.653 16686.858 11064.299 3014.780 6291.148 3133.081 4336.481 4422.260 2046.562 15041.823 5415.711 17374.410 7506.029 346.640 8548.761 11468.716 16035.393 1915.745 7701.561 16016.086 3782.821 5088.018 8475.011
27387.857 9173.074 13446.564 11847.118 16652.460 10154.946 4141.444 6340.900 8491.408 7025.170 6675.671 2060.912 13554.692 4375.023 4277.546 6275.091 9259.655 9588.978 7293.240 6586.912 5995.760 9642.620 7361.557 13784.658 15569.007 10108.504 7791.858 7483.553 4425.900 5530.682 7391.668 6461.814 6638.572 10212.402 14357.399 6060.215 14511.959 11655.993 20321.518 9917.984 9282.550 4851.433 7941.884 3640.196 14293.491 11684.644 6948.576 5404.346 15964.936 7678.733 2866.407 5875.875 14491.048 5822.357 2175.511 18611.914 12048.422 3440.344 0.000 4840.425 21574.717 20652.941 5993.775 7103.989 3442.304 12533.851 15614.739 11840.889 9038.826 5756.443 15359.239 10216.227 20492.146 27666.547 5641.410 19053.403 17422.819 13192.678 4000.635 4645.153 8456.378 20263.310 1524.738 12412.544 8918.138 8234.630 6968.513 11925.945 8990.534 16420.793 12788.650 6454.077 8942.072 5424.728 6477.329 7413.942 5427.349 17977.731 2490.500 18316.810 10790.612 3111.996 5109.860 14865.026 12612.790 5122.912 9407.793 12594.300 2515.144 6977.941 11699.198
23066.356 4347.550 13872.182 7328.611 11841.764 5605.501 6192.866 3630.218 3750.710 3071.493 2663.087 3293.719 18296.243 2760.714 2637.323 1662.359 9271.357 4757.576 3222.202 1746.832 1339.304 6839.336 4465.702 9016.019 10828.511 6172.624 7405.852 6942.506 768.608 1357.139 2564.348 1624.127 2447.754 5381.578 14265.955 1362.842 9690.733 6947.856 22828.720 13860.174 4541.995 2570.849 4175.900 1215.552 9515.022 7201.305 2121.898 4839.815 11131.545 10331.022 1987.491 1229.461 14437.517 1063.004 2781.523 15745.617 7255.999 1406.769 4840.425 0.000 16826.975 23142.463 3456.621 3204.426 6040.663 7791.483 11989.339 9761.676 4203.548 3406.292 10528.619 5663.523 15766.906 23276.586 944.139 19486.450 15856.804 8362.914 8841.060 1180.111 5472.167 18228.637 4568.821 7647.198 4265.943 7309.473 6799.132 10258.104 4357.504 17150.793 10448.945 1638.086 5612.478 2772.622 3858.035 3324.410 715.653 14016.049 6700.826 17013.039 6152.144 1728.430 9944.014 10065.520 17441.735 962.558 7202.687 17422.493 4852.014 4673.541 7146.052
15467.615 12513.656 26340.256 9890.388 5146.875 13034.158 22438.999 16041.533 13093.784 14754.866 15035.050 19687.851 35112.948 17686.680 18663.468 15756.919 22707.765 12379.594 14459.795 15118.589 15942.236 17330.559 17276.504 9454.456 6006.058 14730.090 18554.674 20842.801 17151.821 16054.679 14442.187 15277.418 15006.360 11814.405 21274.424 15851.007 8286.625 9919.360 37237.663 30375.275 12300.181 18171.864 14120.920 18038.470 9008.518 10090.422 14713.990 18252.219 6089.884 24030.426 18798.820 16048.901 21447.354 15789.099 19405.720 19449.276 10548.955 18221.020 21574.717 16826.975 0.000 37501.218 17857.248 14715.792 21380.136 9043.981 15290.425 15331.434 12690.112 18066.791 7443.818 12983.904 1150.335 15010.904 16204.670 30662.248 17937.144 8622.653 25524.635 16945.436 17021.811 17342.960 20873.141 10469.437 12659.104 17705.177 21182.464 16339.209 12590.616 29354.204 14615.396 15347.453 16331.866 16614.248 16037.333 14342.757 16178.599 14023.808 22900.069 19256.740 10804.924 18516.560 26562.083 6812.533 34153.992 16452.309 15420.792 34137.424 20651.121 16087.812 9989.000
34575.868 26289.695 11359.454 29869.095 32481.541 24654.591 17129.295 26338.646 26264.947 26211.239 25801.731 22424.488 16094.733 24531.252 20533.990 23238.251 14860.265 25933.124 26362.650 24247.229 23229.222 20174.228 20608.463 28046.804 32221.712 22796.914 28439.435 16957.312 23381.258 24469.809 24491.507 24051.820 25588.947 26340.668 34737.726 23332.779 29218.386 29035.432 337.020 12014.364 26908.552 20764.598 27313.750 22313.122 28497.051 29815.897 24665.457 26009.152 31468.771 26681.259 21879.674 23172.567 34849.003 24078.272 22099.364 22001.205 27101.829 22245.788 20652.941 23142.463 37501.218 0.000 20495.243 26341.568 23761.198 29602.491 23662.019 32348.859 26050.299 20368.475 30058.188 24696.338 36710.993 35278.507 23185.309 9545.841 38073.475 29318.528 19284.815 23875.333 20612.082 40862.128 22169.791 27097.780 26909.642 28879.691 16785.461 32534.463 27025.471 9014.642 33219.956 23875.596 21257.459 25333.352 26534.536 26462.088 23829.520 26171.170 21835.825 38962.089 28565.099 22165.451 19392.170 31114.583 18033.368 24021.301 29812.201 17998.158 23130.052 27222.076 29636.554
21530.042 5812.232 10593.918 9376.260 12711.719 5010.371 4715.772 7074.317 5784.457 6233.557 5857.801 5549.770 18079.258 6065.648 1728.436 2822.731 6029.933 5585.520 6289.495 3883.608 2900.908 3750.685 1370.568 8889.726 12089.115 4278.034 10799.621 3695.284 4105.898 4722.967 4003.142 3694.572 5573.832 6089.170 17697.273 2996.361 9873.018 8595.738 20195.852 12598.943 6413.313 1216.632 7297.098 3522.635 9411.653 9320.685 4267.281 8158.984 11813.932 13025.457 3859.262 2882.561 17866.501 4006.696 4864.049 12816.512 7397.109 3645.204 5993.775 3456.621 17857.248 20495.243 0.000 6376.191 8531.001 9244.807 9620.963 13141.387 5577.440 258.416 10771.312 5069.514 16904.095 21853.448 3004.393 16140.739 19254.291 9260.661 9546.287 4604.360 2478.165 21525.386 6577.193 7601.363 6434.930 10751.413 3728.916 13684.318 6552.652 13898.014 13767.072 3492.969 2953.411 6227.570 7302.808 6362.683 3923.107 12016.204 8420.100 20435.539 8074.224 3890.950 10698.711 11095.324 17637.321 4400.932 10609.429 17612.040 7264.635 8121.750 9145.957
23101.408 3396.726 16954.477 4839.159 10072.227 6182.588 9321.275 1639.595 2414.632 142.920 541.532 5088.651 20603.760 2970.944 5837.362 3668.020 12365.762 4324.968 319.285 2655.423 3504.453 9139.033 7046.338 8446.286 8774.225 7630.001 5717.113 10023.243 3019.294 1875.101 3123.274 2807.073 802.409 4813.783 12049.558 3419.577 8746.160 4933.268 26026.868 16754.684 2962.318 5708.303 972.222 4100.789 8859.990 4653.984 2435.335 3979.066 9582.474 10166.374 4694.065 3504.345 12233.363 2376.957 4960.403 17470.882 6728.556 4210.346 7103.989 3204.426 14715.792 26341.568 6376.191 0.000 6738.808 5848.832 13233.663 6827.492 3446.323 6394.176 9440.108 6221.343 13598.836 23195.215 3373.485 22516.914 12940.231 6897.786 10910.802 2592.542 7838.703 15149.215 6197.242 7220.292 2402.551 5277.009 9938.414 7473.263 2408.128 20251.143 7398.510 3023.970 7724.637 1907.986 1773.910 405.945 2543.853 14789.621 8185.931 14168.669 3983.301 4386.010 11900.512 8282.166 19501.440 2331.719 4392.067 19486.712 5936.594 2399.900 4727.537
29086.177 9740.646 16884.804 11496.016 16811.017 11621.071 7583.397 5339.947 8845.694 6727.088 6528.525 2985.782 14630.796 3858.702 6857.663 7703.007 12638.206 10441.698 7027.087 7523.633 7379.921 12280.564 9862.979 14779.430 15493.087 12141.621 4890.712 10729.217 5318.484 5936.937 8398.441 7481.280 6653.720 11041.015 11028.481 7399.557 15274.960 11671.820 23426.405 12444.673 9555.677 7314.476 7259.400 5211.281 15247.516 11291.597 7738.272 3311.309 16302.589 4501.680 4690.815 7269.701 11152.530 6643.107 3669.052 21346.963 13001.542 5033.865 3442.304 6040.663 21380.136 23761.198 8531.001 6738.808 0.000 12587.390 17910.992 9403.172 9687.833 8339.323 16036.110 11677.480 20248.494 29277.305 6984.801 22495.707 14497.639 13579.301 5180.249 5173.845 10973.265 17489.603 2097.627 13444.116 9051.089 5546.037 10265.741 9258.734 9082.402 19860.453 10438.605 7573.317 11311.038 4837.968 5356.557 7135.487 6299.018 20035.876 2096.850 15271.203 10721.778 4722.700 5847.245 15019.931 13221.634 5733.043 7297.138 13212.407 1266.690 5456.888 11413.989
18288.681 3542.105 18991.275 1684.071 4224.043 5205.185 13597.603 7348.899 4050.180 5861.989 6091.410 10674.157 26069.077 8780.836 9780.956 6834.659 14793.274 3678.160 5561.878 6105.339 6983.966 9869.802 8994.158 4091.747 3038.977 7307.577 10701.138 12646.231 8109.111 7025.976 5495.167 6272.957 6023.572 3271.290 15520.168 6887.539 3686.009 915.574 29313.552 21492.898 3256.429 9340.846 5456.716 8999.615 4234.850 1899.664 5690.495 9689.294 3786.919 15798.975 9756.927 7083.587 15711.324 6747.621 10368.483 15683.103 3313.589 9180.176 12533.851 7791.483 9043.981 29602.491 9244.807 5848.832 12587.390 0.000 10986.638 9217.502 3746.719 9418.380 4065.301 5181.814 7975.779 18248.530 7214.220 24045.146 14349.121 1507.968 16496.158 7917.009 9096.152 15460.884 11885.041 3685.286 3632.165 9978.247 12854.796 10229.098 3573.045 22235.341 9076.693 6362.215 8539.718 7751.504 7398.795 5452.258 7135.884 11498.066 13954.302 15757.282 1870.742 9473.268 17548.356 2434.549 25127.840 7414.022 8004.776 25110.620 11743.981 7668.189 1560.856
12401.780 10156.936 12344.694 12407.983 11227.674 7077.816 13440.104 14699.016 11029.610 13123.719 12964.658 14954.857 26586.582 14674.785 11342.014 10381.574 10360.073 9160.065 12957.454 10948.646 10697.880 6134.380 8254.392 7147.934 11910.953 5821.297 18884.132 9793.474 12755.445 12618.898 10211.349 10897.763 12665.643 8911.201 25204.234 10708.113 8131.447 11163.583 23451.039 20146.261 10911.626 10784.473 13700.234 12699.759 7283.127 12545.441 10961.829 16636.218 10232.078 22306.428 13260.454 10791.329 25391.797 11731.674 14292.143 4704.472 7730.274 12878.049 15614.739 11989.339 15290.425 23662.019 9620.963 13233.663 17910.992 10986.638 0.000 19366.519 10006.068 9859.682 8591.047 7045.899 14851.960 12873.484 11075.007 15691.615 25075.096 9709.006 19025.065 13069.786 7172.365 26423.567 16099.479 7310.366 11420.742 18507.104 10416.840 20242.529 11503.702 14853.423 19530.820 10730.654 6678.538 14283.627 14893.349 12940.572 11959.871 2756.496 18026.999 26450.186 11539.398 13195.544 20162.164 10781.395 26557.213 12591.891 17360.522 26527.572 16660.103 15617.518 12183.437
27443.904 9252.496 23630.402 7534.116 12404.327 12380.096 15255.211 6177.678 8479.619 6969.196 7313.191 9942.923 23879.122 7834.964 12326.947 10494.460 19029.737 10233.309 6984.441 9477.278 10318.536 15928.587 13873.394 13183.660 10772.419 14169.226 4656.217 16704.126 9283.065 8432.049 9831.270 9633.569 7614.871 10455.809 6342.224 10237.792 12903.384 8631.053 32022.635 21668.717 8469.732 12331.281 6016.944 10260.796 13406.873 7324.738 9217.886 6447.229 12499.353 9834.835 10554.903 10308.524 6531.750 9146.239 10250.234 23861.286 11883.526 10280.490 11840.889 9761.676 15331.434 32348.859 13141.387 6827.492 9403.172 9217.502 19366.519 0.000 9430.862 13130.721 13225.867 12401.115 14212.326 27356.339 10148.288 29247.388 6116.844 10723.306 14582.429 8755.493 14651.595 8545.918 10394.962 12375.302 7994.669 3878.291 16541.991 1048.310 7900.762 26899.923 1071.895 9850.548 14492.044 7151.492 5958.643 6942.786 9221.548 20422.973 11490.643 7346.594 7983.034 10292.102 15211.526 11059.730 22275.628 8799.461 2579.740 22271.914 9551.708 5192.776 7680.984
19686.002 245.241 15750.940 3836.016 7651.522 2953.377 9850.901 5067.345 1052.627 3371.123 3365.323 7342.292 22480.515 5848.636 6034.795 3090.668 11366.566 884.668 3134.763 2459.664 3255.460 6954.402 5540.234 5112.611 6731.455 4808.398 9146.232 9123.768 4663.655 3768.236 1756.730 2603.307 3142.471 1387.946 15205.436 3162.550 5601.629 3027.688 25754.210 17751.938 1036.058 5596.730 3726.266 5416.789 5566.779 3809.262 2091.795 7337.263 6928.029 13489.413 6190.716 3360.230 15393.729 3233.193 6928.823 14434.579 3347.710 5610.205 9038.826 4203.548 12690.112 26050.299 5577.440 3446.323 9687.833 3746.719 10006.068 9430.862 0.000 5731.306 6397.636 2977.477 11657.702 19800.783 3516.448 21046.925 15342.762 4160.416 13038.029 4607.710 5901.062 17104.092 8608.045 3820.475 1436.405 8649.787 9264.876 10264.808 1533.729 19044.303 9715.439 2659.286 5505.701 5024.794 5216.988 3084.691 3627.396 11391.337 10738.055 16671.149 2531.460 5929.117 14131.550 5891.530 21645.143 4052.757 7354.857 21625.952 8662.965 5822.397 3596.532
21785.316 5963.385 10561.450 9512.924 12922.679 5249.726 4474.936 7034.726 5898.553 6252.031 5869.645 5363.377 17826.087 5962.494 1506.545 2900.973 5981.179 5769.822 6320.009 3951.459 2951.718 3952.536 1605.353 9129.161 12280.607 4536.293 10703.907 3639.307 4026.584 4701.116 4123.051 3759.590 5592.180 6284.156 17612.423 3050.345 10104.984 8755.295 20067.388 12370.467 6544.877 1034.986 7326.167 3387.374 9651.451 9452.041 4346.645 8050.208 12031.251 12837.425 3683.615 2923.085 17780.403 4018.170 4677.225 13013.531 7623.628 3499.605 5756.443 3406.292 18066.791 20368.475 258.416 6394.176 8339.323 9418.380 9859.682 13130.721 5731.306 0.000 11002.926 5309.198 17107.962 22110.011 3021.935 16130.707 19239.256 9462.758 9291.027 4534.307 2704.116 21539.168 6369.105 7835.017 6546.097 10675.719 3629.634 13656.307 6662.940 13861.190 13773.011 3563.977 3199.269 6167.818 7262.870 6397.019 3909.578 12265.376 8191.416 20410.178 8213.778 3731.153 10443.211 11296.103 17379.702 4360.804 10588.565 17354.454 7073.914 8079.509 9285.063
14232.297 6314.297 18911.701 5731.102 2669.176 5782.981 15469.405 11048.436 7190.624 9415.985 9544.752 13733.900 28615.046 12177.938 11843.303 9136.813 15284.709 5771.462 9126.441 8792.269 9389.737 9891.821 10016.639 2014.894 3431.807 7312.543 14676.683 13491.138 11047.758 10157.298 7968.201 8904.583 9390.724 5147.580 19553.067 9316.775 898.708 4832.647 29795.462 23369.459 6502.462 11293.733 9261.637 11719.154 1568.933 5954.847 8466.826 13408.941 1644.956 19588.925 12492.985 9507.772 19743.809 9614.970 13295.628 13184.948 3398.751 11919.705 15359.239 10528.619 7443.818 30058.188 10771.312 9440.108 16036.110 4065.301 8591.047 13225.867 6397.636 11002.926 0.000 5726.739 6707.592 14183.585 9726.064 23383.219 18035.512 2635.970 19355.583 11005.111 9651.229 18765.023 15003.151 3173.341 7041.601 13986.913 13871.376 14251.053 7031.980 21963.526 13001.106 8905.190 8944.674 11255.228 11137.806 9034.679 10005.305 8278.387 17135.038 19454.473 5729.891 12252.738 20468.454 2459.674 27910.135 10450.304 12064.413 27889.239 15049.168 11524.607 5625.265
17409.411 3148.643 13866.725 6078.612 7859.371 61.848 9784.067 7749.194 3985.844 6119.082 5999.598 8940.220 23075.800 8050.601 6301.110 4024.151 9836.256 2178.070 5934.551 4207.725 4338.091 4702.712 4304.170 3820.224 7532.707 2132.106 11921.382 7866.616 6360.759 5894.700 3364.859 4218.351 5716.018 2124.967 18158.694 4303.006 4828.680 4914.580 24418.824 17654.201 3939.148 5720.058 6654.423 6697.139 4342.306 6143.543 4103.626 9845.360 6894.461 15821.503 7422.738 4455.079 18346.141 5075.184 8372.671 11460.369 2436.961 6900.382 10216.227 5663.523 12983.904 24696.338 5069.514 6221.343 11677.480 5181.814 7045.899 12401.115 2977.477 5309.198 5726.739 0.000 12101.575 17613.202 4729.972 18863.461 18265.101 4632.373 14124.738 6531.780 4086.274 19902.466 10203.813 2555.642 4409.442 11496.867 8198.972 13242.014 4500.879 17084.197 12652.729 4108.508 3447.456 7465.813 7930.013 5910.588 5390.987 8608.873 12315.263 19608.103 4931.870 7246.955 15269.053 6418.331 22512.788 5989.567 10320.824 22489.537 10511.681 8619.079 5828.378
15954.774 11474.342 25613.212 8766.413 4243.676 12149.629 21448.432 14908.875 12024.421 13640.625 13926.956 18590.429 34038.801 16569.583 17658.032 14736.902 21883.448 11384.918 13346.741 14070.159 14913.058 16538.893 16373.075 8692.025 4938.838 13915.667 17404.726 19968.173 16073.686 14966.108 13413.444 14232.609 13905.250 10833.915 20196.605 14820.213 7508.605 8837.915 36442.768 29379.443 11230.675 17177.503 12990.492 16975.380 8275.276 8963.340 13660.677 17110.801 5242.563 22880.226 17731.789 15017.831 20371.098 14723.028 18320.302 19142.598 9665.370 17155.585 20492.146 15766.906 1150.335 36710.993 16904.095 13598.836 20248.494 7975.779 14851.960 14212.326 11657.702 17107.962 6707.592 12101.575 0.000 15547.125 15165.771 30055.339 16973.504 7645.748 24431.200 15855.995 16166.725 16511.483 19767.520 9623.774 11574.008 16555.743 20287.986 15225.166 11502.478 28670.675 13512.909 14309.391 15488.962 15493.614 14901.831 13229.109 15110.480 13774.485 21784.687 18310.795 9708.909 17446.689 25461.687 5816.454 33057.477 15369.368 14272.462 33041.265 19531.450 14944.157 8871.383
855.154 19814.656 24452.743 19912.006 15154.453 17671.105 26124.593 24834.421 20791.003 23138.430 23164.741 26544.434 39424.439 25555.956 23468.546 21630.269 23188.726 18962.792 22876.329 21759.698 21947.474 18816.923 20570.492 14758.389 16749.326 17594.446 28724.210 22638.493 23969.051 23397.387 20887.885 21796.439 22941.302 18413.015 33697.608 21915.198 14653.573 18986.835 35121.255 33018.345 20260.354 22873.053 23214.469 24279.936 14375.245 20137.143 21576.022 27136.703 14886.141 33282.493 24976.595 22063.264 33887.496 22639.711 25957.714 13277.325 16469.269 24480.633 27666.547 23276.586 15010.904 35278.507 21853.448 23195.215 29277.305 18248.530 12873.484 27356.339 19800.783 22110.011 14183.585 17613.202 15547.125 0.000 22340.851 26194.585 31677.478 16790.440 31395.942 24108.696 19606.549 31775.453 27798.782 15983.814 20837.977 28084.942 23250.354 28392.687 20860.207 26267.158 27042.905 21705.470 18971.897 24815.736 24963.040 22805.781 22978.418 10134.831 29888.497 33084.078 19838.240 24825.463 32549.340 16306.053 39298.723 23554.121 26237.032 39270.477 28123.931 25467.376 19808.819
22126.657 3691.837 13583.373 6932.695 11162.140 4671.392 6475.563 4169.674 3262.055 3231.095 2853.413 4212.208 18978.144 3617.240 2697.885 718.231 8999.742 3966.543 3300.346 1130.948 395.357 6090.821 3800.059 8152.249 10231.676 5254.107 8141.908 6656.826 1690.395 1794.305 1782.651 948.402 2571.144 4586.704 14931.320 429.904 8872.973 6413.825 22876.873 14299.615 4023.480 2422.195 4305.220 2013.919 8657.702 6830.182 1564.021 5654.572 10409.379 11262.526 2778.300 286.810 15106.574 1003.296 3665.120 14900.457 6407.976 2218.004 5641.410 944.139 16204.670 23185.309 3004.393 3373.485 6984.801 7214.220 11075.007 10148.288 3516.448 3021.935 9726.064 4729.972 15165.771 22340.851 0.000 19144.533 16264.298 7659.001 9631.486 2005.852 4731.731 18521.860 5480.830 6780.392 3852.866 7973.929 6599.688 10719.188 3958.432 16882.464 10762.932 857.300 4797.180 3439.801 4396.772 3380.287 993.730 13076.735 7603.932 17460.691 5692.822 2561.221 10750.455 9407.782 18193.397 1591.112 7634.152 18173.113 5793.460 5216.239 6730.506
25448.695 21290.146 5673.644 24783.923 26008.025 18840.036 14912.923 23097.581 21602.208 22374.259 21997.403 20174.666 21085.028 21708.541 16966.571 18906.816 10239.246 20638.472 22424.313 19969.769 19027.423 14192.849 15629.487 21476.633 26152.213 16743.271 26324.189 12546.170 20000.734 20817.692 19879.733 19789.966 21714.568 20865.063 33203.664 19118.420 22656.091 23713.758 9477.343 14638.915 22050.610 16919.307 23431.970 19101.506 21836.031 24800.051 20313.740 23638.360 24961.175 26491.444 18986.778 19017.892 33353.421 20145.512 19621.894 13038.299 21012.657 19122.825 19053.403 19486.450 30662.248 9545.841 16140.739 22516.914 22495.707 24045.146 15691.615 29247.388 21046.925 16130.707 23383.219 18863.461 30055.339 26194.585 19144.533 0.000 35340.225 23350.912 19614.123 20528.652 15145.904 37666.123 20480.564 20855.508 22245.364 26485.317 12752.558 29724.514 22364.830 2741.878 29903.710 19578.573 15586.961 22166.157 23322.589 22493.383 20036.316 17850.548 21090.998 36472.945 23519.460 19194.510 20249.729 24976.823 22377.335 20448.960 26687.638 22339.408 21472.615 24123.793 24533.320
31886.816 15143.378 29707.550 12759.326 16543.473 18250.896 21117.250 12243.731 14455.020 13082.327 13429.579 15690.158 28135.394 13760.613 18389.319 16608.202 25110.080 16087.968 13087.870 15584.503 16435.006 22007.970 19986.425 18440.776 14990.542 20139.674 9661.178 22794.058 15346.244 14538.244 15902.882 15743.754 13730.288 16222.298 5321.418 16353.845 17920.022 13980.748 37742.642 26938.846 14336.178 18421.205 12106.471 16286.447 18562.975 12594.004 15312.830 12082.394 16945.059 13255.486 16512.304 16425.358 5387.192 15262.630 16088.453 29671.462 17398.004 16288.775 17422.819 15856.804 17937.144 38073.475 19254.291 12940.231 14497.639 14349.121 25075.096 6116.844 15342.762 19239.256 18035.512 18265.101 16973.504 31677.478 16264.298 35340.225 0.000 15820.270 19542.576 14817.738 20747.611 3221.425 15911.625 17859.022 13916.782 9195.098 22610.448 5636.213 13812.930 32962.269 5634.086 15960.710 20562.347 13189.025 12019.535 13041.023 15332.208 25839.792 16562.737 1419.383 13536.001 16267.503 19947.835 15633.747 26280.167 14894.378 8654.157 26283.703 14969.915 11224.940 12962.754
16813.569 4019.624 18476.828 3189.261 3511.731 4671.013 13816.346 8478.738 4779.287 6886.307 7052.706 11443.302 26635.674 9727.418 10047.010 7164.614 14459.295 3761.301 6590.710 6620.080 7369.801 9298.010 8790.659 2651.524 2903.206 6659.907 12042.394 12427.642 8792.001 7803.636 5878.102 6761.538 6930.143 3192.053 17018.748 7283.328 2180.974 2200.067 29038.724 21752.788 4031.096 9549.918 6654.500 9576.904 2743.488 3400.113 6245.031 10839.624 2774.580 17004.098 10350.376 7480.882 17210.010 7373.293 11065.615 14413.380 2339.154 9769.682 13192.678 8362.914 8622.653 29318.528 9260.661 6897.786 13579.301 1507.968 9709.006 10723.306 4160.416 9462.758 2635.970 4632.373 7645.748 16790.440 7659.001 23350.912 15820.270 0.000 17188.916 8679.933 8707.581 16839.804 12691.864 2560.285 4529.366 11351.002 12706.881 11732.195 4503.519 21667.991 10582.453 6805.586 8079.784 8756.650 8555.863 6492.136 7768.709 10057.860 14802.734 17231.791 3096.141 10086.280 18274.295 1835.953 25802.905 8142.535 9446.634 25783.917 12651.974 8910.597 3050.443
31076.305 13169.546 14375.127 15726.366 20638.809 14063.017 5917.978 9894.241 12467.346 10849.048 10530.587 5844.237 9710.616 8001.104 7940.675 10247.585 10999.161 13587.088 11132.331 10587.488 9977.614 12906.323 10857.910 17755.608 19523.724 13803.613 10044.482 9892.521 8405.760 9471.568 11389.947 10462.126 10531.019 14210.125 15607.360 10045.850 18504.451 15608.123 18947.805 7503.260 13254.966 8538.759 11667.983 7638.889 18267.842 15551.961 10946.942 8326.564 19962.230 7403.563 6863.901 9858.312 15702.261 9815.888 6133.263 21523.072 16031.396 7439.979 4000.635 8841.060 25524.635 19284.815 9546.287 10910.802 5180.249 16496.158 19025.065 14582.429 13038.029 9291.027 19355.583 14124.738 24431.200 31395.942 9631.486 19614.123 19542.576 17188.916 0.000 8580.432 11885.411 22596.590 4728.170 16384.672 12868.070 10724.945 9267.858 14426.425 12934.532 16877.447 15614.110 10451.656 12466.403 9096.733 9983.932 11252.465 9420.503 21526.216 3094.715 20220.094 14722.362 7112.630 1153.901 18847.410 8631.685 9084.824 12414.113 8614.485 5239.571 10306.647 15593.020
23927.472 4697.808 14889.826 7207.648 12081.963 6477.076 6783.168 2578.431 3909.927 2486.849 2098.340 2767.015 18199.659 1611.391 3573.247 2688.212 10293.357 5304.454 2720.881 2350.119 2373.186 8017.442 5645.241 9639.184 10943.347 7248.958 6226.892 7986.841 528.529 891.166 3224.614 2315.875 2011.134 5916.427 13097.845 2361.954 10205.311 7027.725 23556.952 14165.753 4687.973 3628.694 3531.525 1562.220 10118.835 7050.241 2578.884 3667.209 11450.986 9315.203 2101.875 2284.198 13268.379 1469.555 2469.642 16897.593 7861.093 1641.071 4645.153 1180.111 16945.436 23875.333 4604.360 2592.542 5173.845 7917.009 13069.786 8755.493 4607.710 4534.307 11005.111 6531.780 15855.995 24108.696 2005.852 20528.652 14817.738 8679.933 8580.432 0.000 6650.448 17270.534 4012.901 8290.593 4287.638 6147.259 7793.241 9195.898 4354.828 18148.897 9497.511 2426.643 6774.876 1643.489 2800.014 2839.115 1142.894 15018.574 6134.301 15945.779 6148.963 1794.073 9632.937 10284.948 17211.751 562.863 6179.010 17194.738 4076.358 3595.197 7055.788
19244.887 6144.243 9912.045 9664.176 11923.254 4043.437 6561.149 8880.514 6503.375 7699.334 7386.961 7987.486 19991.683 8221.276 4206.050 4219.279 5751.991 5530.166 7667.535 5183.602 4455.267 1367.210 1113.587 7652.700 11610.690 2406.226 12861.676 3841.391 6212.836 6518.457 4868.060 5038.930 7074.632 5832.690 19660.585 4515.757 8770.001 8650.448 20333.624 14069.177 6908.899 3681.411 8641.252 5849.637 8148.708 9668.611 5435.184 10310.248 10937.211 15454.405 6283.655 4500.105 19836.470 5661.123 7305.096 10387.239 6508.306 5999.095 8456.378 5472.167 17021.811 20612.082 2478.165 7838.703 10973.265 9096.152 7172.365 14651.595 5901.062 2704.116 9651.229 4086.274 16166.725 19606.549 4731.731 15145.904 20747.611 8707.581 11885.411 6650.448 0.000 22784.456 9047.815 6552.494 7133.348 12705.174 4255.778 15310.653 7251.669 13183.178 15147.536 4823.564 730.003 8169.471 9105.096 7709.311 5725.187 9642.638 10895.454 21998.050 8384.962 6278.576 13030.376 10503.949 19720.542 6311.349 12224.631 19693.285 9706.940 9918.846 9415.396
32067.394 16883.616 32090.095 14024.034 16898.380 19897.141 23794.667 14701.173 16324.058 15291.883 15669.814 18437.740 31321.753 16377.556 20829.968 18778.617 27492.409 17760.932 15247.267 17723.618 18643.661 23977.062 22121.439 19490.769 15476.624 21898.136 12606.224 25154.381 17795.313 16878.873 17919.024 17897.469 15951.555 17793.717 8457.229 18554.497 18801.924 15269.052 40534.208 29927.607 16070.311 20796.446 14240.884 18793.453 19529.715 13899.190 17405.146 14867.136 17473.935 16462.478 19100.723 18650.063 8501.769 17521.730 18777.953 31099.197 18694.699 18819.194 20263.310 18228.637 17342.960 40862.128 21525.386 15149.215 17489.603 15460.884 26423.567 8545.918 17104.092 21539.168 18765.023 19902.466 16511.483 31775.453 18521.860 37666.123 3221.425 16839.804 22596.590 17270.534 22784.456 0.000 18774.191 19115.591 15729.279 12046.802 25027.521 8337.809 15616.346 35377.010 7780.054 18111.751 22518.067 15686.678 14486.627 15182.234 17644.387 26879.571 19574.851 3365.365 15003.919 18836.898 23049.663 16306.746 29484.106 17272.475 11119.738 29487.183 17865.448 13734.975 14254.878
27564.922 8706.914 14847.394 11029.062 16076.097 10144.467 5580.741 5184.966 7916.852 6141.995 5841.140 1278.053 14437.893 3273.080 4866.860 6179.953 10554.072 9262.836 6430.449 6241.341 5868.739 10321.581 7934.299 13567.561 14889.494 10412.163 6270.749 8631.813 3964.559 4889.521 7101.864 6154.597 5869.601 9883.058 12851.412 5910.456 14190.312 10982.826 21837.924 11289.490 8686.716 5366.553 6939.919 3519.872 14060.207 10848.710 6540.356 3947.923 15461.436 6552.958 2857.971 5750.648 12987.510 5393.257 1845.091 19377.147 11797.942 3320.594 1524.738 4568.821 20873.141 22169.791 6577.193 6197.242 2097.627 11885.041 16099.479 10394.962 8608.045 6369.105 15003.151 10203.813 19767.520 27798.782 5480.830 20480.564 15911.625 12691.864 4728.170 4012.901 9047.815 18774.191 0.000 12203.061 8255.695 6732.924 8169.283 10440.961 8312.035 17870.002 11364.024 6198.165 9441.104 4368.563 5288.716 6549.682 5007.926 18331.128 2137.889 16795.661 10072.659 2977.948 5703.577 14276.740 13304.905 4558.425 8013.862 13289.989 1002.388 5689.292 10905.261
15881.222 3831.255 16098.681 5118.614 5385.229 2611.139 12305.962 8857.173 4809.627 7158.944 7181.501 10925.011 25516.121 9637.618 8724.440 6138.787 12259.931 3007.732 6902.384 5969.462 6417.644 6946.322 6855.109 1372.190 5297.941 4304.407 12841.197 10376.776 8246.454 7508.147 5102.140 6048.732 6962.946 2433.109 18499.048 6356.248 2274.693 3882.167 26826.851 20197.761 4328.517 8162.546 7323.928 8794.187 1883.666 5270.562 5712.229 11153.081 4386.280 17309.846 9556.884 6537.706 18690.092 6837.410 10427.582 12000.962 507.011 8998.098 12412.544 7647.198 10469.437 27097.780 7601.363 7220.292 13444.116 3685.286 7310.366 12375.302 3820.475 7835.017 3173.341 2555.642 9623.774 15983.814 6780.392 20855.508 17859.022 2560.285 16384.672 8290.593 6552.494 19115.591 12203.061 0.000 4908.005 12272.038 10733.178 13323.598 4946.276 19244.956 12409.333 6009.776 5866.783 8844.186 8992.775 6836.812 7209.701 8049.243 14340.115 19251.629 4394.496 9340.179 17514.285 4126.845 24875.406 7727.745 10685.925 24853.409 12366.106 9537.890 4903.587
20763.951 1264.579 16862.516 3082.863 7825.156 4386.953 10327.399 4029.411 653.742 2374.448 2523.372 7042.025 22467.466 5204.289 6542.082 3677.761 12392.476 2261.000 2086.593 2727.029 3723.469 8264.475 6635.532 6079.593 6655.808 6224.018 7933.197 10094.696 4503.684 3396.509 2435.787 2918.062 2413.294 2599.155 13812.664 3619.666 6343.879 2740.212 26606.785 18109.538 580.017 6202.546 2419.990 5446.984 6477.135 2977.389 2293.607 6380.678 7258.626 12567.762 6184.806 3798.073 14001.745 3203.383 6747.005 15869.080 4405.599 5616.720 8918.138 4265.943 12659.104 26909.642 6434.930 2402.551 9051.089 3632.165 11420.742 7994.669 1436.405 6546.097 7041.601 4409.442 11574.008 20837.977 3852.866 22245.364 13916.782 4529.366 12868.070 4287.638 7133.348 15729.279 8255.695 4908.005 0.000 7375.328 10163.847 8833.797 119.861 20167.652 8286.188 3067.795 6805.904 4228.616 4139.270 1999.018 3575.279 12721.649 10335.773 15240.222 1889.387 5892.108 13916.640 6025.144 21499.326 3795.442 5953.917 21482.348 8147.604 4635.911 2888.176
28054.783 8557.361 20814.747 8432.636 13895.138 11458.744 11963.073 3865.785 7597.180 5384.060 5554.373 6513.571 20009.620 4787.182 9577.620 8518.229 16263.322 9534.091 5562.739 7691.340 8258.544 14061.124 11753.614 13375.504 12340.876 12844.317 882.225 14018.222 6649.190 6188.956 8330.602 7789.405 5861.187 9958.804 6960.461 8206.103 13440.392 9157.192 28549.182 17911.925 7950.968 9734.564 4955.842 7421.153 13724.479 8199.173 7594.238 2905.114 13700.017 6419.668 7500.287 8207.296 7134.254 7063.434 6955.068 22683.751 11766.520 7379.754 8234.630 7309.473 17705.177 28879.691 10751.413 5277.009 5546.037 9978.247 18507.104 3878.291 8649.787 10675.719 13986.913 11496.867 16555.743 28084.942 7973.929 26485.317 9195.098 11351.002 10724.945 6147.259 12705.174 12046.802 6732.924 12272.038 7375.328 0.000 13746.318 3733.787 7329.373 24008.318 4934.119 7989.415 12727.416 4546.346 3653.115 5591.140 6980.233 20038.953 7641.091 10144.541 8263.383 7291.582 11334.716 12260.521 18436.182 6407.253 2304.859 18431.455 5819.098 2891.948 8469.358
22807.954 9504.248 7098.776 13086.280 16051.065 8148.387 3350.132 10370.211 9513.241 9798.419 9402.666 7603.655 16176.076 8962.199 4221.261 6530.503 2517.216 9176.763 9892.391 7577.181 6569.508 4531.833 3918.084 11886.926 15590.430 6660.026 13625.486 645.692 7264.718 8151.656 7731.323 7384.177 9143.166 9620.160 20543.457 6670.025 12982.161 12257.654 16489.446 9928.675 10132.606 4236.206 10890.909 6348.949 12389.238 13037.641 7975.839 10929.638 15093.386 14641.042 6265.886 6531.903 20700.050 7570.423 6992.382 12304.945 10633.638 6372.499 6968.513 6799.132 21182.464 16785.461 3728.916 9938.414 10265.741 12854.796 10416.840 16541.991 9264.876 3629.634 13871.376 8198.972 20287.986 23250.354 6599.688 12752.558 22610.448 12706.881 9267.858 7793.241 4255.778 25027.521 8169.283 10733.178 10163.847 13746.318 0.000 16984.100 10281.554 10357.942 17247.586 7191.516 4983.312 9423.255 10592.922 9976.436 7402.955 13121.264 9379.971 23726.023 11781.423 6457.365 10318.407 14536.290 16167.899 7755.393 13969.553 16137.418 9099.147 11385.810 12852.496
28474.957 10097.641 24082.720 8545.034 13452.444 13218.168 15509.476 6631.227 9284.379 7611.907 7928.686 10113.071 23554.812 8128.400 12763.112 11115.305 19488.620 11088.360 7660.466 10127.206 10918.321 16611.142 14488.236 14165.658 11820.588 14950.184 4385.516 17180.915 9723.941 8961.483 10543.875 10273.136 8238.682 11342.099 5305.298 10843.161 13913.135 9619.647 32205.701 21645.699 9331.247 12812.316 6731.733 10652.315 14400.823 8332.083 9897.833 6530.130 13542.465 9225.843 10878.409 10898.604 5495.483 9725.468 10480.657 24697.296 12827.719 10652.945 11925.945 10258.104 16339.209 32534.463 13684.318 7473.263 9258.734 10229.098 20242.529 1048.310 10264.808 13656.307 14251.053 13242.014 15225.166 28392.687 10719.188 29724.514 5636.213 11732.195 14426.425 9195.898 15310.653 8337.809 10440.961 13323.598 8833.797 3733.787 16984.100 0.000 8745.713 27331.025 1806.908 10489.248 15189.506 7560.885 6404.870 7631.400 9764.150 21363.753 11355.546 6754.943 8941.043 10631.895 14986.654 12100.901 21886.130 9297.925 3089.639 21884.086 9545.490 5600.722 8684.476
20790.984 1352.644 16982.369 2982.005 7775.482 4479.390 10431.644 4025.930 773.134 2387.056 2554.108 7103.932 22542.103 5241.195 6649.819 3791.892 12511.891 2343.964 2095.072 2834.540 3834.060 8380.307 6755.375 6102.493 6589.648 6329.595 7897.272 10213.595 4581.217 3464.205 2554.436 3026.290 2457.683 2661.635 13739.117 3730.178 6344.524 2674.796 26722.442 18206.289 623.154 6314.000 2377.653 5533.649 6493.565 2872.269 2401.615 6381.752 7222.114 12567.574 6267.937 3907.483 13928.400 3294.536 6817.865 15961.222 4442.357 5701.653 8990.534 4357.504 12590.616 27025.471 6552.652 2408.128 9082.402 3573.045 11503.702 7900.762 1533.729 6662.940 7031.980 4500.879 11502.478 20860.207 3958.432 22364.830 13812.930 4503.519 12934.532 4354.828 7251.669 15616.346 8312.035 4946.276 119.861 7329.373 10281.554 8745.713 0.000 20287.513 8183.557 3178.516 6921.940 4253.511 4129.864 2002.785 3663.211 12785.590 10386.254 15138.538 1806.167 5973.882 13979.448 5975.684 21565.117 3869.273 5879.698 21548.297 8190.748 4608.618 2791.040
25569.696 19289.390 3308.527 22842.570 24528.821 17054.294 12290.130 20726.852 19516.834 20109.496 19721.880 17624.796 18614.227 19254.874 14575.654 16706.021 7886.402 18713.343 20181.147 17771.541 16798.916 12382.209 13534.096 19998.042 24527.315 15008.544 23808.250 10228.060 17620.513 18498.312 17759.996 17585.752 19450.240 18996.920 30651.783 16894.049 21185.220 21829.918 8854.108 12023.918 20020.614 14581.176 21187.328 16680.078 20397.383 22839.797 18137.179 21136.710 23487.536 23797.559 16512.414 16778.773 30797.743 17874.265 17095.556 12991.034 19348.497 16686.858 16420.793 17150.793 29354.204 9014.642 13898.014 20251.143 19860.453 22235.341 14853.423 26899.923 19044.303 13861.190 21963.526 17084.197 28670.675 26267.158 16882.464 2741.878 32962.269 21667.991 16877.447 18148.897 13183.178 35377.010 17870.002 19244.956 20167.652 24008.318 10357.942 27331.025 20287.513 0.000 27598.691 17379.487 13698.996 19773.301 20948.911 20257.373 17735.033 17260.352 18406.314 34061.239 21555.378 16734.973 17507.975 23366.818 19809.122 18109.754 24326.864 19771.310 18867.322 21737.850 22594.731
27162.547 9519.773 24314.618 7413.409 11977.387 12636.618 16101.909 6937.890 8820.939 7541.428 7909.804 10854.992 24941.800 8688.718 13051.306 11054.749 19715.495 10474.692 7518.664 10013.124 10902.483 16391.930 14422.277 13121.837 10348.842 14507.166 5723.946 17379.336 10020.652 9100.522 10288.740 10179.762 8198.765 10637.515 6770.531 10816.445 12747.868 8578.942 32895.408 22650.220 8716.387 13017.563 6521.372 11030.547 13306.191 7221.141 9721.053 7419.683 12157.113 10888.517 11371.854 10902.614 6953.942 9760.381 11127.483 24088.003 11930.336 11064.299 12788.650 10448.945 14615.396 33219.956 13767.072 7398.510 10438.605 9076.693 19530.820 1071.895 9715.439 13773.011 13001.106 12652.729 13512.909 27042.905 10762.932 29903.710 5634.086 10582.453 15614.110 9497.511 15147.536 7780.054 11364.024 12409.333 8286.188 4934.119 17247.586 1806.908 8183.557 27598.691 0.000 10395.959 14942.070 7932.695 6727.949 7462.743 9870.743 20449.465 12520.117 6956.584 8027.441 11099.182 16259.350 10742.142 23345.229 9492.429 3410.005 23341.398 10543.904 6003.656 7587.604
21513.540 2835.111 14072.446 6131.049 10306.694 4053.140 7290.165 4125.310 2451.929 2882.999 2563.416 4920.654 19830.214 3982.909 3483.713 673.565 9521.764 3135.448 2877.768 392.125 655.695 6142.238 4027.824 7378.120 9376.196 4935.335 8247.903 7188.170 2268.438 1889.261 938.889 216.984 2251.231 3758.522 14909.108 551.993 8060.779 5570.732 23570.175 15141.128 3193.584 3135.986 3876.505 2813.969 7876.947 6038.935 789.946 5905.736 9560.046 11736.658 3588.016 735.905 15088.481 1002.903 4419.574 14724.033 5618.258 3014.780 6454.077 1638.086 15347.453 23875.596 3492.969 3023.970 7573.317 6362.215 10730.654 9850.548 2659.286 3563.977 8905.190 4108.508 14309.391 21705.470 857.300 19578.573 15960.710 6805.586 10451.656 2426.643 4823.564 18111.751 6198.165 6009.776 3067.795 7989.415 7191.516 10489.248 3178.516 17379.487 10395.959 0.000 4758.082 3568.174 4342.654 2934.144 1283.940 12607.617 8333.368 17192.637 4873.153 3349.832 11563.332 8550.752 19029.991 1896.591 7401.830 19010.031 6425.660 5140.398 5922.187
18625.452 5744.204 10452.267 9196.992 11247.196 3409.080 7245.334 8873.167 6196.255 7588.835 7303.500 8331.843 20685.878 8372.928 4665.679 4209.867 6401.853 5051.578 7529.042 5091.602 4479.668 1459.359 1608.586 6941.188 10979.896 1676.991 12933.035 4557.691 6372.525 6547.205 4661.699 4967.161 6988.144 5299.807 19663.184 4525.659 8067.461 8141.081 20982.125 14795.269 6532.504 4106.023 8475.959 6127.160 7433.657 9215.439 5292.409 10441.149 10253.019 15765.373 6626.937 4541.952 19841.747 5664.486 7657.643 10138.791 5845.360 6291.148 8942.072 5612.478 16331.866 21257.459 2953.411 7724.637 11311.038 8539.718 6678.538 14492.044 5505.701 3199.269 8944.674 3447.456 15488.962 18971.897 4797.180 15586.961 20562.347 8079.784 12466.403 6774.876 730.003 22518.067 9441.104 5866.783 6805.904 12727.416 4983.312 15189.506 6921.940 13698.996 14942.070 4758.082 0.000 8225.459 9093.561 7560.001 5777.799 9068.738 11348.604 21834.464 7937.487 6590.715 13615.629 9860.096 20385.890 6388.178 12115.711 20359.032 10048.985 9896.641 8946.361
24685.249 5035.590 16521.835 6727.837 11975.543 7417.711 8204.526 1005.364 4088.942 1889.636 1710.512 3365.494 18806.045 1096.422 5202.233 4025.203 11928.545 5852.952 2189.740 3335.267 3745.971 9530.274 7207.478 10130.662 10681.552 8502.510 4707.851 9627.636 2168.312 1688.999 4113.606 3390.224 1886.648 6411.115 11506.730 3703.402 10526.100 6836.079 25011.681 15262.619 4753.303 5272.168 2571.830 3109.320 10572.029 6535.463 3365.255 2379.628 11467.354 8467.380 3453.991 3684.931 11680.105 2585.456 3396.595 18280.162 8372.116 3133.081 5424.728 2772.622 16614.248 25333.352 6227.570 1907.986 4837.968 7751.504 14283.627 7151.492 5024.794 6167.818 11255.228 7465.813 15493.614 24815.736 3439.801 22166.157 13189.025 8756.650 9096.733 1643.489 8169.471 15686.678 4368.563 8844.186 4228.616 4546.346 9423.255 7560.885 4253.511 19773.301 7932.695 3568.174 8225.459 0.000 1205.642 2299.553 2449.623 16066.844 6299.336 14306.842 5889.187 3172.530 10054.611 10182.857 17648.620 1861.577 4571.771 17634.760 4038.002 1965.244 6625.594
24873.322 5170.626 17688.450 6175.162 11590.874 7888.033 9405.242 228.561 4188.539 1846.377 1932.501 4423.282 19685.047 2110.178 6373.259 4893.298 13090.545 6092.446 2090.709 4038.643 4650.073 10450.253 8196.830 10208.987 10202.711 9196.177 3994.632 10777.291 3328.429 2604.365 4690.704 4139.990 2227.735 6587.524 10569.664 4589.920 10471.351 6492.783 26212.454 16369.573 4711.030 6407.465 1949.305 4306.831 10614.829 5963.324 3948.045 2291.300 11176.842 8451.622 4657.084 4609.654 10748.200 3444.092 4539.142 19032.105 8499.726 4336.481 6477.329 3858.035 16037.333 26534.536 7302.808 1773.910 5356.557 7398.795 14893.349 5958.643 5216.988 7262.870 11137.806 7930.013 14901.831 24963.040 4396.772 23322.589 12019.535 8555.863 9983.932 2800.014 9105.096 14486.627 5288.716 8992.775 4139.270 3653.115 10592.922 6404.870 4129.864 20948.911 6727.949 4342.654 9093.561 1205.642 0.000 2157.425 3411.884 16524.977 7057.790 13159.033 5534.123 4377.558 10883.888 9825.316 18440.105 2902.715 3380.190 18428.043 4786.457 820.838 6113.079
22716.485 3022.466 16955.367 4479.383 9676.232 5873.962 9493.054 2034.476 2041.735 412.842 743.082 5417.719 20935.598 3347.635 5933.284 3597.294 12377.835 3967.463 120.738 2550.382 3466.310 8989.127 6959.537 8053.164 8390.221 7387.983 6062.707 10035.247 3227.059 2050.644 2915.514 2718.466 879.216 4440.299 12302.332 3374.968 8342.892 4536.753 26149.203 17000.392 2562.109 5764.458 942.439 4298.871 8463.290 4300.416 2275.166 4381.665 9179.739 10568.817 4928.551 3480.122 12487.463 2410.444 5255.986 17217.616 6342.801 4422.260 7413.942 3324.410 14342.757 26462.088 6362.683 405.945 7135.487 5452.258 12940.572 6942.786 3084.691 6397.019 9034.679 5910.588 13229.109 22805.781 3380.287 22493.383 13041.023 6492.136 11252.465 2839.115 7709.311 15182.234 6549.682 6836.812 1999.018 5591.140 9976.436 7631.400 2002.785 20257.373 7462.743 2934.144 7560.001 2299.553 2157.425 0.000 2632.777 14454.212 8557.392 14289.377 3589.932 4620.375 12252.807 7884.447 19854.197 2513.813 4570.898 19839.113 6316.006 2738.859 4359.053
22791.879 3750.191 14445.712 6625.630 11225.847 5335.961 6906.422 3184.031 3086.065 2406.465 2004.110 3733.014 18935.054 2719.148 3301.969 1596.961 9848.998 4254.916 2535.031 1240.557 1302.218 7083.325 4788.297 8568.519 10174.846 6144.113 7155.687 7510.002 1043.774 808.044 2113.464 1182.489 1764.266 4875.471 13937.657 1269.559 9184.908 6279.150 23516.835 14569.047 3879.841 3168.109 3509.061 1872.412 9056.924 6494.822 1539.327 4703.999 10542.593 10456.258 2621.327 1235.916 14112.863 395.416 3301.546 15858.140 6794.809 2046.562 5427.349 715.653 16178.599 23829.520 3923.107 2543.853 6299.018 7135.884 11959.871 9221.548 3627.396 3909.578 10005.305 5390.987 15110.480 22978.418 993.730 20036.316 15332.208 7768.709 9420.503 1142.894 5725.187 17644.387 5007.926 7209.701 3575.279 6980.233 7402.955 9764.150 3663.211 17735.033 9870.743 1283.940 5777.799 2449.623 3411.884 2632.777 0.000 13880.786 7145.215 16513.334 5464.373 2338.295 10507.238 9440.798 18040.136 632.247 6686.505 18021.622 5170.106 4232.447 6446.713
9689.007 11495.581 14928.261 13085.330 10692.555 8654.657 16064.461 16349.646 12443.689 14695.955 14600.034 17135.611 29297.338 16590.365 13705.685 12362.099 13115.940 10508.387 14490.848 12765.637 12685.470 8736.017 10675.729 7411.527 11709.516 7919.001 20505.910 12506.098 14765.868 14460.957 11954.242 12748.296 14321.350 10123.957 26497.576 12678.570 8097.452 11880.755 25972.365 22894.593 12166.184 13126.466 15110.754 14852.503 7349.928 13258.885 12701.596 18445.872 9813.549 24331.057 15473.336 12789.944 26687.930 13604.934 16495.589 5465.093 8539.448 15041.823 17977.731 14016.049 14023.808 26171.170 12016.204 14789.621 20035.876 11498.066 2756.496 20422.973 11391.337 12265.376 8278.387 8608.873 13774.485 10134.831 13076.735 17850.548 25839.792 10057.860 21526.216 15018.574 9642.638 26879.571 18331.128 8049.243 12721.649 20038.953 13121.264 21363.753 12785.590 17260.352 20449.465 12607.617 9068.738 16066.844 16524.977 14454.212 13880.786 0.000 20331.239 27243.390 12443.739 15373.761 22672.412 10697.258 29219.377 14503.145 18647.838 29190.354 18809.578 17188.101 12889.670
29640.883 10832.065 15571.755 13023.039 18160.876 12255.420 6326.189 6995.040 10023.713 8145.206 7874.161 3415.527 12671.173 5215.774 6692.156 8295.717 11575.175 11399.979 8440.606 8379.214 7988.497 12109.013 9790.626 15705.115 16937.980 12423.337 6984.474 9920.332 6102.120 7000.586 9239.432 8292.040 7930.875 12019.778 12901.917 8033.836 16325.509 13046.084 21499.839 10377.698 10784.856 7242.581 8850.355 5618.478 16198.059 12833.314 8675.919 5257.882 17567.632 5409.831 4912.063 7869.581 13013.979 7529.570 3942.973 21098.805 13935.810 5415.711 2490.500 6700.826 22900.069 21835.825 8420.100 8185.931 2096.850 13954.302 18026.999 11490.643 10738.055 8191.416 17135.038 12315.263 21784.687 29888.497 7603.932 21090.998 16562.737 14802.734 3094.715 6134.301 10895.454 19574.851 2137.889 14340.115 10335.773 7641.091 9379.971 11355.546 10386.254 18406.314 12520.117 8333.368 11348.604 6299.336 7057.790 8557.392 7145.215 20331.239 0.000 17302.908 12121.727 5069.420 3851.904 16360.870 11382.647 6685.596 9328.181 11370.437 2275.672 7301.579 12913.305
33297.806 16476.298 30824.339 14159.639 17955.940 19592.434 22106.895 13385.691 15764.857 14309.769 14645.198 16657.883 28550.519 14816.303 19507.189 17831.726 26234.676 17430.046 14330.628 16821.503 17647.041 23273.677 21210.338 19848.413 16406.659 21456.777 10525.051 23932.465 16473.205 15712.738 17172.784 16975.732 14950.447 17580.191 5262.524 17568.776 19335.718 15376.660 38629.537 27672.745 15672.812 19566.037 13362.199 17383.114 19974.943 13991.374 16564.456 13049.297 18363.108 13639.087 17568.105 17632.175 5278.419 16462.768 17090.262 31032.604 18787.412 17374.410 18316.810 17013.039 19256.740 38962.089 20435.539 14168.669 15271.203 15757.282 26450.186 7346.594 16671.149 20410.178 19454.473 19608.103 18310.795 33084.078 17460.691 36472.945 1419.383 17231.791 20220.094 15945.779 21998.050 3365.365 16795.661 19251.629 15240.222 10144.541 23726.023 6754.943 15138.538 34061.239 6956.584 17192.637 21834.464 14306.842 13159.033 14289.377 16513.334 27243.390 17302.908 0.000 14914.476 17334.127 20556.449 17053.105 26635.980 16052.713 9827.598 26641.473 15832.082 12351.948 14360.412
19832.506 2287.563 18267.514 1305.858 6090.149 4933.071 12162.470 5480.105 2431.388 4001.362 4248.030 8883.087 24344.225 6929.665 8355.497 5433.077 13897.862 2895.733 3701.571 4561.972 5523.553 9360.728 8069.742 5253.894 4817.841 7006.933 8946.815 11652.343 6386.788 5260.450 4112.888 4746.179 4203.229 2807.377 14156.666 5421.492 5184.784 959.038 28267.263 19980.491 1685.867 7976.809 3599.072 7336.299 5538.363 1284.437 4129.872 7825.386 5642.854 13953.913 8073.495 5609.044 14348.088 5090.525 8616.283 16156.674 3907.637 7506.029 10790.612 6152.144 10804.924 28565.099 8074.224 3983.301 10721.778 1870.742 11539.398 7983.034 2531.460 8213.778 5729.891 4931.870 9708.909 19838.240 5692.822 23519.460 13536.001 3096.141 14722.362 6148.963 8384.962 15003.919 10072.659 4394.496 1889.387 8263.383 11781.423 8941.043 1806.167 21555.378 8027.441 4873.153 7937.487 5889.187 5534.123 3589.932 5464.373 12443.739 12121.727 14914.476 0.000 7779.906 15757.219 4304.987 23349.863 5672.597 6431.784 23333.462 9896.917 5834.117 1071.741
24587.855 6067.837 13525.492 8902.881 13557.011 7186.946 5041.085 4176.400 5423.090 4278.246 3884.400 1763.483 16596.798 2519.930 2373.227 3234.322 8973.479 6481.315 4503.763 3475.014 2934.786 7609.969 5177.270 10711.640 12512.224 7457.570 7179.503 6754.472 1412.159 2593.236 4284.795 3350.711 3769.002 7105.159 14108.127 2988.505 11410.552 8611.936 21844.550 12380.213 6216.867 2698.289 5324.138 550.634 11215.430 8758.226 3841.359 4483.213 12856.788 9180.244 308.316 2814.835 14268.204 2729.757 1133.157 16665.643 8961.544 346.640 3111.996 1728.430 18516.560 22165.451 3890.950 4386.010 4722.700 9473.268 13195.544 10292.102 5929.117 3731.153 12252.738 7246.955 17446.689 24825.463 2561.221 19194.510 16267.503 10086.280 7112.630 1794.073 6278.576 18836.898 2977.948 9340.179 5892.108 7291.582 6457.365 10631.895 5973.882 16734.973 11099.182 3349.832 6590.715 3172.530 4377.558 4620.375 2338.295 15373.761 5069.420 17334.127 7779.906 0.000 8216.923 11775.331 15716.672 2141.468 7717.638 15697.647 3465.509 5102.884 8736.089
32228.496 14257.299 15134.796 16732.042 21709.488 15207.375 6972.049 10808.834 13534.208 11845.501 11540.599 6875.713 8819.331 8958.804 9094.376 11375.603 11949.164 14697.527 12133.412 11688.200 11101.479 14038.270 12007.338 18885.879 20568.018 14957.361 10604.922 10949.998 9483.020 10523.338 12500.365 11567.487 11556.584 15321.170 15793.780 11167.716 19621.813 16654.232 19055.921 7439.200 14318.111 9692.415 12624.526 8749.382 19396.715 16552.254 12039.768 9100.918 21048.744 7360.942 7976.193 10981.847 15876.400 10902.525 7208.827 22601.436 17155.674 8548.761 5109.860 9944.014 26562.083 19392.170 10698.711 11900.512 5847.245 17548.356 20162.164 15211.526 14131.550 10443.211 20468.454 15269.053 25461.687 32549.340 10750.455 20249.729 19947.835 18274.295 1153.901 9632.937 13030.376 23049.663 5703.577 17514.285 13916.640 11334.716 10318.407 14986.654 13979.448 17507.975 16259.350 11563.332 13615.629 10054.611 10883.888 12252.807 10507.238 22672.412 3851.904 20556.449 15757.219 8216.923 0.000 19914.728 7601.403 10149.003 13142.596 7586.420 6100.459 11151.963 16606.161
16420.826 5725.441 20204.822 3828.072 1800.012 6460.542 15634.382 9779.774 6380.925 8293.242 8513.701 13050.594 28360.975 11204.977 11851.738 8946.015 16254.585 5570.900 7993.157 8337.920 9136.267 11031.978 10618.751 3675.738 1180.895 8384.348 13017.002 14248.669 10442.560 9396.822 7637.166 8490.241 8433.195 5017.696 17401.631 9046.373 2659.389 3349.542 30837.144 23568.054 5597.158 11364.483 7879.143 11280.842 3498.778 4061.459 7944.257 12113.964 1455.894 18199.493 12049.089 9244.331 17590.894 9047.039 12714.165 15447.243 4032.988 11468.716 14865.026 10065.520 6812.533 31114.583 11095.324 8282.166 15019.931 2434.549 10781.395 11059.730 5891.530 11296.103 2459.674 6418.331 5816.454 16306.053 9407.782 24976.823 15633.747 1835.953 18847.410 10284.948 10503.949 16306.746 14276.740 4126.845 6025.144 12260.521 14536.290 12100.901 5975.684 23366.818 10742.142 8550.752 9860.096 10182.857 9825.316 7884.447 9440.798 10697.258 16360.870 17053.105 4304.987 11775.331 19914.728 0.000 27475.524 9765.919 10180.786 27457.477 14163.503 10067.070 3806.219
38900.069 21783.922 18525.790 24333.381 29264.696 22451.018 13175.072 18376.912 21097.047 19446.880 19141.066 14467.084 2229.065 16554.081 16215.577 18773.781 16936.681 22159.890 19734.780 19187.575 18521.708 20489.035 18821.579 26238.009 28154.668 21893.068 17622.207 16805.429 17033.001 18102.915 19968.458 19054.141 19152.811 22779.891 21486.275 18596.603 27044.989 24239.186 17733.504 7813.846 21885.584 16803.750 20215.199 16230.268 26756.637 24153.615 19557.881 16532.207 28573.157 13024.997 15455.319 18404.210 21518.807 18435.110 14763.024 28180.176 24549.848 16035.393 12612.790 17441.735 34153.992 18033.368 17637.321 19501.440 13221.634 25127.840 26557.213 22275.628 21645.143 17379.702 27910.135 22512.788 33057.477 39298.723 18193.397 22377.335 26280.167 25802.905 8631.685 17211.751 19720.542 29484.106 13304.905 24875.406 21499.326 18436.182 16167.899 21886.130 21565.117 19809.122 23345.229 19029.991 20385.890 17648.620 18440.105 19854.197 18040.136 29219.377 11382.647 26635.980 23349.863 15716.672 7601.403 27475.524 0.000 17715.996 20445.256 37.963 13656.915 18651.348 24206.718
23376.630 4148.489 14833.116 6768.781 11560.534 5935.584 6990.822 2674.385 3385.205 2208.568 1800.686 3301.220 18672.837 2090.181 3570.481 2226.213 10232.208 4742.286 2401.726 1794.532 1925.275 7674.126 5346.382 9076.454 10447.045 6776.358 6553.225 7904.668 729.336 463.169 2667.033 1771.324 1643.399 5355.033 13367.709 1898.182 9647.195 6533.203 23705.527 14508.096 4170.498 3532.133 3300.239 1785.547 9556.504 6620.525 2016.053 4075.441 10915.620 9841.088 2446.169 1850.977 13541.350 915.936 2954.461 16482.221 7298.436 1915.745 5122.912 962.558 16452.309 24021.301 4400.932 2331.719 5733.043 7414.022 12591.891 8799.461 4052.757 4360.804 10450.304 5989.567 15369.368 23554.121 1591.112 20448.960 14894.378 8142.535 9084.824 562.863 6311.349 17272.475 4558.425 7727.745 3795.442 6407.253 7755.393 9297.925 3869.273 18109.754 9492.429 1896.591 6388.178 1861.577 2902.715 2513.813 632.247 14503.145 6685.596 16052.713 5672.597 2141.468 10149.003 9765.919 17715.996 0.000 6240.231 17698.498 4639.145 3720.942 6607.055
26251.184 7211.240 21062.003 6381.583 11752.429 10292.187 12700.015 3600.581 6335.571 4529.307 4839.921 7451.599 21921.187 5281.742 9751.806 8025.833 16462.284 8210.918 4592.127 7042.364 7829.135 13530.714 11398.699 11669.674 10168.033 11938.422 3179.381 14141.741 6707.061 5887.995 7486.123 7186.008 5150.709 8533.566 7859.453 7753.657 11595.089 7251.342 29487.311 19300.869 6491.596 9768.361 3701.806 7681.063 11969.306 6149.714 6823.732 4105.465 11633.568 8719.641 7983.724 7810.351 8048.813 6638.222 7717.558 21737.557 10180.254 7701.561 9407.793 7202.687 15420.792 29812.201 10609.429 4392.067 7297.138 8004.776 17360.522 2579.740 7354.857 10588.565 12064.413 10320.824 14272.462 26237.032 7634.152 26687.638 8654.157 9446.634 12414.113 6179.010 12224.631 11119.738 8013.862 10685.925 5953.917 2304.859 13969.553 3089.639 5879.698 24326.864 3410.005 7401.830 12115.711 4571.771 3380.190 4570.898 6686.505 18647.838 9328.181 9827.598 6431.784 7717.638 13142.596 10180.786 20445.256 6240.231 0.000 20438.342 7243.624 2615.238 6454.509
38871.337 21765.037 18488.996 24318.225 29246.416 22427.771 13147.091 18364.421 21079.252 19431.916 19125.610 14450.837 2204.705 16540.091 16191.987 18752.767 16903.247 22139.633 19719.665 19168.225 18501.040 20460.334 18795.241 26215.815 28137.792 21867.159 17618.194 16774.807 17015.010 18085.897 19948.450 19034.547 19136.786 22759.532 21493.470 18576.059 27023.814 24222.270 17698.173 7776.345 21867.931 16779.962 20201.642 16210.834 26734.523 24138.673 19538.913 16522.796 28553.979 13028.748 15435.950 18383.586 21526.329 18416.561 14745.337 28147.103 24528.340 16016.086 12594.300 17422.493 34137.424 17998.158 17612.040 19486.712 13212.407 25110.620 26527.572 22271.914 21625.952 17354.454 27889.239 22489.537 33041.265 39270.477 18173.113 22339.408 26283.703 25783.917 8614.485 17194.738 19693.285 29487.183 13289.989 24853.409 21482.348 18431.455 16137.418 21884.086 21548.297 19771.310 23341.398 19010.031 20359.032 17634.760 18428.043 19839.113 18021.622 29190.354 11370.437 26641.473 23333.462 15697.647 7586.420 27457.477 37.963 17698.498 20438.342 0.000 13644.465 18640.837 24191.250
27918.059 8735.317 15833.578 10765.839 15962.145 10454.195 6579.784 4720.013 7880.687 5903.164 5652.644 1719.708 14912.058 2968.533 5595.633 6509.820 11510.405 9379.816 6201.068 6407.865 6188.627 11013.974 8596.438 13715.525 14705.879 10904.521 5313.354 9540.918 4157.611 4894.857 7282.777 6349.562 5734.352 9989.626 11849.621 6214.850 14264.453 10831.608 22797.458 12118.852 8621.523 6048.188 6577.935 3964.880 14194.309 10572.959 6655.189 3138.956 15402.524 5764.288 3425.493 6075.580 11985.402 5532.022 2402.383 20080.371 11937.354 3782.821 2515.144 4852.014 20651.121 23130.052 7264.635 5936.594 1266.690 11743.981 16660.103 9551.708 8662.965 7073.914 15049.168 10511.681 19531.450 28123.931 5793.460 21472.615 14969.915 12651.974 5239.571 4076.358 9706.940 17865.448 1002.388 12366.106 8147.604 5819.098 9099.147 9545.490 8190.748 18867.322 10543.904 6425.660 10048.985 4038.002 4786.457 6316.006 5170.106 18809.578 2275.672 15832.082 9896.917 3465.509 6100.459 14163.503 13656.915 4639.145 7243.624 13644.465 0.000 5068.003 10662.122
25399.272 5751.396 18483.733 6319.005 11802.282 8579.604 10099.046 1049.199 4775.136 2500.051 2663.371 4956.227 19970.668 2701.552 7164.562 5703.400 13888.311 6705.881 2697.545 4825.105 5465.009 11261.078 9016.202 10710.808 10355.184 9957.108 3323.941 11580.778 4123.331 3424.738 5440.749 4934.575 2971.932 7166.888 9768.997 5403.089 10898.590 6781.963 26898.371 16895.273 5215.680 7214.896 2266.267 5071.975 11095.497 6096.074 4708.168 2183.269 11454.659 8132.899 5370.935 5426.604 9948.743 4258.077 5154.240 19799.594 9037.912 5088.018 6977.941 4673.541 16087.812 27222.076 8121.750 2399.900 5456.888 7668.189 15617.518 5192.776 5822.397 8079.509 11524.607 8619.079 14944.157 25467.376 5216.239 24123.793 11224.940 8910.597 10306.647 3595.197 9918.846 13734.975 5689.292 9537.890 4635.911 2891.948 11385.810 5600.722 4608.618 21737.850 6003.656 5140.398 9896.641 1965.244 820.838 2738.859 4232.447 17188.101 7301.579 12351.948 5834.117 5102.884 11151.963 10067.070 18651.348 3720.942 2615.238 18640.837 5068.003 0.000 6288.933
19849.287 3353.833 19311.679 251.703 5514.686 5836.274 13205.462 6093.709 3471.405 4769.949 5065.654 9749.182 25250.744 7698.424 9405.882 6494.098 14959.383 3894.944 4477.255 5600.236 6575.243 10354.858 9128.520 5534.234 4089.714 7938.587 9214.660 12720.033 7330.757 6177.334 5179.990 5787.499 5066.090 3718.037 13968.348 6472.541 5230.832 1021.865 29338.838 20997.232 2749.468 9037.132 4168.543 8312.070 5730.667 369.240 5166.626 8382.543 5233.634 14412.499 9034.573 6657.706 14159.621 6083.172 9524.284 16846.453 4457.426 8475.011 11699.198 7146.052 9989.000 29636.554 9145.957 4727.537 11413.989 1560.856 12183.437 7680.984 3596.532 9285.063 5625.265 5828.378 8871.383 19808.819 6730.506 24533.320 12962.754 3050.443 15593.020 7055.788 9415.396 14254.878 10905.261 4903.587 2888.176 8469.358 12852.496 8684.476 2791.040 22594.731 7587.604 5922.187 8946.361 6625.594 6113.079 4359.053 6446.713 12889.670 12913.305 14360.412 1071.741 8736.089 16606.161 3806.219 24206.718 6607.055 6454.509 24191.250 10662.122 6288.933 0.000
NODE_COORD_SECTION
1 14148.085016 -13392.395306
2 -2771.700811 -3282.023116
3 7053.613019 9340.965498
4 -4550.655602 -6403.261266
5 -930.429810 -10547.608206
6 308.338489 -2737.337036
7 -1883.594769 6737.052592
8 -7154.555143 -815.361027
9 -3647.109727 -2836.816121
10 -5672.430548 -1645.842292
11 -5470.102089 -1289.477787
12 -6158.949834 3349.583155
13 -7878.208461 18772.017532
14 -6709.372003 1099.672928
15 -2281.805600 2939.108876
16 -2556.353681 3.964617
17 3388.127707 6560.207396
18 -1772.934767 -3326.077184
19 -5530.290569 -1910.161651
20 -3329.466671 -729.513182
21 -2838.653357 162.447055
22 2878.384398 1166.476409
23 468.080621 1510.872038
24 1161.561128 -6521.847345
25 -2388.128664 -9813.262350
26 1825.022308 -1262.931021
27 -11286.651199 -150.173136
28 1676.115614 4960.709047
29 -4700.877369 1089.914302
30 -4894.914635 -78.575456
31 -2692.757476 -1330.555598
32 -3239.074490 -556.256342
33 -5160.116998 -1229.823894
34 -1486.247635 -3880.324042
35 -17817.399324 -2471.315718
36 -2878.566316 66.364630
37 681.835700 -7607.803116
38 -3365.418982 -6021.558629
39 7838.384546 20447.206260
40 -2309.193212 14663.184999
41 -3512.707688 -3619.161168
42 -1915.862928 2465.746248
43 -6311.456772 -2546.880321
44 -4259.214758 2078.244984
45 1310.781314 -7023.395585
46 -4733.539107 -6258.015316
47 -3423.905778 -1152.982040
48 -8795.584831 882.899142
49 -397.682897 -9646.393182
50 -13462.308120 4945.472377
51 -4543.918172 2799.653477
52 -2905.232658 262.519046
53 -18004.080746 -2428.669005
54 -4001.793893 -160.839827
55 -5484.171645 3225.165705
56 11667.249244 -1059.607109
57 -28.991627 -5200.443112
58 -4381.934454 2241.844319
59 -5795.780636 5378.244281
60 -3955.804223 901.168750
61 -1147.949256 -15689.884644
62 8106.405455 20651.528460
63 -737.591029 2162.647717
64 -5790.929310 -1725.742811
65 -9025.113580 4186.243711
66 -2919.232020 -6821.053951
67 7381.302161 -2999.378178
68 -11904.544602 -4765.209635
69 -2624.390971 -3085.954392
70 -884.863659 2374.990258
71 782.801903 -8500.821505
72 338.474667 -2791.346155
73 -1752.109084 -14710.976143
74 13785.492304 -14166.872423
75 -3162.619152 389.059322
76 12080.252935 11972.149414
77 -17237.531512 -7761.045993
78 -1432.277865 -7071.920432
79 -7319.100093 9077.511272
80 -5129.789519 781.081891
81 1511.871495 1122.830502
82 -17824.515600 -10928.541384
83 -6935.113732 4364.959218
84 457.204164 -5344.228545
85 -4033.615763 -3364.064765
86 -11016.394558 -989.983661
87 1172.719505 5365.073462
88 -12822.052547 -4258.127500
89 -4113.433598 -3453.483463
90 9349.715049 11723.037790
91 -11942.363119 -5836.437330
92 -3044.572739 -460.074069
93 1634.539660 403.207270
94 -6581.550708 10.727404
95 -7364.237997 -906.318774
96 -5522.961371 -2030.676866
97 -4140.016130 209.630922
98 8504.601096 -5516.612491
99 -8178.069508 6104.393258
100 -18653.792311 -7666.949032
101 -3936.302009 -5250.943978
102 -4613.941702 2499.394418
103 -8068.732532 9954.744913
104 -1644.999594 -8895.508433
105 -9630.308237 17394.019626
106 -4753.508741 362.479675
107 -9979.151395 -3048.259677
108 -9593.110032 17386.436137
109 -7801.114985 3860.158919
110 -8131.868126 -1197.039326
111 -4365.137459 -6233.150530
DEMAND_SECTION
1 0
2 30
3 97
4 69
5 40
6 2
7 68
8 78
9 56
10 83
11 100
12 50
13 2
14 44
15 57
16 54
17 73
18 34
19 57
20 29
21 86
22 59
23 99
24 31
25 19
26 38
27 15
28 60
29 16
30 24
31 46
32 42
33 77
34 35
35 81
36 53
37 37
38 29
39 95
40 67
41 8
42 60
43 77
44 15
45 21
46 96
47 35
48 30
49 23
50 35
51 30
52 81
53 92
54 15
55 38
56 26
57 42
58 22
59 26
60 12
61 31
62 58
63 77
64 73
65 5
66 42
67 29
68 82
69 5
70 99
71 18
72 4
73 45
74 28
75 90
76 86
77 53
78 18
79 24
80 41
81 100
82 100
83 17
84 35
85 58
86 56
87 63
88 51
89 56
90 67
91 71
92 8
93 84
94 34
95 98
96 88
97 16
98 26
99 1
100 92
101 85
102 32
103 15
104 50
105 38
106 38
107 80
108 1
109 35
110 91
111 90
DEPOT_SECTION
1
-1
EOF
