NAME : mamut-perpignan-n132-k9-poi
COMMENT : Mamut2026 euclidean metric; city perpignan; No of trucks: 9 (lower bound, fleet not fixed); 3-decimal seconds/meters; ENU ref in mamut-perpignan-n132-k9-poi.vrp.json
TYPE : CVRP
DIMENSION : 133
EDGE_WEIGHT_TYPE : EXPLICIT
EDGE_WEIGHT_FORMAT : FULL_MATRIX
CAPACITY : 886
EDGE_WEIGHT_SECTION
0.000 22321.844 9265.111 15725.193 9269.763 15953.843 13118.641 9199.053 12693.937 16140.053 16230.871 9730.203 18742.805 15614.450 8582.429 14690.050 9153.336 21663.401 11220.749 5804.733 11250.516 2903.977 17637.445 9468.672 9201.089 5671.596 12305.434 12613.234 2667.243 12751.686 16286.829 13315.179 6924.096 18531.373 9218.686 9351.767 671.938 15737.951 13039.394 9125.580 9658.926 12214.456 15040.542 11171.461 8840.424 9332.393 10987.157 12649.820 9271.668 15094.031 17423.007 9076.809 9089.828 9745.614 11601.885 7194.718 12796.484 9141.928 13109.531 10013.474 8981.379 21563.343 16541.695 13260.469 9409.068 3041.973 10567.084 12445.600 11708.108 16188.559 3088.273 8985.496 17077.464 9373.045 11060.891 7036.017 8113.727 18335.774 11601.329 5969.106 8983.034 12738.362 15524.937 10748.942 9016.794 9260.047 6788.649 13195.461 9185.200 7116.721 8230.701 11561.072 9541.657 14578.735 9842.830 8635.334 8998.097 10379.891 17072.333 11954.749 18705.688 9533.999 10071.039 8929.568 9362.500 11983.948 16162.450 16845.543 9012.286 7120.932 9271.478 11962.500 9895.607 8994.490 3147.768 15510.577 6082.957 8911.687 12016.400 9837.114 10724.339 15759.782 10056.766 3299.232 9358.601 12186.819 15718.154 9144.304 9324.924 10575.857 9305.510 10985.819 9421.606
22321.844 0.000 13734.188 9647.099 13595.842 6542.119 9210.750 13611.161 17144.482 6346.916 8457.361 16412.916 5195.779 9767.379 14452.917 11529.461 13348.834 1129.509 11164.754 17744.696 11175.820 20510.617 5651.580 13211.594 19492.238 19580.068 17396.927 9742.394 19774.058 9571.571 16611.395 9685.674 17292.482 5380.188 13350.139 13200.206 22898.490 9690.486 9307.559 13529.299 13708.999 10115.418 11801.088 11527.983 13815.233 13332.460 11837.922 17396.230 13278.288 16041.296 5693.570 13612.749 13651.660 12689.389 10922.320 15170.184 15282.337 13465.106 9223.615 12433.776 14021.906 1206.975 16695.712 15567.164 13162.665 22406.750 12194.770 11061.544 10614.282 8549.027 22286.367 13990.430 8950.093 13260.910 16216.463 15315.490 14691.796 4149.555 10798.747 18111.037 14008.903 15264.600 16394.614 11752.235 14303.601 13315.116 15581.063 9779.049 14007.116 16167.708 14330.174 11001.529 13202.180 8442.361 16219.154 13877.975 13778.151 12333.936 9051.956 12215.725 3696.467 13174.048 12353.644 13708.657 13497.712 10348.583 9704.855 9384.995 13688.781 16195.490 13324.899 10948.301 12598.211 13930.327 22298.696 6920.214 17935.886 14540.352 10324.009 12652.731 11778.198 16563.835 12691.413 22235.098 13272.388 17226.349 12229.857 13572.923 13369.414 19466.340 13274.194 11817.428 13151.653
9265.111 13734.188 0.000 6532.942 5146.624 8091.900 5207.963 5015.738 7019.401 8236.757 10110.342 4107.017 11373.374 6431.665 727.324 10391.039 4114.893 13288.088 2988.517 7113.066 2853.509 6953.051 10179.061 4711.165 11548.863 5880.927 6910.552 5003.358 6598.297 4675.499 14939.633 6864.713 7633.082 11203.583 4355.774 4312.035 9724.532 6552.427 5278.913 4612.008 708.786 4506.963 10947.496 5225.554 4608.456 4654.663 5427.312 7167.441 4297.153 8292.854 9896.299 4706.147 4842.892 3917.260 2908.359 3764.430 5796.857 4471.746 5236.445 4040.674 5429.439 13196.124 15185.745 11814.547 4383.973 10460.963 5150.417 7074.706 3881.885 10117.652 10376.791 5373.688 7871.059 4570.725 10375.995 2854.497 5058.529 10167.868 4542.346 7767.847 5406.445 5730.695 8846.268 4504.414 728.167 4379.821 3986.596 6757.111 411.751 2438.575 4360.146 2798.329 4884.982 7699.055 3992.492 4152.459 4927.247 4981.962 7876.168 7660.623 10410.321 4792.870 3954.070 4558.072 344.854 3918.370 7005.226 7679.146 4735.196 2464.016 4448.115 5998.209 4199.011 5266.529 10413.714 7598.888 7647.543 6228.983 3876.520 4170.124 4499.108 9130.717 4984.147 10425.667 4560.604 6693.094 7168.292 4782.685 4734.398 12490.372 4398.571 5381.393 4390.415
15725.193 9647.099 6532.942 0.000 9997.861 7185.977 6270.803 9912.919 7518.635 7179.108 10779.676 7399.887 9994.364 132.816 7168.743 12712.078 9101.833 9715.641 6027.968 13252.641 5828.448 13197.728 9048.172 9447.531 17084.558 11383.312 7795.500 6721.912 13072.659 5976.889 18262.511 8685.608 13477.451 9937.579 9277.130 9148.342 16138.661 59.774 6521.017 9573.798 6070.469 6557.827 13263.323 8664.044 9742.202 9482.739 9061.677 7771.195 9188.378 6506.597 8760.145 9691.876 9813.015 8497.439 5305.645 9854.568 5679.735 9433.312 6335.503 8399.555 10442.335 9655.851 18464.183 15675.221 9176.394 16977.632 9096.178 9865.092 6420.991 10840.239 16889.769 10385.360 1354.130 9376.428 14966.011 9247.222 10535.911 7779.112 7396.550 13859.726 10418.839 5668.785 6923.612 8234.002 6708.744 9272.187 10183.722 8657.419 6554.962 8633.070 9857.501 5231.039 9568.691 8514.926 7205.441 9456.079 9947.455 9062.705 1347.569 11040.059 7676.714 9483.443 8268.335 9643.421 6516.738 6061.828 536.438 1156.596 9758.011 8635.150 9328.016 8879.764 8646.395 10275.721 16924.794 6876.280 13713.295 11281.835 5950.745 8664.092 8250.888 7131.008 9310.297 16929.492 9376.370 7637.563 2806.468 9722.839 9563.645 17742.401 9259.542 9009.692 9173.889
9269.763 13595.842 5146.624 9997.861 0.000 7055.145 4689.962 135.977 12156.740 7250.087 6982.076 9083.799 9532.989 9947.078 5239.261 5977.993 1040.202 12790.889 3969.911 4148.855 4173.232 8394.017 8476.414 550.336 7095.626 9034.297 12027.931 4082.585 7129.104 4584.416 9850.920 4097.082 3820.803 9316.970 805.469 891.190 9917.037 10040.954 4508.081 534.720 5831.591 3900.733 6462.727 2067.859 624.527 532.330 1781.460 12296.615 878.995 13365.399 8290.195 448.785 321.742 1508.075 4695.376 2519.692 10914.976 676.101 4651.488 1602.936 470.572 12688.447 10102.346 6680.249 842.884 8843.909 1401.734 3197.511 3732.267 6944.975 8720.124 422.389 11110.232 636.104 5278.759 3538.384 1161.782 9462.939 3016.074 4541.322 450.399 10849.836 13922.608 1988.756 5736.971 790.765 2809.046 3982.064 5511.935 6006.969 1218.194 4779.642 449.237 5387.079 9004.269 1094.668 313.594 1267.652 11160.298 3026.401 9899.688 522.243 1733.504 624.948 4855.782 4112.176 10533.934 11098.438 442.145 6059.719 723.701 2740.133 1356.252 339.131 8728.767 6682.847 4367.367 1284.059 4207.795 1334.832 1964.160 14207.336 909.732 8656.743 639.855 11812.885 11603.287 365.419 447.400 7764.889 785.405 1793.901 842.459
15953.843 6542.119 8091.900 7185.977 7055.145 0.000 2955.436 7072.962 13410.945 195.321 3703.666 11624.293 3326.843 7236.876 8745.557 6248.270 6858.491 5752.485 5165.138 11203.775 5258.245 14393.795 2153.262 6682.243 13202.604 13914.657 13522.655 3369.711 13492.201 3445.595 11907.718 3227.029 10762.477 3181.704 6841.142 6694.098 16556.513 7245.744 2969.385 7005.716 8298.442 3817.554 6716.979 4987.577 7293.755 6805.980 5296.240 13639.749 6773.320 13260.419 1853.427 7085.112 7118.736 6223.753 5200.171 8759.873 11595.227 6949.029 2944.950 5960.181 7479.789 5650.585 12067.131 9988.303 6651.491 15880.567 5653.612 4682.525 4405.814 3777.170 15758.894 7448.413 7499.835 6738.497 10136.465 9068.456 8160.218 2412.697 4352.544 11570.226 7466.808 11553.112 13755.250 5250.379 8773.786 6804.393 9167.489 3305.045 8447.319 10392.203 7831.057 5325.005 6666.359 2136.758 11451.447 7388.052 7243.085 5795.938 7599.759 5932.894 2845.718 6641.318 5892.510 7189.056 7789.420 4242.291 7588.891 7766.686 7160.314 10429.806 6809.767 4421.100 6105.298 7388.948 15769.878 493.047 11395.121 8011.278 4258.680 6161.697 5276.038 14000.267 6152.706 15703.060 6750.549 13314.961 9908.049 7041.862 6839.481 13353.348 6762.137 5275.401 6640.044
13118.641 9210.750 5207.963 6270.803 4689.962 2955.436 0.000 4666.535 11137.497 3121.930 5214.373 8965.216 6174.077 6267.299 5832.509 6523.144 4218.085 8551.378 2233.111 8742.429 2354.519 11455.821 4980.154 4211.757 11529.287 10977.324 11183.417 609.837 10603.787 548.631 11998.547 2452.517 8510.723 5999.951 4262.718 4108.723 13704.234 6325.757 251.669 4488.510 5493.804 904.793 7088.653 2777.493 4757.373 4312.110 3178.401 11347.383 4181.664 11432.077 4703.313 4588.827 4658.335 3532.753 2409.678 5961.034 9430.558 4396.866 64.888 3294.598 5155.708 8452.093 12203.855 9437.262 4087.117 13281.922 3390.958 3606.969 1453.927 5244.269 13165.983 5111.263 7088.548 4223.770 8941.454 6154.753 5660.123 5245.661 1682.094 9197.393 5137.345 9379.147 11966.021 2707.538 5912.192 4233.752 6371.968 2408.833 5582.861 7452.653 5199.468 2552.572 4250.547 2706.547 8805.832 4737.181 4796.586 3458.381 7163.079 4827.955 5592.472 4198.154 3198.043 4646.399 4890.908 1299.593 6781.537 7199.700 4666.837 7491.547 4257.467 2703.923 3491.512 5026.520 13182.747 2472.754 9025.899 5858.823 1332.008 3540.223 2732.918 12233.317 3800.706 13131.674 4232.359 10967.257 8594.243 4569.990 4366.938 11951.850 4198.126 3136.144 4077.816
9199.053 13611.161 5015.738 9912.919 135.977 7072.962 4666.535 0.000 12024.237 7267.640 7065.813 8948.508 9585.933 9860.833 5104.496 6100.039 915.605 12814.331 3885.591 4136.307 4085.615 8290.698 8521.628 477.273 7174.877 8908.580 11894.434 4061.125 7037.202 4545.613 9986.405 4147.230 3847.620 9370.602 685.326 782.521 9844.099 9955.569 4489.826 404.472 5702.001 3863.924 6587.537 2086.866 493.091 431.244 1821.124 12163.603 763.053 13240.496 8331.755 313.540 186.118 1416.480 4608.236 2401.010 10787.228 549.068 4629.580 1529.064 531.355 12711.963 10237.912 6814.101 741.561 8815.376 1426.683 3285.557 3675.202 7030.012 8692.328 476.131 11033.263 537.470 5400.602 3408.267 1108.124 9482.960 2987.798 4545.531 508.488 10722.014 13797.599 1959.809 5603.564 674.453 2698.416 4030.947 5379.797 5872.401 1101.070 4689.749 417.401 5433.798 8869.279 959.699 205.221 1277.250 11082.346 3148.385 9915.817 470.887 1658.376 489.198 4726.383 4054.469 10448.758 11017.085 306.927 5925.139 609.172 2788.585 1284.161 372.846 8701.881 6694.379 4372.293 1372.425 4148.246 1258.028 1934.689 14082.352 920.318 8632.195 538.757 11679.491 11497.583 233.074 349.291 7860.783 673.775 1829.758 742.633
12693.937 17144.482 7019.401 7518.635 12156.740 13410.945 11137.497 12024.237 0.000 13485.359 16351.762 3343.756 16656.687 7393.581 6957.499 17201.983 11131.013 17134.742 9353.134 13293.898 9131.476 9791.092 15539.278 11730.403 18071.162 7056.050 443.630 11215.121 10578.099 10609.456 21954.695 13348.526 14110.477 16543.625 11372.229 11331.220 12814.313 7479.818 11312.543 11622.223 6359.915 10779.110 17771.271 12089.967 11598.963 11672.092 12347.082 252.666 11315.270 2580.242 15235.672 11712.419 11847.869 10919.822 8841.952 10399.568 1876.913 11484.338 11190.237 11020.368 12414.301 17067.185 22199.466 18832.335 11403.358 15078.622 12113.950 13882.686 10247.619 16381.621 15044.009 12360.298 8456.815 11589.369 17329.333 9241.472 11940.030 14761.172 11159.512 13956.803 12392.030 1904.258 2901.548 11388.556 6425.624 11397.234 10471.990 13261.408 6645.305 6897.905 11277.454 8691.887 11904.326 13844.019 3340.469 11130.450 11924.546 11959.393 8375.172 14613.911 14785.202 11812.267 10922.573 11556.752 7328.539 10096.483 7548.461 8027.662 11736.902 6854.929 11465.390 12767.303 11196.214 12256.444 15097.117 12964.786 13882.179 13181.654 10006.078 11171.418 11388.164 3105.556 11989.589 15175.806 11579.066 507.725 5343.958 11791.640 11751.080 19160.584 11416.852 12297.606 11409.815
16140.053 6346.916 8236.757 7179.108 7250.087 195.321 3121.930 7267.640 13485.359 0.000 3774.942 11737.435 3215.460 7233.311 8895.162 6377.189 7049.635 5559.940 5321.962 11398.770 5410.093 14568.181 2058.235 6876.151 13388.973 14068.806 13602.761 3548.545 13673.888 3603.644 12028.561 3416.887 10957.621 3079.075 7033.564 6886.292 16741.617 7238.828 3143.722 7199.207 8432.042 3991.346 6838.194 5182.451 7487.118 6999.673 5491.534 13715.568 6965.448 13298.820 1755.384 7278.915 7312.957 6413.029 5339.283 8946.674 11662.917 7141.967 3113.568 6149.901 7674.992 5458.115 12185.289 10142.360 6844.037 16074.565 5848.600 4868.784 4574.529 3851.086 15952.967 7643.567 7458.031 6931.876 10312.749 9246.439 8354.377 2219.367 4539.210 11765.539 7661.992 11621.638 13789.949 5441.926 8914.554 6996.931 9354.607 3496.112 8588.819 10547.767 8022.963 5461.913 6860.807 2309.126 11563.317 7579.282 7437.489 5990.561 7559.054 6115.074 2650.486 6835.499 6081.333 7382.274 7936.993 4402.882 7572.524 7733.575 7354.185 10584.948 7002.620 4615.934 6296.429 7583.982 15964.032 649.251 11590.435 8206.351 4416.335 6352.710 5467.616 14032.931 6347.413 15897.412 6943.886 13396.049 9916.262 7235.929 7033.446 13532.769 6954.763 5470.656 6832.620
16230.871 8457.361 10110.342 10779.676 6982.076 3703.666 5214.373 7065.813 16351.762 3774.942 0.000 14078.949 3326.183 10817.508 10620.709 3072.967 7329.142 7387.171 7192.256 10744.453 7379.379 15290.069 2899.183 6872.277 11332.860 15472.906 16396.000 5193.532 14095.791 5746.263 8458.855 3281.568 9954.087 3118.600 7192.880 7090.009 16884.723 10839.229 5045.563 7208.839 10526.302 5668.807 3381.873 5327.120 7476.014 7009.327 5382.597 16561.717 7164.540 16547.337 2974.555 7233.776 7196.070 6931.183 7565.692 9340.627 14633.093 7228.766 5162.137 6678.654 7249.603 7292.567 8589.932 7109.846 7017.088 15455.239 5806.486 3787.668 6268.349 92.859 15324.581 7246.352 11185.456 6994.064 7917.453 10065.315 8124.824 4827.103 5590.227 10909.160 7248.201 14582.973 17067.780 5960.296 10838.226 7148.962 9695.939 3398.319 10514.444 12037.439 8113.337 7714.403 6766.770 2507.850 13930.411 7783.752 7270.524 6011.869 11283.481 4450.793 5333.522 6793.901 6684.276 7403.187 9769.265 6330.748 11213.427 11435.676 7288.698 12084.271 7118.731 4457.704 6689.924 7241.436 15321.368 3924.525 10741.525 7401.736 6406.903 6746.937 5977.799 17326.828 6283.374 15220.214 7009.702 16179.406 13416.676 7155.519 6997.706 11135.968 7103.133 5398.961 7004.169
9730.203 16412.916 4107.017 7399.887 9083.799 11624.293 8965.216 8948.508 3343.756 11737.435 14078.949 0.000 14950.611 7267.906 3850.919 14497.946 8090.935 16185.689 6887.932 9952.411 6699.968 6853.462 13773.972 8707.547 14741.111 4375.819 3092.013 8891.773 7417.147 8416.634 18934.254 10891.431 10786.744 14804.763 8330.697 8311.652 9945.457 7384.862 9089.862 8555.669 3575.295 8410.879 15054.485 9332.317 8495.239 8632.379 9531.189 3410.486 8284.353 5432.331 13476.509 8635.054 8766.032 7987.577 6556.140 7140.543 3067.502 8426.455 9006.765 8130.188 9292.965 16104.555 19185.037 15752.019 8388.864 11900.666 9242.813 11179.677 7812.618 14094.303 11856.350 9241.894 8655.547 8559.832 14139.789 5962.266 8742.037 13382.699 8589.963 10614.484 9271.898 3010.399 5908.979 8611.376 3413.012 8360.607 7181.370 10789.701 3698.103 3556.813 8110.348 6412.645 8882.652 11606.850 196.570 8017.415 8827.275 9067.742 8608.145 11749.315 13518.011 8794.592 8049.676 8466.460 4447.666 7757.692 7658.646 8296.831 8649.815 3513.081 8427.126 10096.022 8273.470 9143.819 11907.189 11142.012 10541.430 10018.138 7689.033 8240.020 8606.123 6166.544 9041.898 11974.825 8547.928 2898.703 6360.999 8719.734 8706.277 15849.381 8386.020 9485.872 8396.906
18742.805 5195.779 11373.374 9994.364 9532.989 3326.843 6174.077 9585.933 16656.687 3215.460 3326.183 14950.611 0.000 10069.476 12006.414 6372.747 9598.213 4096.378 8407.164 13565.028 8522.607 17425.947 1194.390 9280.710 14609.161 17140.990 16787.842 6476.354 16404.629 6698.853 11447.332 5439.368 12908.512 221.851 9524.443 9392.958 19372.576 10052.622 6132.935 9622.785 11609.985 6961.858 6615.880 7571.363 9910.363 9415.834 7771.054 16890.347 9472.895 16331.440 1480.698 9677.921 9676.752 9046.353 8504.679 11599.793 14817.329 9601.578 6150.880 8776.747 9888.272 4005.795 11542.677 10410.743 9334.347 18307.131 8184.780 6539.789 7581.150 3414.580 18179.483 9871.119 9994.449 9371.506 11225.531 12080.725 10692.468 2394.849 7303.380 13817.797 9881.157 14778.599 16801.889 8028.212 12067.431 9482.932 11992.725 5556.820 11739.234 13617.292 10512.595 8633.861 9219.075 4164.252 14777.261 10110.284 9779.910 8366.937 10102.365 7501.737 2748.352 9219.416 8738.140 9817.894 11061.372 7473.211 10312.993 10338.016 9745.578 13657.338 9471.405 6798.078 8868.123 9839.003 18182.400 3812.575 13644.892 10221.028 7504.534 8927.197 8051.600 17033.153 8698.377 18095.292 9385.772 16583.394 12794.039 9615.550 9428.129 14454.786 9437.408 7768.291 9321.760
15614.450 9767.379 6431.665 132.816 9947.078 7236.876 6267.299 9860.833 7393.581 7233.311 10817.508 7267.906 10069.476 0.000 7063.089 12723.179 9044.386 9828.603 5977.496 13175.645 5775.335 13080.263 9114.774 9396.826 17030.138 11256.854 7668.530 6709.929 12963.409 5963.417 18263.110 8689.423 13410.273 10010.329 9221.845 9094.183 16025.529 124.429 6516.897 9518.980 5962.220 6536.552 13276.010 8634.928 9684.422 9430.306 9031.146 7646.093 9133.295 6404.001 8825.532 9637.041 9758.993 8444.769 5252.626 9774.483 5552.328 9377.898 6332.089 8350.557 10389.665 9768.213 18465.991 15660.359 9123.262 16880.910 9059.619 9855.977 6387.443 10877.238 16793.585 10332.527 1470.390 9323.974 14933.382 9156.221 10473.019 7865.216 7368.608 13784.967 10366.102 5540.943 6825.827 8196.093 6598.809 9217.475 10101.032 8659.410 6448.447 8518.859 9792.132 5175.030 9519.617 8538.459 7073.521 9393.554 9892.882 9023.260 1458.503 11023.996 7769.233 9433.842 8219.305 9586.287 6420.175 6030.938 596.394 1248.940 9702.656 8520.523 9273.816 8863.235 8597.242 10222.567 16828.876 6920.482 13639.311 11230.795 5919.410 8614.131 8212.670 7035.757 9267.262 16834.491 9323.709 7509.840 2725.513 9669.090 9511.543 17696.511 9205.413 8978.974 9120.927
8582.429 14452.917 727.324 7168.743 5239.261 8745.557 5832.509 5104.496 6957.499 8895.162 10620.709 3850.919 12006.414 7063.089 0.000 10729.184 4240.224 13996.490 3599.865 6757.827 3488.532 6231.471 10812.287 4856.636 11325.977 5187.767 6804.421 5585.404 5918.808 5310.498 15086.539 7351.385 7373.948 11832.250 4480.201 4460.936 9029.243 7185.268 5886.463 4708.848 1120.544 5088.595 11276.351 5585.996 4660.328 4781.948 5744.828 7083.790 4433.443 8438.083 10533.475 4790.976 4923.470 4159.176 3592.261 3527.026 5904.505 4577.865 5856.957 4320.413 5468.357 13903.975 15336.644 11916.275 4538.371 9879.608 5430.522 7440.942 4460.565 10623.363 9799.970 5415.579 8515.020 4708.940 10371.865 2475.642 4987.524 10856.798 5031.038 7421.881 5446.582 5837.264 8983.846 4865.869 598.281 4509.863 3683.365 7239.587 618.583 1715.258 4319.983 3490.116 5031.737 8250.665 3765.948 4186.014 4990.258 5247.596 8515.553 7924.257 11108.583 4943.757 4250.797 4626.132 966.445 4534.249 7627.269 8306.028 4808.725 1742.575 4576.490 6397.362 4446.589 5314.312 9838.944 8253.149 7312.870 6224.775 4502.061 4409.874 4857.173 9266.273 5201.712 9858.323 4697.066 6591.823 7622.325 4874.377 4856.322 12324.848 4535.121 5702.491 4546.512
14690.050 11529.461 10391.039 12712.078 5977.993 6248.270 6523.144 6100.039 17201.983 6377.189 3072.967 14497.946 6372.747 12723.179 10729.184 0.000 6712.514 10454.286 7867.046 8929.258 8096.269 14270.869 5948.194 6118.431 8553.880 15002.567 17167.838 6213.106 12896.981 6937.597 5674.912 4071.370 7936.079 6172.360 6504.759 6461.251 15360.637 12769.354 6286.109 6391.758 10954.592 6559.847 573.586 5165.688 6587.353 6235.608 4984.467 17384.167 6515.697 17829.858 5988.593 6365.281 6274.768 6598.008 8450.343 8496.603 15650.358 6472.335 6458.993 6414.531 6054.145 10360.534 5846.933 4039.727 6378.939 13434.375 5315.748 3326.985 7009.559 2980.962 13301.740 6075.699 13356.153 6268.076 5072.798 9483.298 6939.122 7822.272 6050.724 8930.955 6062.969 15592.548 18375.622 5886.633 11094.382 6464.179 8767.054 4122.760 10800.700 11832.645 7195.287 8596.524 5961.248 4304.787 14380.192 7017.117 6291.331 5510.023 13444.016 2951.698 8336.818 6026.539 6479.072 6555.748 10050.410 7227.619 13199.597 13538.015 6391.672 11884.174 6410.430 4436.023 6312.158 6118.578 13288.886 6290.113 8780.365 5851.644 7331.959 6355.755 5892.132 18649.902 5628.934 13167.506 6283.252 16947.736 15117.138 6273.697 6188.198 8201.988 6425.255 5026.707 6367.673
9153.336 13348.834 4114.893 9101.833 1040.202 6858.491 4218.085 915.605 11131.013 7049.635 7329.142 8090.935 9598.213 9044.386 4240.224 6712.514 0.000 12607.924 3099.634 4544.168 3281.675 7964.063 8484.497 621.196 7990.448 8321.542 11009.257 3638.423 6828.149 4004.733 10849.213 4204.135 4465.874 9389.032 241.331 252.793 9777.285 9142.580 4077.508 515.077 4795.524 3349.702 7227.881 2044.620 640.752 542.651 1947.394 11274.144 199.431 12325.408 8270.004 625.302 761.504 694.625 3802.590 2024.166 9875.582 367.339 4191.362 923.941 1396.800 12506.344 11098.425 7701.358 334.500 9074.062 1526.791 3645.850 3042.617 7304.032 8956.502 1338.073 10255.391 470.537 6316.136 2801.923 1500.172 9266.419 2559.356 5039.211 1372.584 9810.512 12882.577 1609.143 4720.200 269.705 2402.618 4082.164 4486.066 5134.886 984.149 3871.096 795.015 5439.288 8005.138 529.838 876.803 1319.360 10300.027 3792.707 9671.296 711.474 1022.586 542.301 3819.506 3410.444 9636.069 10219.955 677.249 5187.008 336.395 2888.063 753.206 1225.004 8971.889 6441.892 4872.558 2247.621 3492.015 697.184 1583.701 13167.315 1097.760 8917.647 457.916 10793.389 10611.213 686.020 620.157 8729.019 298.083 1930.182 346.264
21663.401 1129.509 13288.088 9715.641 12790.889 5752.485 8551.378 12814.331 17134.742 5559.940 7387.171 16185.689 4096.378 9828.603 13996.490 10454.286 12607.924 0.000 10600.551 16934.240 10633.032 19956.491 4637.087 12431.756 18511.708 19163.143 17362.790 9050.821 19153.709 8952.698 15489.655 8806.516 16433.246 4287.622 12593.500 12446.195 22253.834 9763.503 8624.054 12757.045 13317.933 9453.151 10711.188 10727.508 13045.438 12556.566 11018.115 17384.544 12525.317 16192.209 4709.522 12835.126 12865.815 11964.832 10423.066 14481.304 15260.740 12701.427 8557.631 11703.768 13204.504 102.648 15572.062 14493.973 12403.933 21628.024 11389.911 10141.636 9985.085 7478.071 21505.651 13175.928 9162.337 12490.177 15201.171 14699.401 13907.498 3341.527 10080.963 17275.531 13192.693 15238.245 16574.269 11001.223 13890.201 12556.831 14891.051 8905.707 13583.747 15704.513 13582.616 10514.000 12411.283 7538.121 15994.640 13137.716 12988.227 11539.195 9268.310 11261.006 2958.939 12388.925 11631.317 12941.076 13032.950 9745.828 9834.608 9586.924 12909.935 15735.142 12562.220 10102.810 11854.805 13121.478 21515.780 6168.543 17100.359 13685.107 9731.912 11910.790 11026.958 16758.497 11894.364 21446.468 12502.333 17183.501 12397.548 12790.232 12588.607 18447.780 12514.610 11001.054 12392.499
11220.749 11164.754 2988.517 6027.968 3969.911 5165.138 2233.111 3885.591 9353.134 5321.962 7192.256 6887.932 8407.164 5977.496 3599.865 7867.046 3099.634 10600.551 0.000 7492.161 237.856 9357.261 7213.265 3419.590 11059.663 8750.537 9342.476 2024.120 8627.848 1719.689 12928.333 4026.328 7547.380 8232.425 3260.173 3126.630 11773.356 6071.054 2291.331 3554.025 3338.592 1532.098 8439.153 2912.336 3739.117 3456.012 3258.100 9543.167 3170.646 10023.329 6935.898 3671.967 3789.946 2471.778 733.067 4290.984 7784.916 3416.612 2257.093 2373.932 4415.682 10504.129 13157.200 10031.097 3151.325 11728.246 3182.368 4575.532 924.760 7206.707 11621.603 4358.999 7157.953 3349.776 9046.999 4184.738 4576.173 7363.234 1817.176 8045.319 4392.302 7726.650 10576.070 2321.851 3703.576 3252.536 4685.633 3931.246 3374.374 5227.205 3940.313 839.207 3542.582 4737.252 6741.811 3504.346 3926.137 3109.093 7204.150 5481.192 7660.926 3456.438 2242.688 3636.206 2664.428 934.402 6564.024 7132.553 3740.285 5265.064 3306.174 3456.795 2620.317 4250.022 11645.748 4675.096 7886.183 5253.867 906.754 2636.645 2332.931 10855.293 3316.388 11616.129 3350.098 9122.835 7767.046 3699.015 3536.411 11723.154 3237.542 3204.467 3148.397
5804.733 17744.696 7113.066 13252.641 4148.855 11203.775 8742.429 4136.307 13293.898 11398.770 10744.453 9952.411 13565.028 13175.645 6757.827 8929.258 4544.168 16934.240 7492.161 0.000 7629.967 6096.495 12556.310 4555.108 4839.455 7943.627 13038.466 8148.775 4539.251 8548.758 10776.605 8179.740 1195.844 13345.420 4480.514 4634.588 6476.382 13285.447 8584.929 4258.336 7785.676 7889.536 9255.935 6216.714 3985.344 4443.430 5916.126 13361.785 4562.912 15104.822 12387.037 4163.229 4108.754 5238.725 8122.018 3415.483 12560.723 4345.660 8711.431 5458.002 3729.963 16831.714 11037.552 7613.015 4655.383 4742.213 5550.170 7045.406 7576.786 10690.816 4614.455 3758.351 14499.374 4525.754 5456.550 4284.891 3084.071 13610.324 7064.055 668.446 3741.586 12493.481 15636.493 6052.351 7355.633 4508.830 3133.999 8070.951 7305.102 6396.068 3589.613 8153.425 4549.084 9473.931 9955.047 4050.240 3977.026 5412.442 14530.203 6328.878 14048.527 4583.946 5564.515 4096.170 6983.274 7936.970 13771.493 14403.283 4085.513 6439.388 4485.299 6844.438 5251.869 3814.956 4617.652 10830.226 592.319 3355.816 8011.751 5204.480 6026.411 15913.820 5054.463 4533.623 4516.158 12849.666 14270.031 4192.236 4397.143 6059.505 4544.306 5933.481 4664.775
11250.516 11175.820 2853.509 5828.448 4173.232 5258.245 2354.519 4085.615 9131.476 5410.093 7379.379 6699.968 8522.607 5775.335 3488.532 8096.269 3281.675 10633.032 237.856 7629.967 0.000 9335.845 7328.220 3623.338 11256.176 8659.325 9125.215 2194.887 8643.333 1823.802 13166.147 4234.970 7713.861 8351.299 3450.208 3320.077 11795.151 5870.626 2433.337 3746.081 3166.776 1710.915 8668.674 3150.077 3922.307 3654.988 3494.783 9323.074 3361.147 9786.905 7047.351 3864.154 3984.641 2669.435 522.805 4387.937 7554.420 3606.562 2383.708 2583.877 4614.336 10537.418 13394.958 10267.493 3348.053 11817.915 3414.225 4809.168 1125.088 7395.658 11712.772 4557.227 6974.376 3548.654 9273.138 4218.330 4745.941 7418.689 2048.620 8192.089 4590.783 7496.418 10339.460 2555.729 3559.193 3444.410 4776.605 4142.048 3229.726 5141.152 4097.705 613.143 3750.411 4911.878 6551.064 3669.510 4119.419 3337.370 7018.464 5719.039 7703.179 3663.039 2452.861 3821.180 2538.768 1073.293 6363.965 6939.938 3931.026 5177.406 3499.760 3690.947 2829.274 4447.392 11737.948 4766.279 8034.696 5456.302 1023.947 2843.176 2566.378 10618.556 3537.850 11711.424 3548.374 8905.737 7536.308 3894.398 3736.337 11932.590 3431.250 3441.170 3345.645
2903.977 20510.617 6953.051 13197.728 8394.017 14393.795 11455.821 8290.698 9791.092 14568.181 15290.069 6853.462 17425.947 13080.263 6231.471 14270.869 7964.063 19956.491 9357.261 6096.495 9335.845 0.000 16266.157 8426.896 10504.079 2800.660 9404.755 11028.527 1564.753 11016.570 16855.667 12141.197 7287.700 17226.378 8097.461 8200.688 3094.858 13204.658 11424.686 8096.797 7219.294 10576.842 14703.275 9994.226 7843.180 8291.121 9908.067 9749.517 8125.738 12193.520 16021.678 8084.166 8139.745 8423.264 9600.360 5949.909 9920.685 8066.464 11459.325 8689.294 8237.929 19859.666 17117.355 13653.956 8273.102 5515.833 9483.654 11554.010 10003.009 15262.793 5512.487 8222.970 14550.632 8300.043 11534.814 5346.245 7342.217 16692.392 10125.590 6539.244 8231.717 9863.841 12621.731 9437.651 6566.548 8141.401 5604.454 12018.624 6789.228 4593.989 7203.797 9531.798 8544.186 13324.293 6974.250 7508.082 8086.872 9278.689 14535.664 11359.122 17010.476 8508.717 8712.481 7906.138 7121.213 10217.269 13603.216 14286.259 8036.798 4585.017 8172.882 10850.158 8636.245 8195.272 5570.878 13921.272 6582.491 8447.586 10226.660 8577.608 9416.052 12856.001 9010.902 5684.197 8284.303 9284.183 12960.722 8167.956 8309.850 11849.119 8187.161 9893.027 8286.027
17637.445 5651.580 10179.061 9048.172 8476.414 2153.262 4980.154 8521.628 15539.278 2058.235 2899.183 13773.972 1194.390 9114.774 10812.287 5948.194 8484.497 4637.087 7213.265 12556.310 7328.220 16266.157 0.000 8195.428 13877.091 15949.887 15659.710 5290.631 15268.842 5504.463 11325.674 4383.122 11954.039 1031.717 8422.209 8286.784 18261.393 9107.282 4941.721 8535.367 10418.752 5773.696 6280.390 6476.323 8824.548 8328.851 6700.750 15770.378 8366.968 15296.107 303.610 8596.162 8602.772 7913.668 7312.740 10471.903 13711.453 8506.321 4957.395 7644.014 8850.307 4537.417 11445.873 9962.936 8231.239 17292.950 7106.238 5592.931 6391.139 2991.948 17166.668 8829.656 9160.896 8279.240 10568.531 10919.913 9629.746 1970.435 6140.584 12839.859 8841.747 13671.002 15777.520 6898.814 10873.619 8381.501 10868.862 4495.918 10545.331 12425.752 9415.180 7442.706 8143.495 3089.748 13601.998 9002.430 8711.325 7281.364 9266.769 6651.589 2458.965 8138.226 7599.765 8728.910 9866.987 6279.469 9399.236 9479.520 8665.871 12465.583 8373.519 5736.477 7746.266 8790.870 17171.741 2631.979 12665.723 9234.389 6310.318 7805.106 6922.769 16014.895 7620.767 17089.899 8293.107 15453.351 11828.793 8537.702 8345.874 13817.279 8336.439 6694.086 8218.826
9468.672 13211.594 4711.165 9447.531 550.336 6682.243 4211.757 477.273 11730.403 6876.151 6872.277 8707.547 9280.710 9396.826 4856.636 6118.431 621.196 12431.756 3419.590 4555.108 3623.338 8426.896 8195.428 0.000 7645.014 8894.023 11614.358 3609.405 7229.820 4076.577 10238.256 3846.721 4313.179 9067.653 391.186 399.231 10105.439 9490.640 4041.521 343.278 5383.424 3396.842 6627.204 1722.170 629.700 137.655 1520.600 11876.378 423.980 12882.708 7995.860 404.000 447.722 961.849 4145.347 2481.605 10449.126 364.472 4176.604 1054.369 1006.488 12329.587 10486.611 7104.427 328.834 9198.465 1098.471 3130.965 3198.262 6841.936 9077.049 952.424 10561.258 152.219 5783.603 3369.785 1480.497 9094.744 2530.110 4987.700 984.129 10384.487 13440.315 1505.286 5328.998 354.368 2824.907 3727.314 5088.438 5746.925 1248.169 4230.338 175.147 5117.751 8620.021 927.246 584.843 914.348 10610.999 3185.834 9519.335 92.259 1184.475 539.741 4408.268 3577.408 9983.610 10548.347 478.180 5799.209 294.220 2494.813 808.411 850.082 9088.475 6291.430 4815.585 1834.384 3671.016 784.989 1479.672 13724.856 592.645 9023.586 166.474 11397.963 11066.715 362.939 158.156 8312.597 323.211 1517.451 323.820
9201.089 19492.238 11548.863 17084.558 7095.626 13202.604 11529.287 7174.877 18071.162 13388.973 11332.860 14741.111 14609.161 17030.138 11325.977 8553.880 7990.448 18511.708 11059.663 4839.455 11256.176 10504.079 13877.091 7645.014 0.000 12678.358 17832.896 10929.160 8964.521 11545.825 7570.438 9983.794 3966.897 14391.628 7808.467 7936.225 9793.875 17126.472 11307.448 7511.162 12252.656 10865.016 8584.776 8754.631 7352.902 7603.744 8351.253 18150.502 7896.901 19760.644 13806.020 7393.103 7271.548 8588.100 11778.962 7804.032 17220.630 7652.539 11478.611 8698.552 6644.191 18411.340 7800.828 5235.911 7908.725 6646.391 8176.048 8520.205 10794.719 11252.030 6533.421 6700.723 18205.730 7709.940 3484.208 8883.811 6621.725 15417.027 9957.287 4210.050 6667.497 17153.247 20303.354 8980.692 11918.594 7812.667 7652.735 9915.789 11810.120 11188.979 7330.814 11855.206 7533.949 11118.907 14731.773 7681.111 7137.276 8153.113 18255.922 7295.057 15917.476 7615.282 8829.119 7448.163 11351.295 11174.027 17619.895 18191.870 7327.773 11234.529 7756.556 8960.751 8451.788 6809.672 6490.999 12969.152 4248.694 5813.800 11275.067 8430.003 8959.510 20584.582 7854.792 6326.376 7709.565 17639.239 18526.977 7361.810 7523.764 1375.717 7825.020 8394.325 7911.454
5671.596 19580.068 5880.927 11383.312 9034.297 13914.657 10977.324 8908.580 7056.050 14068.806 15472.906 4375.819 17140.990 11256.854 5187.767 15002.567 8321.542 19163.143 8750.537 7943.627 8659.325 2800.660 15949.887 8894.023 12678.358 0.000 6655.392 10671.881 3942.877 10470.077 18358.758 12201.960 9057.038 16959.706 8514.226 8574.274 5759.676 11379.863 11008.234 8611.429 5874.658 10181.823 15495.922 10181.877 8418.173 8772.442 10208.575 6997.684 8512.843 9523.446 15677.895 8637.596 8730.894 8582.725 8779.711 6535.105 7384.671 8535.323 10996.545 8820.590 9022.890 19071.919 18620.483 15101.859 8655.505 8287.502 9812.250 11945.546 9560.178 15462.148 8275.748 8991.127 12708.511 8747.019 13121.108 5524.355 8198.969 16044.276 9960.377 8509.436 9009.764 7333.439 9924.507 9517.810 5277.663 8556.247 6321.166 12082.492 5579.949 3524.726 7825.513 8675.444 9046.060 13241.239 4530.194 7985.973 8722.849 9605.035 12676.997 12053.554 16291.203 8985.079 8801.831 8447.042 6153.825 9679.115 11723.780 12393.103 8612.905 3485.858 8605.849 11050.751 8846.349 8930.737 8333.033 13423.648 8505.777 9469.602 9657.290 8793.222 9501.413 10147.775 9419.161 8437.275 8731.519 6548.407 10706.160 8729.325 8816.623 13966.172 8597.490 10179.960 8667.514
12305.434 17396.927 6910.552 7795.500 12027.931 13522.655 11183.417 11894.434 443.630 13602.761 16396.000 3092.013 16787.842 7668.530 6804.421 17167.838 11009.257 17362.790 9342.476 13038.466 9125.215 9404.755 15659.710 11614.358 17832.896 6655.392 0.000 11237.082 10224.495 10649.775 21849.320 13354.496 13878.594 16669.954 11250.582 11215.222 12415.061 7758.780 11351.229 11494.289 6269.388 10791.808 17735.169 12035.457 11460.449 11551.507 12280.957 345.791 11196.298 3022.546 15356.261 11581.638 11716.055 10824.168 8857.523 10205.159 2117.332 11358.523 11234.625 10934.580 12271.725 17293.540 22095.889 18707.903 11288.813 14723.001 12035.167 13843.428 10246.677 16423.479 14690.688 12218.542 8772.545 11471.307 17167.776 9036.546 11771.519 14931.736 11138.562 13698.829 12249.791 2132.670 3333.139 11328.092 6290.989 11276.932 10262.075 13264.552 6526.321 6646.039 11118.815 8707.442 11788.918 13888.656 3111.466 10988.416 11788.431 11875.628 8693.594 14541.280 14969.884 11697.722 10840.351 11422.047 7228.374 10110.889 7848.789 8347.102 11603.415 6601.463 11344.791 12731.876 11103.479 12116.288 14744.296 13069.914 13628.396 13026.452 10023.573 11076.610 11326.693 3529.817 11892.810 14825.653 11460.565 220.102 5706.221 11662.519 11629.284 18939.326 11298.109 12232.258 11295.689
12613.234 9742.394 5003.358 6721.912 4082.585 3369.711 609.837 4061.125 11215.121 3548.545 5193.532 8891.773 6476.354 6709.929 5585.404 6213.106 3638.423 9050.821 2024.120 8148.775 2194.887 11028.527 5290.631 3609.405 10929.160 10671.881 11237.082 0.000 10127.417 749.205 11594.756 2171.125 7903.351 6291.125 3672.665 3518.989 13207.325 6775.274 439.151 3891.594 5359.500 497.093 6784.437 2174.705 4163.661 3712.166 2578.304 11417.157 3593.241 11642.963 5028.262 3990.098 4056.614 2960.542 2381.292 5433.155 9556.629 3803.761 568.932 2714.747 4547.571 8950.571 11806.217 8954.843 3494.275 12710.810 2781.991 3149.658 1124.961 5212.972 12593.829 4503.511 7597.012 3625.567 8384.192 5698.779 5064.987 5724.068 1084.861 8596.763 4529.361 9502.574 12184.086 2104.162 5723.223 3642.448 5843.567 2101.980 5394.570 7152.286 4622.100 2531.106 3644.609 2716.996 8740.634 4161.932 4194.175 2848.576 7667.776 4324.416 6094.717 3593.738 2624.385 4053.060 4672.747 1137.242 7241.579 7687.853 4068.095 7193.676 3663.793 2171.972 2902.928 4419.642 12609.650 2907.580 8424.856 5249.092 1216.241 2953.277 2129.742 12455.672 3191.403 12556.040 3634.559 11018.976 8945.776 3968.951 3765.288 11367.997 3605.742 2534.849 3484.640
2667.243 19774.058 6598.297 13072.659 7129.104 13492.201 10603.787 7037.202 10578.099 13673.888 14095.791 7417.147 16404.629 12963.409 5918.808 12896.981 6828.149 19153.709 8627.848 4539.251 8643.333 1564.753 15268.842 7229.820 8964.521 3942.877 10224.495 10127.417 0.000 10208.090 15308.999 11032.238 5732.955 16198.739 6931.583 7049.709 3160.302 13086.575 10543.340 6890.228 7002.717 9705.051 13308.832 8872.642 6620.037 7092.250 8741.588 10569.734 6971.498 12846.733 15039.034 6862.208 6901.021 7358.312 8974.521 4809.175 10445.990 6879.753 10599.579 7627.951 6922.756 19054.768 15570.400 12119.383 7116.017 4500.759 8315.402 10322.512 9170.232 14062.485 4466.330 6914.302 14423.419 7115.057 9987.177 4458.808 6024.650 15845.395 9156.824 4974.519 6919.215 10384.498 13311.908 8376.497 6364.877 6974.883 4425.822 10910.301 6524.477 4501.863 5984.035 8927.491 7329.695 12258.868 7503.924 6337.287 6831.987 8116.399 14420.199 10022.811 16195.310 7305.527 7669.197 6694.868 6696.032 9425.673 13516.385 14198.645 6807.141 4511.056 6997.724 9705.453 7541.750 6899.399 4519.818 13034.933 5018.729 7047.586 9450.494 7482.584 8353.198 13562.149 7821.843 4602.466 7099.702 10079.788 13170.638 6940.293 7100.042 10301.979 7021.054 8732.433 7128.914
12751.686 9571.571 4675.499 5976.889 4584.416 3445.595 548.631 4545.613 10609.456 3603.644 5746.263 8416.634 6698.853 5963.417 5310.498 6937.597 4004.733 8952.698 1719.689 8548.758 1823.802 11016.570 5504.463 4076.577 11545.825 10470.077 10649.775 749.205 10208.090 0.000 12342.697 2874.794 8389.581 6528.121 4078.262 3924.869 13326.961 6029.919 703.584 4326.166 4948.789 685.783 7507.259 2813.339 4580.763 4164.232 3221.858 10817.459 3992.970 10952.598 5223.670 4433.111 4515.959 3310.407 1861.060 5638.696 8916.037 4221.231 591.548 3094.385 5054.739 8854.622 12553.535 9698.398 3913.710 13019.149 3370.051 3898.718 1044.259 5773.926 12905.663 5006.477 6872.460 4069.159 9085.751 5750.047 5482.740 5676.602 1591.050 9031.530 5034.809 8863.735 11490.196 2601.076 5375.240 4053.631 6048.468 2815.915 5046.193 6946.894 4972.095 2003.995 4136.898 3239.433 8257.397 4508.177 4656.713 3405.006 6941.057 5064.550 5998.557 4074.815 2984.755 4469.377 4362.559 802.865 6498.254 6953.285 4510.531 6984.723 4085.174 2906.361 3312.118 4914.200 12924.555 2956.048 8862.403 5802.309 813.087 3355.210 2624.760 11759.701 3727.439 12879.473 4075.994 10433.144 8202.603 4424.960 4226.694 12028.761 4021.973 3174.544 3905.658
16286.829 16611.395 14939.633 18262.511 9850.920 11907.718 11998.547 9986.405 21954.695 12028.561 8458.855 18934.254 11447.332 18263.110 15086.539 5674.912 10849.213 15489.655 12928.333 10776.605 13166.147 16855.667 11325.674 10238.256 7570.438 18358.758 21849.320 11594.756 15308.999 12342.697 0.000 9580.284 9580.763 11283.662 10608.409 10636.878 16931.976 18318.288 11750.469 10378.622 15595.217 11854.286 5190.787 10020.937 10446.452 10306.660 9702.520 22106.615 10658.829 22929.084 11427.540 10299.704 10169.590 11036.555 13600.072 12035.449 20588.694 10508.681 11933.671 10948.069 9667.056 15406.432 262.290 3259.294 10562.259 14085.370 9878.714 8459.569 12185.461 8368.237 13963.348 9714.942 18979.684 10383.240 5321.826 13207.410 10332.493 13279.594 11165.893 10420.122 9686.784 20526.193 23484.772 10669.232 15567.253 10580.118 12146.788 9605.435 15323.372 15760.917 10884.586 13735.111 10063.311 9973.797 18852.486 10925.980 10113.203 10017.832 19064.282 7447.639 13780.582 10153.696 11052.417 10470.382 14626.481 12471.453 18765.237 19140.518 10286.696 15813.634 10512.856 9534.336 10762.886 9807.476 13927.801 11964.194 10342.933 9021.067 12582.999 10785.780 10664.667 23766.172 9966.893 13769.766 10394.494 21632.265 20530.948 10214.635 10231.104 6416.485 10556.936 9755.028 10555.118
13315.179 9685.674 6864.713 8685.608 4097.082 3227.029 2452.517 4147.230 13348.526 3416.887 3281.568 10891.431 5439.368 8689.423 7351.385 4071.370 4204.135 8806.516 4026.328 8179.740 4234.970 12141.197 4383.122 3846.721 9983.794 12201.960 13354.496 2171.125 11032.238 2874.794 9580.284 0.000 7627.743 5224.732 4108.724 3984.808 13950.508 8741.820 2214.752 4189.683 7319.268 2572.940 4638.246 2159.606 4475.657 3982.823 2332.153 13545.327 4063.751 13813.748 4207.438 4241.249 4237.654 3721.135 4508.855 6226.297 11715.246 4176.006 2388.196 3458.284 4467.257 8703.906 9779.581 7170.911 3921.148 12912.217 2748.671 1479.256 3110.266 3278.458 12786.353 4446.554 9417.585 3943.404 7008.085 6847.212 5254.542 5539.820 2323.952 8484.716 4458.635 11660.301 14354.346 2718.050 7592.599 4066.184 6606.492 122.575 7272.728 8756.293 5086.720 4658.659 3780.495 1294.690 10751.538 4700.809 4340.611 2935.667 9499.187 2765.581 6016.418 3783.019 3447.875 4385.619 6521.246 3255.920 9185.613 9564.854 4307.956 8803.009 4049.617 1358.787 3505.771 4408.628 12792.095 2989.100 8309.860 4883.673 3350.804 3564.601 2737.862 14625.490 3260.953 12712.206 3958.046 13135.388 11046.700 4177.374 3992.013 10184.016 4020.190 2330.721 3908.344
6924.096 17292.482 7633.082 13477.451 3820.803 10762.477 8510.723 3847.620 14110.477 10957.621 9954.087 10786.744 12908.512 13410.273 7373.948 7936.079 4465.874 16433.246 7547.380 1195.844 7713.861 7287.700 11954.039 4313.179 3966.897 9057.038 13878.594 7903.351 5732.955 8389.581 9580.763 7627.743 0.000 12687.147 4342.858 4491.712 7593.132 13514.511 8327.860 4074.340 8330.193 7709.895 8226.791 5832.811 3841.512 4226.862 5484.897 14193.576 4431.874 15800.925 11806.886 3963.275 3874.503 5141.690 8226.856 3869.630 13259.049 4191.560 8472.266 5320.304 3356.799 16330.612 9841.720 6422.275 4491.290 5528.773 5170.821 6371.113 7485.080 9894.082 5396.708 3399.983 14675.153 4324.145 4260.907 4920.008 2972.144 13143.302 6834.730 995.526 3374.551 13191.654 16341.984 5806.628 7969.254 4361.205 3692.594 7527.586 7874.898 7242.798 3623.598 8279.197 4261.562 8907.513 10772.980 4044.431 3733.431 5069.762 14714.375 5503.668 13602.349 4318.158 5440.924 3950.767 7457.212 7859.716 14006.102 14614.102 3886.929 7289.520 4321.422 6344.572 5088.985 3484.405 5388.954 10424.201 852.783 2752.190 7946.396 5050.954 5781.666 16622.693 4718.024 5279.348 4318.223 13682.947 14707.122 3966.026 4163.010 5076.184 4387.614 5511.819 4498.083
18531.373 5380.188 11203.583 9937.579 9316.970 3181.704 5999.951 9370.602 16543.625 3079.075 3118.600 14804.763 221.851 10010.329 11832.250 6172.360 9389.032 4287.622 8232.425 13345.420 8351.299 17226.378 1031.717 9067.653 14391.628 16959.706 16669.954 6291.125 16198.739 6528.121 11283.662 5224.732 12687.147 0.000 9313.530 9182.648 19161.988 9996.110 5953.339 9409.911 11448.823 6778.535 6423.847 7359.996 9697.242 9202.950 7556.740 16776.174 9262.531 16249.393 1328.402 9464.375 9462.362 8840.795 8342.435 11392.776 14708.993 9389.695 5975.398 8571.269 9670.737 4195.751 11382.243 10211.482 9123.601 18087.579 7971.222 6318.759 7399.568 3207.661 17959.868 9653.838 9967.237 9159.285 11011.345 11881.989 10476.809 2420.891 7106.416 13596.983 9663.726 14669.543 16723.556 7822.276 11900.320 9271.915 11784.889 5342.547 11571.788 13436.854 10300.828 8472.966 9004.944 3952.692 14632.475 9900.078 9564.955 8154.135 10074.726 7280.060 2804.918 9005.899 8533.899 9605.172 10889.737 7298.109 10265.324 10304.804 9531.790 13477.228 9259.899 6583.248 8660.511 9622.234 17962.682 3662.866 13424.123 10000.734 7331.448 8719.613 7845.544 16956.850 8484.582 17875.336 9173.599 16464.599 12733.050 9401.583 9214.689 14242.355 9226.335 7554.384 9110.992
9218.686 13350.139 4355.774 9277.130 805.469 6841.142 4262.718 685.326 11372.229 7033.564 7192.880 8330.697 9524.443 9221.845 4480.201 6504.759 241.331 12593.500 3260.173 4480.514 3450.208 8097.461 8422.209 391.186 7808.467 8514.226 11250.582 3672.665 6931.583 4078.262 10608.409 4108.724 4342.858 9313.530 0.000 154.076 9848.530 9318.656 4110.442 299.111 5035.532 3411.799 7015.683 1954.124 503.889 301.797 1813.855 11515.456 89.968 12560.683 8213.822 416.468 545.622 801.430 3972.646 2147.747 10113.741 156.444 4232.716 984.803 1185.548 12491.655 10857.747 7460.119 191.342 9059.493 1387.967 3479.520 3143.901 7165.332 8940.332 1126.961 10417.975 239.037 6084.096 2990.230 1404.511 9252.554 2588.153 4953.282 1161.389 10048.740 13117.958 1598.113 4961.434 43.968 2509.552 3987.590 4727.345 5355.780 995.665 4046.821 561.335 5360.920 8245.439 594.365 673.057 1185.840 10464.318 3575.710 9665.495 483.240 1100.607 393.093 4059.521 3517.305 9812.134 10389.959 480.888 5408.057 97.768 2773.885 771.377 1014.210 8954.151 6434.387 4784.327 2038.164 3603.539 724.469 1572.119 13402.667 921.200 8895.656 224.768 11034.718 10820.660 462.337 378.863 8526.503 89.816 1802.247 203.548
9351.767 13200.206 4312.035 9148.342 891.190 6694.098 4108.723 782.521 11331.220 6886.292 7090.009 8311.652 9392.958 9094.183 4460.936 6461.251 252.793 12446.195 3126.630 4634.588 3320.077 8200.688 8286.784 399.231 7936.225 8574.274 11215.222 3518.989 7049.709 3924.869 10636.878 3984.808 4491.712 9182.648 154.076 0.000 9979.654 9190.262 3956.872 428.158 4985.136 3257.918 6977.803 1826.594 656.240 360.202 1707.467 11477.147 80.232 12491.954 8076.487 545.727 664.841 659.028 3842.825 2254.368 10053.905 300.155 4078.804 832.272 1300.252 12344.397 10885.043 7503.209 82.357 9210.596 1284.070 3396.251 2993.825 7063.899 9091.626 1242.233 10283.198 262.978 6163.329 3054.155 1558.092 9105.018 2434.594 5106.671 1276.321 9989.162 13049.458 1447.990 4930.428 130.509 2624.574 3863.276 4689.238 5382.448 1138.361 3919.799 573.720 5230.604 8223.142 717.524 799.584 1078.140 10330.259 3544.979 9516.564 483.436 949.735 545.013 4009.769 3368.006 9683.676 10258.467 616.166 5434.482 179.684 2657.937 617.316 1130.736 9105.631 6285.529 4937.574 2150.758 3455.070 570.518 1422.041 13334.070 845.220 9047.605 255.496 10998.799 10715.116 575.589 445.163 8640.644 111.240 1692.598 93.652
671.938 22898.490 9724.532 16138.661 9917.037 16556.513 13704.234 9844.099 12814.313 16741.617 16884.723 9945.457 19372.576 16025.529 9029.243 15360.637 9777.285 22253.834 11773.356 6476.382 11795.151 3094.858 18261.393 10105.439 9793.875 5759.676 12415.061 13207.325 3160.302 13326.961 16931.976 13950.508 7593.132 19161.988 9848.530 9979.654 0.000 16149.469 13630.804 9762.180 10087.118 12801.182 15712.101 11802.436 9478.311 9968.763 11625.235 12757.318 9899.695 15256.444 18043.928 9715.836 9731.819 10359.629 12132.981 7803.448 13011.732 9775.090 13696.699 10628.234 9635.294 22154.121 17186.126 13918.788 10038.387 3459.640 11203.850 13098.216 12284.826 16843.179 3524.999 9638.423 17492.506 10007.179 11718.357 7591.924 8763.478 18931.368 12205.325 6635.037 9636.545 12955.367 15671.911 11367.170 9439.532 9890.242 7400.117 13830.381 9623.361 7508.432 8864.001 12087.133 10181.803 15209.443 10068.181 9262.438 9642.346 11014.847 17484.026 12619.674 19295.147 10172.161 10682.646 9565.880 9838.510 12552.978 16565.409 17249.125 9652.295 7508.688 9903.299 12600.158 10516.006 9645.447 3582.452 16109.270 6750.614 9577.014 12582.237 10457.306 11342.778 15899.820 10694.948 3742.901 9992.589 12306.592 16032.094 9784.685 9963.167 11166.364 9935.888 11622.890 10050.999
15737.951 9690.486 6552.427 59.774 10040.954 7245.744 6325.757 9955.569 7479.818 7238.828 10839.229 7384.862 10052.622 124.429 7185.268 12769.354 9142.580 9763.503 6071.054 13285.447 5870.626 13204.658 9107.282 9490.640 17126.472 11379.863 7758.780 6775.274 13086.575 6029.919 18318.288 8741.820 13514.511 9996.110 9318.656 9190.262 16149.469 0.000 6575.869 9615.494 6085.094 6609.164 13320.803 8713.519 9782.840 9525.263 9110.791 7732.417 9229.974 6454.791 8819.347 9733.569 9854.995 8539.860 5347.827 9885.889 5643.651 9474.795 6390.475 8443.209 10484.793 9704.020 18520.154 15728.110 9218.671 17000.067 9143.650 9919.087 6469.224 10899.757 16912.529 10427.762 1345.982 9418.942 15014.639 9272.920 10574.640 7835.693 7446.293 13893.551 10461.274 5633.264 6870.231 8281.069 6722.096 9313.915 10213.781 8713.346 6570.864 8642.942 9895.246 5272.168 9612.344 8573.531 7190.651 9494.932 9989.245 9109.344 1334.651 11092.654 7731.915 9526.921 8311.975 9684.292 6539.174 6110.759 493.502 1130.605 9799.521 8644.661 9369.925 8932.225 8690.004 10318.010 16947.713 6936.009 13747.464 11324.860 5999.554 8707.433 8297.866 7076.896 9355.864 16952.956 9418.813 7601.793 2749.514 9764.913 9606.284 17787.165 9301.475 9058.757 9216.225
13039.394 9307.559 5278.913 6521.017 4508.081 2969.385 251.669 4489.826 11312.543 3143.722 5045.563 9089.862 6132.935 6516.897 5886.463 6286.109 4077.508 8624.054 2291.331 8584.929 2433.337 11424.686 4941.721 4041.521 11307.448 11008.234 11351.229 439.151 10543.340 703.584 11750.469 2214.752 8327.860 5953.339 4110.442 3956.872 13630.804 6575.869 0.000 4327.012 5592.960 848.233 6852.809 2562.965 4600.293 4145.996 2959.946 11520.144 4031.377 11643.128 4671.690 4424.556 4489.059 3399.544 2537.195 5864.789 9618.977 4240.680 188.285 3153.874 4971.126 8524.073 11956.377 9185.657 3931.357 13149.950 3188.276 3355.303 1450.997 5072.274 13032.979 4928.016 7339.884 4060.438 8698.245 6105.378 5500.908 5302.871 1522.289 9029.214 4953.309 9566.806 12178.892 2536.495 5990.455 4079.925 6275.447 2167.291 5660.979 7484.358 5061.227 2683.477 4072.782 2540.466 8933.326 4601.082 4626.003 3264.827 7414.543 4577.556 5666.433 4023.867 3063.425 4489.842 4955.750 1361.370 7032.339 7451.363 4502.522 7524.424 4100.562 2458.217 3341.189 4845.941 13048.800 2498.056 8857.015 5659.411 1412.573 3391.792 2562.223 12447.247 3611.673 12995.144 4069.634 11134.401 8833.136 4401.941 4197.901 11718.038 4042.931 2919.097 3921.623
9125.580 13529.299 4612.008 9573.798 534.720 7005.716 4488.510 404.472 11622.223 7199.207 7208.839 8555.669 9622.785 9518.980 4708.848 6391.758 515.077 12757.045 3554.025 4258.336 3746.081 8096.797 8535.367 343.278 7511.162 8611.429 11494.289 3891.594 6890.228 4326.166 10378.622 4189.683 4074.340 9409.911 299.111 428.158 9762.180 9615.494 4327.012 0.000 5297.665 3653.149 6891.564 2059.989 290.014 206.962 1863.794 11762.440 386.105 12837.109 8334.351 118.079 247.893 1087.014 4268.705 2158.906 10382.807 148.349 4455.930 1246.314 887.334 12654.966 10629.394 7213.635 417.299 8877.815 1441.689 3457.466 3411.532 7177.629 8757.146 828.667 10711.046 268.835 5802.451 3092.391 1174.429 9418.410 2807.534 4711.337 863.142 10317.583 13394.150 1794.674 5203.305 301.675 2492.646 4070.166 4977.301 5517.183 906.677 4344.071 448.578 5459.411 8474.539 625.456 374.306 1255.861 10757.935 3446.578 9839.243 415.300 1368.647 196.568 4321.996 3787.375 10108.950 10685.261 188.871 5569.767 250.151 2838.090 1015.732 715.742 8769.402 6609.442 4540.789 1739.920 3876.060 976.635 1768.687 13678.915 934.931 8706.769 258.275 11279.111 11118.182 171.957 213.322 8227.594 318.424 1860.713 423.794
9658.926 13708.999 708.786 6070.469 5831.591 8298.442 5493.804 5702.001 6359.915 8432.042 10526.302 3575.295 11609.985 5962.220 1120.544 10954.592 4795.524 13317.933 3338.592 7785.676 3166.776 7219.294 10418.752 5383.424 12252.656 5874.658 6269.388 5359.500 7002.717 4948.789 15595.217 7319.268 8330.193 11448.823 5035.532 4985.136 10087.118 6085.094 5592.960 5297.665 0.000 4870.179 11516.048 5794.550 5303.464 5332.388 6021.405 6516.003 4973.953 7585.510 10129.330 5394.242 5531.512 4559.958 3106.733 4460.563 5095.143 5155.689 5529.098 4665.296 6124.959 13228.534 15839.691 12487.385 5055.060 11000.151 5766.509 7629.188 4259.494 10538.729 10920.443 6068.781 7420.715 5245.727 11074.234 3508.409 5766.551 10275.731 5014.671 8443.976 6101.791 5029.233 8139.324 5078.856 652.816 5057.962 4669.232 7216.502 504.811 2627.043 5066.961 2976.129 5556.119 8075.250 3442.245 4851.672 5619.318 5606.243 7418.033 8274.452 10486.584 5463.126 4571.124 5250.152 976.019 4238.387 6520.665 7201.252 5425.641 2639.176 5126.408 6534.579 4837.002 5960.756 10959.351 7806.724 8326.994 6930.132 4180.576 4811.685 5075.774 8423.854 5629.696 10978.306 5236.153 6050.585 6526.212 5468.977 5413.271 13198.653 5074.822 5973.697 5060.949
12214.456 10115.418 4506.963 6557.827 3900.733 3817.554 904.793 3863.924 10779.110 3991.346 5668.807 8410.879 6961.858 6536.552 5088.595 6559.847 3349.702 9453.151 1532.098 7889.536 1710.915 10576.842 5773.696 3396.842 10865.016 10181.823 10791.808 497.093 9705.051 685.783 11854.286 2572.940 7709.895 6778.535 3411.799 3257.918 12801.182 6609.164 848.233 3653.149 4870.179 0.000 7133.074 2150.518 3912.422 3487.294 2558.432 10977.877 3327.868 11271.768 5507.885 3758.457 3838.226 2658.029 1937.254 5057.427 9143.503 3552.045 895.539 2431.545 4370.844 9353.650 12071.150 9134.143 3243.295 12395.563 2689.112 3395.199 628.031 5685.741 12280.565 4322.967 7500.895 3393.710 8446.962 5261.430 4815.689 6140.736 907.786 8362.869 4351.068 9088.281 11816.513 1915.704 5227.493 3385.639 5468.344 2491.304 4899.016 6660.622 4325.198 2087.274 3453.823 3205.203 8261.655 3861.487 3978.596 2720.112 7566.152 4497.604 6494.252 3393.036 2327.145 3801.015 4175.905 683.109 7085.361 7564.120 3836.130 6701.667 3414.712 2340.623 2642.315 4231.560 12298.181 3344.868 8192.966 5116.544 778.967 2687.413 1939.509 12090.370 3041.658 12249.577 3401.003 10573.150 8677.883 3747.710 3548.160 11361.497 3352.621 2509.680 3234.841
15040.542 11801.088 10947.496 13263.323 6462.727 6716.979 7088.653 6587.537 17771.271 6838.194 3381.873 15054.485 6615.880 13276.010 11276.351 573.586 7227.881 10711.188 8439.153 9255.935 8668.674 14703.275 6280.390 6627.204 8584.776 15495.922 17735.169 6784.437 13308.832 7507.259 5190.787 4638.246 8226.791 6423.847 7015.683 6977.803 15712.101 13320.803 6852.809 6891.564 11516.048 7133.074 0.000 5723.797 7077.773 6741.269 5532.286 17952.727 7030.012 18403.349 6343.182 6860.149 6765.067 7135.817 9023.823 8975.983 16222.943 6977.234 7024.645 6958.002 6514.664 10619.577 5351.827 3833.599 6895.448 13690.806 5854.267 3892.160 7582.941 3289.027 13558.208 6539.138 13890.934 6777.865 5104.003 9983.752 7390.321 8190.023 6622.529 9222.085 6524.699 16165.059 18949.036 6443.596 11648.314 6975.787 9234.968 4691.671 11356.589 12356.508 7676.630 9169.956 6466.873 4823.438 14938.189 7515.960 6775.088 6045.741 13979.772 3444.988 8701.108 6535.048 7025.564 7050.801 10607.602 7801.137 13748.043 14078.593 6883.268 12408.255 6920.425 5004.223 6849.142 6587.484 13543.116 6782.385 9076.621 6262.602 7905.416 6891.487 6448.522 19223.254 6151.784 13417.360 6792.845 17515.069 15681.614 6768.179 6690.912 8142.636 6937.850 5575.563 6884.430
11171.461 11527.983 5225.554 8664.044 2067.859 4987.577 2777.493 2086.866 12089.967 5182.451 5327.120 9332.317 7571.363 8634.928 5585.996 5165.688 2044.620 10727.508 2912.336 6216.714 3150.077 9994.226 6476.323 1722.170 8754.631 10181.877 12035.457 2174.705 8872.642 2813.339 10020.937 2159.606 5832.811 7359.996 1954.124 1826.594 11802.436 8713.519 2562.965 2059.989 5794.550 2150.518 5723.797 0.000 2349.676 1853.983 408.541 12263.356 1905.933 12913.341 6274.363 2125.193 2143.571 1606.142 3605.147 4067.644 10615.659 2031.022 2728.706 1361.352 2500.728 10625.149 10251.841 7131.849 1764.922 10901.415 667.988 1855.291 2259.850 5308.223 10778.641 2466.377 9643.798 1802.944 6307.895 4738.278 3183.619 7396.513 1269.010 6598.307 2486.450 10554.986 13468.092 722.103 5931.443 1912.245 4446.886 2037.736 5635.528 6819.808 2941.529 3733.374 1685.971 3407.307 9214.705 2543.662 2262.359 813.511 9707.063 2574.084 7831.854 1670.242 1385.814 2252.831 4884.727 2605.096 9196.079 9695.015 2197.080 6869.221 1900.066 871.485 1363.998 2402.905 10788.449 4616.616 6423.657 3117.154 2717.303 1421.612 729.324 13748.774 1166.901 10719.060 1816.860 11815.541 10633.062 2072.266 1875.322 9215.422 1866.559 361.732 1752.220
8840.424 13815.233 4608.456 9742.202 624.527 7293.755 4757.373 493.091 11598.963 7487.118 7476.014 8495.239 9910.363 9684.422 4660.328 6587.353 640.752 13045.438 3739.117 3985.344 3922.307 7843.180 8824.548 629.700 7352.902 8418.173 11460.449 4163.661 6620.037 4580.763 10446.452 4475.657 3841.512 9697.242 503.889 656.240 9478.311 9782.840 4600.293 290.014 5303.464 3912.422 7077.773 2349.676 0.000 495.760 2146.963 11733.938 591.636 12867.541 8624.013 242.280 312.735 1300.190 4443.321 1924.348 10397.188 360.723 4726.107 1488.414 821.547 12943.385 10699.189 7257.651 670.397 8591.538 1726.999 3712.997 3647.212 7443.442 8471.171 765.347 10895.714 555.267 5772.202 2915.195 903.567 9706.413 3078.843 4450.979 798.331 10331.515 13423.809 2073.483 5173.570 527.134 2240.112 4356.449 4961.579 5385.089 639.752 4511.658 709.955 5747.449 8420.152 479.742 333.525 1543.966 10940.543 3636.321 10126.058 693.865 1604.437 111.417 4331.165 4020.017 10276.318 10860.699 196.958 5437.872 499.957 3122.138 1270.129 658.388 8483.763 6895.805 4281.652 1649.063 4105.489 1225.634 2047.443 13708.623 1216.637 8422.087 543.259 11246.513 11228.895 325.028 484.968 8107.263 560.018 2145.461 679.569
9332.393 13332.460 4654.663 9482.739 532.330 6805.980 4312.110 431.244 11672.092 6999.673 7009.327 8632.379 9415.834 9430.306 4781.948 6235.608 542.651 12556.566 3456.012 4443.430 3654.988 8291.121 8328.851 137.655 7603.744 8772.442 11551.507 3712.166 7092.250 4164.232 10306.660 3982.823 4226.862 9202.950 301.797 360.202 9968.763 9525.263 4145.996 206.962 5332.388 3487.294 6741.269 1853.983 495.760 0.000 1657.814 11815.883 358.686 12848.720 8128.283 280.918 352.599 985.593 4177.680 2347.314 10406.804 237.121 4278.168 1109.807 959.687 12454.444 10555.965 7160.306 311.288 9075.737 1235.100 3265.376 3268.933 6978.812 8954.693 903.021 10606.501 106.335 5803.535 3249.044 1362.946 9218.646 2630.040 4885.287 936.290 10341.930 13406.150 1610.066 5262.774 274.869 2688.474 3863.267 5027.592 5642.967 1110.549 4258.674 274.442 5252.501 8547.229 796.379 493.991 1048.925 10655.041 3297.725 9641.277 218.468 1237.199 402.889 4356.489 3646.882 10018.500 10588.158 358.148 5695.368 206.745 2631.695 868.927 794.767 8966.534 6412.285 4713.827 1803.660 3738.361 837.529 1584.220 13690.800 730.291 8902.762 107.916 11335.554 11071.280 260.844 85.077 8291.499 259.139 1654.214 311.738
10987.157 11837.922 5427.312 9061.677 1781.460 5296.240 3178.401 1821.124 12347.082 5491.534 5382.597 9531.189 7771.054 9031.146 5744.828 4984.467 1947.394 11018.115 3258.100 5916.126 3494.783 9908.067 6700.750 1520.600 8351.253 10208.575 12280.957 2578.304 8741.588 3221.858 9702.520 2332.153 5484.897 7556.740 1813.855 1707.467 11625.235 9110.791 2959.946 1863.794 6021.405 2558.432 5532.286 408.541 2146.963 1657.814 0.000 12515.642 1782.385 13226.591 6510.844 1910.544 1905.706 1641.267 3964.129 3960.132 10904.070 1862.456 3128.450 1435.466 2186.591 10915.588 9936.563 6773.205 1635.167 10624.137 426.280 1742.214 2648.289 5356.865 10500.006 2157.881 10048.791 1627.374 5906.405 4719.046 2929.137 7696.989 1671.875 6274.278 2174.603 10842.626 13782.377 967.945 6120.470 1770.120 4322.956 2214.240 5833.972 6901.673 2767.435 4088.148 1448.363 3613.954 9419.628 2407.452 2010.956 629.378 10111.552 2272.603 8141.820 1453.194 1494.802 2060.323 5090.896 3000.214 9594.378 10097.238 1976.314 6952.094 1744.274 975.452 1366.071 2106.121 10508.149 4942.624 6099.217 2750.745 3111.790 1417.293 964.934 14063.924 930.398 10434.538 1642.587 12061.366 11003.103 1845.384 1662.255 8806.907 1724.049 53.697 1622.233
12649.820 17396.230 7167.441 7771.195 12296.615 13639.749 11347.383 12163.603 252.666 13715.568 16561.717 3410.486 16890.347 7646.093 7083.790 17384.167 11274.144 17384.544 9543.167 13361.785 9323.074 9749.517 15770.378 11876.378 18150.502 6997.684 345.791 11417.157 10569.734 10817.459 22106.615 13545.327 14193.576 16776.174 11515.456 11477.147 12757.318 7732.417 11520.144 11762.440 6516.003 10977.877 17952.727 12263.356 11733.938 11815.883 12515.642 0.000 11459.773 2730.271 15466.788 11851.253 11986.216 11075.142 9041.266 10504.503 2124.939 11625.565 11399.646 11180.146 12547.358 17316.815 22352.234 18975.011 11549.989 15068.437 12277.012 14062.520 10441.429 16590.822 15035.976 12493.762 8708.421 11734.357 17453.076 9340.126 12059.514 15002.750 11346.071 14023.052 12525.255 2150.681 3015.650 11559.345 6560.957 11541.113 10567.965 13457.191 6788.367 6967.060 11402.064 8891.151 12050.633 14053.867 3421.255 11263.574 12060.773 12120.236 8626.572 14779.981 15029.201 11958.968 11083.911 11693.620 7480.744 10295.705 7800.916 8278.998 11874.404 6923.028 11609.138 12948.510 11352.911 12390.699 15089.549 13191.886 13951.205 13308.337 10206.348 11327.171 11558.530 3204.185 12144.588 15170.700 11723.842 512.170 5589.043 11931.303 11894.301 19250.558 11561.483 12466.488 11556.646
9271.668 13278.288 4297.153 9188.378 878.995 6773.320 4181.664 763.053 11315.270 6965.448 7164.540 8284.353 9472.895 9133.295 4433.443 6515.697 199.431 12525.317 3170.646 4562.912 3361.147 8125.738 8366.968 423.980 7896.901 8512.843 11196.298 3593.241 6971.498 3992.970 10658.829 4063.751 4431.874 9262.531 89.968 80.232 9899.695 9229.974 4031.377 386.105 4973.953 3327.868 7030.012 1905.933 591.636 358.686 1782.385 11459.773 0.000 12491.441 8156.717 504.004 630.662 711.641 3883.651 2178.228 10048.238 246.094 4152.204 898.752 1270.121 12423.533 10907.596 7517.447 147.723 9133.325 1358.097 3464.809 3055.599 7138.053 9014.495 1211.661 10328.372 275.670 6157.083 2990.848 1489.957 9184.082 2509.223 5038.850 1246.013 9983.348 13048.820 1526.257 4908.929 88.600 2546.747 3942.277 4671.410 5333.983 1058.613 3958.308 598.714 5310.409 8197.456 637.842 760.411 1153.027 10374.795 3593.851 9595.126 513.277 1013.065 481.369 3998.106 3428.644 9723.443 10300.777 569.906 5386.125 155.445 2735.319 690.421 1099.189 9028.645 6364.145 4870.156 2122.475 3514.579 641.675 1500.337 13333.492 909.644 8971.024 264.375 10980.162 10737.791 545.104 441.047 8611.669 101.895 1768.338 160.577
15094.031 16041.296 8292.854 6506.597 13365.399 13260.419 11432.077 13240.496 2580.242 13298.820 16547.337 5432.331 16331.440 6404.001 8438.083 17829.858 12325.408 16192.209 10023.329 15104.822 9786.905 12193.520 15296.107 12882.708 19760.644 9523.446 3022.546 11642.963 12846.733 10952.598 22929.084 13813.748 15800.925 16249.393 12560.683 12491.954 15256.444 6454.791 11643.128 12837.109 7585.510 11271.768 18403.349 12913.341 12867.541 12848.720 13226.591 2730.271 12491.441 0.000 14996.547 12939.820 13077.758 11986.548 9391.366 11965.049 2544.699 12691.429 11491.972 12033.757 13687.839 16136.505 23162.500 19932.518 12555.098 17332.997 13065.269 14587.520 10832.648 16590.524 17288.474 13630.667 7099.240 12754.932 18637.045 10881.639 13351.179 14221.559 11825.684 15773.266 13664.264 2612.033 557.799 12260.286 7850.069 12578.331 12109.009 13744.240 7986.166 8806.564 12652.461 9248.267 13049.759 14079.594 5358.198 12426.394 13174.621 12940.169 7000.392 15486.924 14155.908 12955.196 11920.012 12807.085 8544.938 10602.277 6357.776 6661.586 12977.449 8771.471 12646.501 13473.056 12241.115 13520.627 17339.192 12863.877 15679.524 14506.118 10497.977 12227.589 12265.224 842.152 13037.414 17405.880 12747.084 3060.100 3811.913 13009.052 12932.208 20758.407 12589.615 13174.059 12559.281
17423.007 5693.570 9896.299 8760.145 8290.195 1853.427 4703.313 8331.755 15235.672 1755.384 2974.555 13476.509 1480.698 8825.532 10533.475 5988.593 8270.004 4709.522 6935.898 12387.037 7047.351 16021.678 303.610 7995.860 13806.020 15677.895 15356.261 5028.262 15039.034 5223.670 11427.540 4207.438 11806.886 1328.402 8213.822 8076.487 18043.928 8819.347 4671.690 8334.351 10129.330 5507.885 6343.182 6274.363 8624.013 8128.283 6510.844 15466.788 8156.717 14996.547 0.000 8397.858 8408.217 7689.102 7024.227 10248.242 13407.935 8301.414 4682.153 7419.680 8672.033 4608.490 11553.510 9982.694 8022.601 17119.055 6911.549 5461.178 6122.364 3066.458 16993.376 8649.850 8890.535 8076.091 10525.422 10675.992 9439.392 1852.840 5898.164 12682.811 8662.841 13367.457 15478.912 6677.273 10588.553 8173.572 10647.202 4317.334 10260.562 12153.301 9208.321 7153.215 7948.733 2913.115 13304.117 8790.571 8519.210 7082.895 8995.975 6553.234 2359.442 7940.742 7372.110 8526.910 9585.918 6002.904 9115.762 9204.729 8468.487 12192.753 8167.418 5553.086 7528.055 8608.111 16999.323 2334.926 12508.316 9077.469 6031.574 7586.703 6701.530 15716.849 7425.734 16919.644 8089.741 15149.956 11537.286 8341.363 8147.616 13775.893 8128.795 6502.278 8010.292
9076.809 13612.749 4706.147 9691.876 448.785 7085.112 4588.827 313.540 11712.419 7278.915 7233.776 8635.054 9677.921 9637.041 4790.976 6365.281 625.302 12835.126 3671.967 4163.229 3864.154 8084.166 8596.162 404.000 7393.103 8637.596 11581.638 3990.098 6862.208 4433.111 10299.704 4241.249 3963.275 9464.375 416.468 545.727 9715.836 9733.569 4424.556 118.079 5394.242 3758.457 6860.149 2125.193 242.280 280.918 1910.544 11851.253 504.004 12939.820 8397.858 0.000 137.941 1204.233 4386.782 2159.302 10482.005 262.871 4555.470 1359.095 772.539 12732.974 10551.115 7127.252 531.292 8796.013 1493.157 3471.239 3524.088 7201.167 8674.816 713.806 10828.857 365.294 5698.126 3125.253 1082.042 9497.710 2907.036 4609.019 748.321 10416.678 13496.727 1889.452 5290.902 419.744 2480.410 4122.465 5068.525 5570.848 881.572 4462.120 468.358 5516.194 8555.740 660.986 256.589 1315.035 10875.814 3416.183 9921.207 458.516 1482.547 190.652 4419.034 3900.460 10227.025 10803.298 78.012 5623.526 366.933 2885.994 1125.712 600.726 8686.502 6692.541 4437.971 1624.704 3989.739 1088.361 1863.554 13781.512 980.402 8622.381 357.492 11366.786 11233.120 92.214 250.294 8111.204 435.476 1910.529 537.013
9089.828 13651.660 4842.892 9813.015 321.742 7118.736 4658.335 186.118 11847.869 7312.957 7196.070 8766.032 9676.752 9758.993 4923.470 6274.768 761.504 12865.815 3789.946 4108.754 3984.641 8139.745 8602.772 447.722 7271.548 8730.894 11716.055 4056.614 6901.021 4515.959 10169.590 4237.654 3874.503 9462.362 545.622 664.841 9731.819 9854.995 4489.059 247.893 5531.512 3838.226 6765.067 2143.571 312.735 352.599 1905.706 11986.216 630.662 13077.758 8408.217 137.941 0.000 1318.822 4507.420 2233.075 10619.672 396.097 4623.545 1459.076 639.928 12763.563 10421.332 6993.648 639.957 8762.412 1496.778 3423.382 3620.694 7161.867 8640.403 581.340 10944.954 452.902 5560.200 3226.292 1041.693 9530.657 2976.391 4540.240 615.767 10554.331 13634.662 1952.660 5425.583 543.893 2540.601 4119.933 5204.445 5686.531 938.789 4584.635 459.486 5518.504 8687.589 773.726 141.447 1330.096 10992.580 3323.638 9958.185 477.623 1585.118 303.212 4556.412 3998.335 10348.397 10922.303 121.052 5739.263 485.299 2879.593 1220.217 468.642 8651.179 6731.984 4368.245 1492.553 4089.268 1186.915 1926.995 13919.447 982.486 8584.678 448.919 11501.331 11365.871 92.662 291.398 7981.119 553.601 1909.567 643.914
9745.614 12689.389 3917.260 8497.439 1508.075 6223.753 3532.753 1416.480 10919.822 6413.029 6931.183 7987.577 9046.353 8444.769 4159.176 6598.008 694.625 11964.832 2471.778 5238.725 2669.435 8423.264 7913.668 961.849 8588.100 8582.725 10824.168 2960.542 7358.312 3310.407 11036.555 3721.135 5141.690 8840.795 801.430 659.028 10359.629 8539.860 3399.544 1087.014 4559.958 2658.029 7135.817 1606.142 1300.190 985.593 1641.267 11075.142 711.641 11986.548 7689.102 1204.233 1318.822 0.000 3192.158 2559.162 9579.774 956.096 3507.864 269.702 1944.937 11863.593 11280.362 7956.728 679.561 9751.084 1282.261 3382.744 2351.607 6913.331 9634.545 1887.922 9626.163 879.258 6722.399 3135.164 2187.534 8624.697 1890.708 5731.941 1921.414 9515.979 12544.346 1019.063 4578.121 787.933 2959.660 3598.611 4312.025 5260.825 1667.732 3273.323 1104.956 4908.813 7886.936 1204.646 1456.196 1091.115 9673.763 3765.419 9020.466 1012.657 336.297 1191.325 3595.797 2722.035 9033.132 9604.330 1275.193 5311.349 837.315 2477.619 287.623 1778.464 9650.861 5796.296 5564.737 2788.304 2806.137 252.982 996.305 12828.455 1069.807 9599.034 878.956 10606.054 10107.930 1227.526 1067.332 9272.955 768.758 1607.623 676.651
11601.885 10922.320 2908.359 5305.645 4695.376 5200.171 2409.678 4608.236 8841.952 5339.283 7565.692 6556.140 8504.679 5252.626 3592.261 8450.343 3802.590 10423.066 733.067 8122.018 522.805 9600.360 7312.740 4145.347 11778.962 8779.711 8857.523 2381.292 8974.521 1861.060 13600.072 4508.855 8226.856 8342.435 3972.646 3842.825 12132.981 5347.827 2537.195 4268.705 3106.733 1937.254 9023.823 3605.147 4443.321 4177.680 3964.129 9041.266 3883.651 9391.366 7024.227 4386.782 4507.420 3192.158 0.000 4843.305 7214.857 4128.969 2450.651 3103.720 5137.081 10329.259 13826.039 10735.215 3870.846 12255.526 3906.750 5197.947 1442.044 7587.889 12152.332 5079.993 6455.363 4071.348 9777.624 4591.942 5261.608 7264.590 2440.916 8691.386 5113.536 7158.799 9940.960 3042.433 3575.583 3967.042 5224.060 4424.591 3250.642 5287.521 4607.008 150.121 4271.287 5070.064 6397.859 4183.575 4642.120 3838.650 6498.572 6159.673 7519.891 4184.311 2972.569 4342.656 2625.937 1254.540 5841.162 6417.927 4453.498 5319.917 4022.507 4087.447 3349.584 4970.185 12178.790 4707.484 8535.424 5978.670 1166.128 3364.345 3054.664 10218.043 4049.361 12156.129 4071.109 8639.164 7044.647 4417.197 4258.950 12453.142 3954.006 3910.434 3868.422
7194.718 15170.184 3764.430 9854.568 2519.692 8759.873 5961.034 2401.010 10399.568 8946.674 9340.627 7140.543 11599.793 9774.483 3527.026 8496.603 2024.166 14481.304 4290.984 3415.483 4387.937 5949.909 10471.903 2481.605 7804.032 6535.105 10205.159 5433.155 4809.175 5638.696 12035.449 6226.297 3869.630 11392.776 2147.747 2254.368 7803.448 9885.889 5864.789 2158.906 4460.563 5057.427 8975.983 4067.644 1924.348 2347.314 3960.132 10504.503 2178.228 11965.049 10248.242 2159.302 2233.075 2559.162 4843.305 0.000 9430.745 2119.039 5946.839 2828.565 2489.057 14380.727 12293.719 8789.153 2325.107 7438.298 3534.928 5612.537 4599.973 9312.961 7331.012 2456.307 11118.800 2351.478 7030.112 1191.769 1707.007 11147.557 4407.467 4048.881 2475.440 9363.460 12510.823 3573.337 4116.490 2191.667 410.935 6104.124 4008.080 3746.937 1301.559 4852.980 2607.438 7449.951 7098.896 1558.636 2206.105 3330.962 11145.700 5545.512 11527.162 2565.695 2879.537 1974.200 3599.774 4914.713 10369.450 11008.199 2121.224 3799.063 2223.106 4911.136 2733.033 2396.041 7354.887 8319.857 3916.695 3016.718 4966.084 2673.878 3549.557 12793.164 3061.834 7325.373 2335.692 10000.266 10878.517 2247.496 2372.076 8800.940 2237.496 3946.564 2338.048
12796.484 15282.337 5796.857 5679.735 10914.976 11595.227 9430.558 10787.228 1876.913 11662.917 14633.093 3067.502 14817.329 5552.328 5904.505 15650.358 9875.582 15260.740 7784.916 12560.723 7554.420 9920.685 13711.453 10449.126 17220.630 7384.671 2117.332 9556.629 10445.990 8916.037 20588.694 11715.246 13259.049 14708.993 10113.741 10053.905 13011.732 5643.651 9618.977 10382.807 5095.143 9143.503 16222.943 10615.659 10397.188 10406.804 10904.070 2124.939 10048.238 2544.699 13407.935 10482.005 10619.672 9579.774 7214.857 9430.745 0.000 10239.027 9486.025 9647.965 11218.728 15192.706 20827.367 17536.282 10120.367 14903.380 10710.176 12356.529 8647.456 14667.226 14853.089 11162.300 6684.952 10316.338 16168.914 8339.179 10846.108 12894.044 9602.089 13229.167 11195.459 67.398 3082.935 9936.621 5321.183 10133.863 9568.061 11634.804 5472.722 6286.056 10153.630 7066.328 10619.204 12130.199 2955.268 9946.813 10710.753 10572.058 6609.713 13176.042 12912.220 10525.136 9540.067 10341.853 6066.032 8461.567 5746.241 6265.428 10515.757 6252.904 10202.304 11236.967 9843.939 11053.722 14902.274 11157.849 13134.992 12025.077 8364.828 9826.007 9939.143 3363.955 10642.716 14962.007 10307.635 1958.473 3750.598 10554.593 10489.128 18229.198 10147.945 10852.701 10125.346
9141.928 13465.106 4471.746 9433.312 676.101 6949.029 4396.866 549.068 11484.338 7141.967 7228.766 8426.455 9601.578 9377.898 4577.865 6472.335 367.339 12701.427 3416.612 4345.660 3606.562 8066.464 8506.321 364.472 7652.539 8535.323 11358.523 3803.761 6879.753 4221.231 10508.681 4176.006 4191.560 9389.695 156.444 300.155 9775.090 9474.795 4240.680 148.349 5155.689 3552.045 6977.234 2031.022 360.723 237.121 1862.456 11625.565 246.094 12691.429 8301.414 262.871 396.097 956.096 4128.969 2119.039 10239.027 0.000 4365.784 1131.167 1034.928 12599.471 10758.924 7349.619 309.753 8942.117 1436.698 3494.182 3293.880 7199.345 8822.293 976.220 10574.400 235.325 5949.102 3011.991 1264.268 9361.311 2718.903 4811.012 1010.720 10173.864 13248.531 1717.466 5067.792 169.647 2467.176 4055.591 4839.074 5412.638 911.246 4202.868 511.129 5437.326 8343.813 562.876 518.946 1241.588 10620.759 3533.210 9777.844 452.571 1249.698 249.549 4179.823 3668.157 9968.278 10546.350 324.769 5465.108 140.649 2831.663 909.749 863.199 8835.438 6546.952 4641.449 1887.346 3755.192 866.098 1691.417 13533.284 945.402 8775.158 219.951 11143.104 10970.539 318.681 290.069 8374.053 199.424 1855.115 319.144
13109.531 9223.615 5236.445 6335.503 4651.488 2944.950 64.888 4629.580 11190.237 3113.568 5162.137 9006.765 6150.880 6332.089 5856.957 6458.993 4191.362 8557.631 2257.093 8711.431 2383.708 11459.325 4957.395 4176.604 11478.611 10996.545 11234.625 568.932 10599.579 591.548 11933.671 2388.196 8472.266 5975.398 4232.716 4078.804 13696.699 6390.475 188.285 4455.930 5529.098 895.539 7024.645 2728.706 4726.107 4278.168 3128.450 11399.646 4152.204 11491.972 4682.153 4555.470 4623.545 3507.864 2450.651 5946.839 9486.025 4365.784 0.000 3267.532 5116.494 8458.151 12138.969 9373.789 4056.085 13258.357 3345.995 3543.169 1461.048 5191.389 13142.125 5072.441 7151.615 4190.609 8882.860 6153.056 5628.381 5247.353 1648.481 9163.314 5098.291 9434.458 12026.253 2671.666 5942.560 4203.304 6357.757 2344.178 5613.142 7471.821 5173.602 2594.436 4213.210 2654.331 8848.024 4711.827 4761.439 3416.198 7226.314 4765.701 5598.723 4161.822 3172.625 4615.262 4917.838 1322.722 6846.094 7263.560 4633.481 7511.011 4226.150 2644.123 3461.840 4988.478 13158.624 2464.798 8991.606 5815.183 1359.973 3511.099 2697.158 12293.742 3759.951 13106.821 4199.375 11018.317 8658.514 4535.540 4332.164 11896.965 4167.281 3086.637 4046.659
10013.474 12433.776 4040.674 8399.555 1602.936 5960.181 3294.598 1529.064 11020.368 6149.901 6678.654 8130.188 8776.747 8350.557 4320.413 6414.531 923.941 11703.768 2373.932 5458.002 2583.877 8689.294 7644.014 1054.369 8698.552 8820.590 10934.580 2714.747 7627.951 3094.385 10948.069 3458.284 5320.304 8571.269 984.803 832.272 10628.234 8443.209 3153.874 1246.314 4665.296 2431.545 6958.002 1361.352 1488.414 1109.807 1435.466 11180.146 898.752 12033.757 7419.680 1359.095 1459.076 269.702 3103.720 2828.565 9647.965 1131.167 3267.532 0.000 2060.034 11602.433 11189.599 7899.090 829.093 9996.661 1112.770 3168.184 2165.223 6662.097 9879.405 2005.192 9507.308 1006.499 6732.636 3392.159 2388.708 8363.066 1637.791 5937.602 2037.393 9584.786 12591.409 750.168 4717.287 962.120 3228.512 3335.840 4441.475 5474.180 1907.354 3194.766 1169.138 4640.451 8024.730 1447.945 1600.038 941.707 9557.386 3620.789 8761.520 1084.487 131.258 1377.261 3711.948 2541.365 8935.841 9496.710 1434.453 5524.203 998.984 2231.475 247.000 1900.259 9895.045 5535.371 5768.879 2885.818 2630.967 272.295 727.754 12875.037 1006.540 9841.315 1010.159 10715.849 10074.477 1366.413 1184.308 9349.503 933.331 1397.311 822.556
8981.379 14021.906 5429.439 10442.335 470.572 7479.789 5155.708 531.355 12414.301 7674.992 7249.603 9292.965 9888.272 10389.665 5468.357 6054.145 1396.800 13204.504 4415.682 3729.963 4614.336 8237.929 8850.307 1006.488 6644.191 9022.890 12271.725 4547.571 6922.756 5054.739 9667.056 4467.257 3356.799 9670.737 1185.548 1300.252 9635.294 10484.793 4971.126 887.334 6124.959 4370.844 6514.664 2500.728 821.547 959.687 2186.591 12547.358 1270.121 13687.839 8672.033 772.539 639.928 1944.937 5137.081 2489.057 11218.728 1034.928 5116.494 2060.034 0.000 13101.965 9921.518 6460.791 1266.737 8448.057 1832.917 3464.831 4200.225 7207.896 8322.919 58.740 11564.561 1065.962 4950.848 3592.207 898.734 9883.042 3484.351 4097.609 24.220 11153.059 14244.238 2457.797 5988.727 1182.761 2722.294 4355.402 5780.608 6115.774 1231.253 5217.088 919.533 5761.503 9221.757 1283.876 520.778 1716.690 11613.557 3122.323 10325.468 989.091 2189.549 882.249 5152.701 4579.932 10978.056 11547.679 720.974 6168.638 1121.959 3120.348 1814.669 171.836 8329.807 7116.437 3923.002 852.632 4674.789 1789.263 2433.348 14529.053 1362.290 8253.423 1065.981 12058.363 12005.456 725.547 879.643 7341.612 1189.382 2205.107 1268.833
21563.343 1206.975 13196.124 9655.851 12688.447 5650.585 8452.093 12711.963 17067.185 5458.115 7292.567 16104.555 4005.795 9768.213 13903.975 10360.534 12506.344 102.648 10504.129 16831.714 10537.418 19859.666 4537.417 12329.587 18411.340 19071.919 17293.540 8950.571 19054.768 8854.622 15406.432 8703.906 16330.612 4195.751 12491.655 12344.397 22154.121 9704.020 8524.073 12654.966 13228.534 9353.650 10619.577 10625.149 12943.385 12454.444 10915.588 17316.815 12423.533 16136.505 4608.490 12732.974 12763.563 11863.593 10329.259 14380.727 15192.706 12599.471 8458.151 11602.433 13101.965 0.000 15489.815 14400.136 12302.061 21525.739 11287.495 10039.449 9886.513 7383.568 21403.346 13073.408 9114.026 12388.127 15102.416 14600.801 13805.243 3239.924 9979.986 17172.895 13090.162 15169.890 16520.718 10899.535 13799.653 12454.961 14790.430 8803.077 13492.778 15611.522 13480.886 10420.676 12308.984 7435.653 15913.688 13036.127 12885.927 11436.876 9220.263 11159.599 2859.629 12286.692 11530.141 12839.056 12940.195 9648.163 9779.376 9537.514 12807.766 15642.271 12460.283 10000.177 11753.212 13018.999 21413.452 6067.298 16997.724 13582.462 9634.620 11809.220 10925.265 16706.092 11792.012 21344.085 12400.291 17113.692 12344.142 12688.018 12486.422 18349.294 12412.722 10898.552 12290.622
16541.695 16695.712 15185.745 18464.183 10102.346 12067.131 12203.855 10237.912 22199.466 12185.289 8589.932 19185.037 11542.677 18465.991 15336.644 5846.933 11098.425 15572.062 13157.200 11037.552 13394.958 17117.355 11445.873 10486.611 7800.828 18620.483 22095.889 11806.217 15570.400 12553.535 262.290 9779.581 9841.720 11382.243 10857.747 10885.043 17186.126 18520.154 11956.377 10629.394 15839.691 12071.150 5351.827 10251.841 10699.189 10555.965 9936.563 22352.234 10907.596 23162.500 11553.510 10551.115 10421.332 11280.362 13826.039 12293.719 20827.367 10758.924 12138.969 11189.599 9921.518 15489.815 0.000 3520.349 10810.149 14329.366 10117.204 8675.960 12408.583 8499.889 14207.699 9969.180 19170.657 10631.963 5583.233 13464.856 10590.287 13404.238 11390.040 10679.311 9941.154 20764.999 23717.932 10903.771 15815.462 10829.200 12406.403 9806.824 15570.354 16017.735 11140.110 13961.702 10311.603 10150.196 19102.537 11178.800 10365.856 10257.969 19255.904 7677.897 13902.976 10401.750 11293.204 10722.384 14871.709 12691.734 18965.192 19335.275 10538.651 16070.466 10762.039 9755.578 11005.920 10061.282 14171.823 12131.953 10602.695 9278.836 12803.055 11029.304 10899.485 23999.106 10210.584 14013.402 10643.304 21878.687 20746.044 10465.790 10480.717 6632.578 10805.710 9988.932 10802.922
13260.469 15567.164 11814.547 15675.221 6680.249 9988.303 9437.262 6814.101 18832.335 10142.360 7109.846 15752.019 10410.743 15660.359 11916.275 4039.727 7701.358 14493.973 10031.097 7613.015 10267.493 13653.956 9962.936 7104.427 5235.911 15101.859 18707.903 8954.843 12119.383 9698.398 3259.294 7170.911 6422.275 10211.482 7460.119 7503.209 13918.788 15728.110 9185.657 7213.635 12487.385 9134.143 3833.599 7131.849 7257.651 7160.306 6773.205 18975.011 7517.447 19932.518 9982.694 7127.252 6993.648 7956.728 10735.215 8789.153 17536.282 7349.619 9373.789 7899.090 6460.791 14400.136 3520.349 0.000 7432.507 11295.130 6882.784 5832.392 9374.017 7018.281 11167.256 6511.082 16523.988 7243.872 2201.409 9966.987 7091.121 11789.539 8354.594 7314.653 6481.508 17472.378 20490.103 7718.924 12416.933 7435.173 8891.725 7163.969 12187.376 12524.401 7664.108 10860.834 6931.371 7885.017 15677.802 7734.771 6926.534 6996.962 16599.625 4637.368 12306.477 7024.267 8012.516 7290.155 11512.584 9695.243 16196.253 16635.188 7107.708 12576.991 7366.986 6798.032 7695.316 6608.306 11138.553 9927.643 7220.543 5781.352 9808.439 7711.518 7710.519 20773.589 6897.273 10989.676 7253.947 18492.635 17761.527 7045.663 7081.263 4495.681 7415.986 6826.869 7426.513
9409.068 13162.665 4383.973 9176.394 842.884 6651.491 4087.117 741.561 11403.358 6844.037 7017.088 8388.864 9334.347 9123.262 4538.371 6378.939 334.500 12403.933 3151.325 4655.383 3348.053 8273.102 8231.239 328.834 7908.725 8655.505 11288.813 3494.275 7116.017 3913.710 10562.259 3921.148 4491.290 9123.601 191.342 82.357 10038.387 9218.671 3931.357 417.299 5055.060 3243.295 6895.448 1764.922 670.397 311.288 1635.167 11549.989 147.723 12555.098 8022.601 531.292 639.957 679.561 3870.846 2325.107 10120.367 309.753 4056.085 829.093 1266.737 12302.061 10810.149 7432.507 0.000 9245.785 1210.605 3317.907 2994.278 6990.500 9126.341 1209.374 10305.245 206.862 6105.834 3134.773 1573.819 9063.152 2409.417 5119.574 1243.068 10055.716 13112.672 1411.776 5005.416 152.910 2692.016 3799.842 4762.575 5464.685 1186.987 3950.351 501.168 5171.100 8299.731 779.731 778.618 1005.882 10353.064 3462.789 9477.099 408.979 951.474 559.299 4080.079 3370.077 9711.992 10283.877 605.769 5516.712 171.478 2589.942 601.592 1099.339 9139.866 6245.993 4949.757 2113.677 3458.860 560.246 1385.743 13397.239 764.603 9080.541 203.376 11072.258 10760.405 548.241 395.707 8602.325 111.928 1621.560 12.943
3041.973 22406.750 10460.963 16977.632 8843.909 15880.567 13281.922 8815.376 15078.622 16074.565 15455.239 11900.666 18307.131 16880.910 9879.608 13434.375 9074.062 21628.024 11728.246 4742.213 11817.915 5515.833 17292.950 9198.465 6646.391 8287.502 14723.001 12710.810 4500.759 13019.149 14085.370 12912.217 5528.773 18087.579 9059.493 9210.596 3459.640 17000.067 13149.950 8877.815 11000.151 12395.563 13690.806 10901.415 8591.538 9075.737 10624.137 15068.437 9133.325 17332.997 17119.055 8796.013 8762.412 9751.084 12255.526 7438.298 14903.380 8942.117 13258.357 9996.661 8448.057 21525.739 14329.366 11295.130 9245.785 0.000 10241.587 11784.800 11997.752 15398.360 132.644 8471.772 18300.269 9146.035 9125.503 7764.908 7720.731 18292.851 11633.418 4551.785 8457.798 14840.575 17804.490 10657.399 10413.415 9093.698 7042.865 12801.732 10496.947 8759.927 8089.914 12251.676 9216.785 14206.907 11979.206 8548.945 8639.855 10089.057 18312.349 11013.605 18716.937 9239.566 10086.906 8698.123 10460.929 12330.246 17460.437 18129.833 8720.523 8780.731 9082.469 11568.400 9818.625 8518.381 157.602 15487.224 4716.618 8093.885 12388.393 9765.653 10631.381 18056.904 9734.567 320.084 9134.475 14579.818 17422.434 8838.735 9041.122 7986.196 9134.059 10637.710 9256.628
10567.084 12194.770 5150.417 9096.178 1401.734 5653.612 3390.958 1426.683 12113.950 5848.600 5806.486 9242.813 8184.780 9059.619 5430.522 5315.748 1526.791 11389.911 3182.368 5550.170 3414.225 9483.654 7106.238 1098.471 8176.048 9812.250 12035.167 2781.991 8315.402 3370.051 9878.714 2748.671 5170.821 7971.222 1387.967 1284.070 11203.850 9143.650 3188.276 1441.689 5766.509 2689.112 5854.267 667.988 1726.999 1235.100 426.280 12277.012 1358.097 13065.269 6911.549 1493.157 1496.778 1282.261 3906.750 3534.928 10710.176 1436.698 3345.995 1112.770 1832.917 11287.495 10117.204 6882.784 1210.605 10241.587 0.000 2133.624 2679.777 5779.980 10118.328 1798.389 10123.273 1201.804 5882.735 4310.990 2530.442 8061.216 1781.590 5930.526 1818.527 10647.795 13622.207 867.710 5829.846 1344.184 3896.776 2629.578 5552.587 6534.018 2343.214 4021.159 1037.348 4023.634 9136.803 1981.310 1608.827 208.458 10182.259 2510.329 8498.463 1034.681 1196.729 1637.974 4819.520 3049.208 9631.202 10153.494 1561.062 6584.923 1317.995 1396.761 996.867 1735.582 10127.573 5284.549 5755.915 2471.662 3157.095 1042.162 853.596 13904.867 514.535 10056.832 1216.940 11816.102 10949.337 1431.845 1243.534 8692.359 1298.151 419.204 1197.688
12445.600 11061.544 7074.706 9865.092 3197.511 4682.525 3606.969 3285.557 13882.686 4868.784 3787.668 11179.677 6539.789 9855.977 7440.942 3326.985 3645.850 10141.636 4575.532 7045.406 4809.168 11554.010 5592.931 3130.965 8520.205 11945.546 13843.428 3149.658 10322.512 3898.718 8459.569 1479.256 6371.113 6318.759 3479.520 3396.251 13098.216 9919.087 3355.303 3457.466 7629.188 3395.199 3892.160 1855.291 3712.997 3265.376 1742.214 14062.520 3464.809 14587.520 5461.178 3471.239 3423.382 3382.744 5197.947 5612.537 12356.529 3494.182 3543.169 3168.184 3464.831 10039.449 8675.960 5832.392 3317.907 11784.800 2133.624 0.000 3760.469 3748.675 11656.059 3460.107 10691.659 3263.755 5535.221 6442.192 4337.156 6935.605 2762.730 7278.809 3462.759 12297.592 15138.014 2576.826 7783.965 3435.782 5949.567 1429.207 7485.457 8641.255 4352.727 5339.837 3009.827 2621.994 11059.206 4056.495 3490.730 2341.335 10767.558 1293.405 7425.564 3047.140 3214.765 3647.906 6732.593 4023.540 10380.955 10806.661 3521.427 8691.473 3396.876 1119.563 3108.208 3453.812 11657.123 4465.389 7106.235 3690.915 4133.719 3159.018 2584.576 15415.530 2558.320 11566.063 3279.597 13623.334 12071.473 3389.155 3244.295 8704.761 3391.338 1775.149 3305.306
11708.108 10614.282 3881.885 6420.991 3732.267 4405.814 1453.927 3675.202 10247.619 4574.529 6268.349 7812.618 7581.150 6387.443 4460.565 7009.559 3042.617 9985.085 924.760 7576.786 1125.088 10003.009 6391.139 3198.262 10794.719 9560.178 10246.677 1124.961 9170.232 1044.259 12185.461 3110.266 7485.080 7399.568 3143.901 2993.825 12284.826 6469.224 1450.997 3411.532 4259.494 628.031 7582.941 2259.850 3647.212 3268.933 2648.289 10441.429 3055.599 10832.648 6122.364 3524.088 3620.694 2351.607 1442.044 4599.973 8647.456 3293.880 1461.048 2165.223 4200.225 9886.513 12408.583 9374.017 2994.278 11997.752 2679.777 3760.469 0.000 6282.343 11885.498 4148.017 7446.838 3167.928 8545.951 4714.319 4539.133 6692.991 1022.869 8081.716 4178.675 8590.612 11381.741 1827.713 4603.907 3124.283 5009.059 3018.289 4275.890 6037.505 3988.194 1587.243 3284.042 3821.860 7666.558 3526.577 3762.070 2662.163 7504.553 4763.066 7028.039 3211.176 2044.226 3536.883 3549.570 380.175 6955.185 7473.717 3599.641 6078.145 3163.740 2656.185 2400.525 4048.004 11905.425 3925.620 7915.175 4993.633 480.969 2435.799 1846.774 11658.422 2941.492 11863.410 3172.604 10027.363 8388.641 3528.174 3339.144 11362.906 3097.466 2595.565 2987.778
16188.559 8549.027 10117.652 10840.239 6944.975 3777.170 5244.269 7030.012 16381.621 3851.086 92.859 14094.303 3414.580 10877.238 10623.363 2980.962 7304.032 7478.071 7206.707 10690.816 7395.658 15262.793 2991.948 6841.936 11252.030 15462.148 16423.479 5212.972 14062.485 5773.926 8368.237 3278.458 9894.082 3207.661 7165.332 7063.899 16843.179 10899.757 5072.274 7177.629 10538.729 5685.741 3289.027 5308.223 7443.442 6978.812 5356.865 16590.822 7138.053 16590.524 3066.458 7201.167 7161.867 6913.331 7587.889 9312.961 14667.226 7199.345 5191.389 6662.097 7207.896 7383.568 8499.889 7018.281 6990.500 15398.360 5779.980 3748.675 6282.343 0.000 15267.594 7205.320 11253.838 6964.874 7833.534 10046.399 8085.293 4918.876 5592.345 10851.070 7206.772 14616.840 17111.939 5946.958 10845.687 7121.391 9666.338 3394.126 10522.446 12032.104 8081.349 7736.831 6734.641 2538.261 13946.609 7755.400 7234.882 5985.878 11351.590 4390.416 5425.563 6762.941 6669.517 7371.610 9776.115 6350.166 11275.971 11502.022 7255.422 12079.123 7090.399 4437.838 6670.000 7201.712 15264.093 3991.027 10683.781 7350.779 6427.504 6726.794 5964.162 17371.545 6253.977 15162.301 6980.544 16206.675 13471.394 7122.326 6966.136 11050.187 7075.637 5374.077 6977.593
3088.273 22286.367 10376.791 16889.769 8720.124 15758.894 13165.983 8692.328 15044.009 15952.967 15324.581 11856.350 18179.483 16793.585 9799.970 13301.740 8956.502 21505.651 11621.603 4614.455 11712.772 5512.487 17166.668 9077.049 6533.421 8275.748 14690.688 12593.829 4466.330 12905.663 13963.348 12786.353 5396.708 17959.868 8940.332 9091.626 3524.999 16912.529 13032.979 8757.146 10920.443 12280.565 13558.208 10778.641 8471.171 8954.693 10500.006 15035.976 9014.495 17288.474 16993.376 8674.816 8640.403 9634.545 12152.332 7331.012 14853.089 8822.293 13142.125 9879.405 8322.919 21403.346 14207.699 11167.256 9126.341 132.644 10118.328 11656.059 11885.498 15267.594 0.000 8346.917 18210.757 9025.473 8996.424 7670.644 7598.774 18171.028 11515.800 4420.302 8332.776 14790.084 17762.083 10538.056 10336.612 8974.359 6936.830 12676.043 10416.866 8695.993 7972.371 12149.516 9094.374 14081.035 11933.001 8431.897 8517.428 9966.502 18223.421 10882.482 18595.969 9117.673 9970.246 8577.965 10373.411 12219.075 17373.927 18042.525 8599.206 8717.443 8962.700 11443.254 9700.312 8394.082 60.134 15366.580 4585.372 7965.156 12277.796 9647.504 10512.032 18015.418 9611.752 220.012 9013.979 14546.044 17351.702 8717.040 8919.614 7876.265 9014.576 10513.810 9137.140
8985.496 13990.430 5373.688 10385.360 422.389 7448.413 5111.263 476.131 12360.298 7643.567 7246.352 9241.894 9871.119 10332.527 5415.579 6075.699 1338.073 13175.928 4358.999 3758.351 4557.227 8222.970 8829.656 952.424 6700.723 8991.127 12218.542 4503.511 6914.302 5006.477 9714.942 4446.554 3399.983 9653.838 1126.961 1242.233 9638.423 10427.762 4928.016 828.667 6068.781 4322.967 6539.138 2466.377 765.347 903.021 2157.881 12493.762 1211.661 13630.667 8649.850 713.806 581.340 1887.922 5079.993 2456.307 11162.300 976.220 5072.441 2005.192 58.740 13073.408 9969.180 6511.082 1209.374 8471.772 1798.389 3460.107 4148.017 7205.320 8346.917 0.000 11508.709 1009.226 5007.619 3552.332 889.891 9852.869 3438.287 4132.977 34.519 11096.653 14187.104 2411.109 5934.680 1124.377 2696.137 4334.083 5725.611 6072.036 1190.129 5159.675 869.944 5740.355 9170.121 1230.211 462.173 1677.689 11557.553 3139.766 10293.963 937.410 2134.490 824.467 5096.271 4527.601 10921.045 11491.176 662.366 6124.902 1063.782 3097.165 1760.162 113.096 8354.189 7082.830 3958.550 911.264 4622.103 1734.123 2386.532 14471.919 1321.938 8278.764 1009.020 12005.071 11946.756 667.270 823.522 7400.023 1131.300 2175.215 1211.603
17077.464 8950.093 7871.059 1354.130 11110.232 7499.835 7088.548 11033.263 8456.815 7458.031 11185.456 8655.547 9994.449 1470.390 8515.020 13356.153 10255.391 9162.337 7157.953 14499.374 6974.376 14550.632 9160.896 10561.258 18205.730 12708.511 8772.545 7597.012 14423.419 6872.460 18979.684 9417.585 14675.153 9967.237 10417.975 10283.198 17492.506 1345.982 7339.884 10711.046 7420.715 7500.895 13890.934 9643.798 10895.714 10606.501 10048.791 8708.421 10328.372 7099.240 8890.535 10828.857 10944.954 9626.163 6455.363 11118.800 6684.952 10574.400 7151.615 9507.308 11564.561 9114.026 19170.657 16523.988 10305.245 18300.269 10123.273 10691.659 7446.838 11253.838 18210.757 11508.709 0.000 10500.666 15947.778 10554.316 11715.509 7665.748 8377.172 15095.322 11541.527 6683.831 7444.546 9274.365 8060.688 10409.795 11458.524 9404.567 7902.761 9987.191 11051.659 6396.990 10672.275 9077.753 8463.334 10636.245 11082.176 10108.626 109.444 11913.532 7476.155 10590.485 9376.868 10793.594 7843.333 7074.350 996.930 439.042 10897.774 9989.277 10462.503 9768.829 9753.998 11401.257 18244.943 7264.608 14945.272 12392.145 6967.339 9776.391 9293.129 7615.223 10377.849 18246.704 10501.810 8632.951 3289.276 10853.475 10685.201 18809.281 10393.854 9998.360 10301.771
9373.045 13260.910 4570.725 9376.428 636.104 6738.497 4223.770 537.470 11589.369 6931.876 6994.064 8559.832 9371.506 9323.974 4708.940 6268.076 470.537 12490.177 3349.776 4525.754 3548.654 8300.043 8279.240 152.219 7709.940 8747.019 11471.307 3625.567 7115.057 4069.159 10383.240 3943.404 4324.145 9159.285 239.037 262.978 10007.179 9418.942 4060.438 268.835 5245.727 3393.710 6777.865 1802.944 555.267 106.335 1627.374 11734.357 275.670 12754.932 8076.091 365.294 452.902 879.258 4071.348 2351.478 10316.338 235.325 4190.609 1006.499 1065.962 12388.127 10631.963 7243.872 206.862 9146.035 1201.804 3263.755 3167.928 6964.874 9025.473 1009.226 10500.666 0.000 5901.560 3222.665 1442.345 9151.161 2542.133 4974.276 1042.540 10251.564 13312.436 1526.694 5184.376 202.370 2701.980 3823.203 4946.049 5594.817 1143.353 4152.363 324.531 5207.364 8473.091 793.205 594.184 1008.027 10549.115 3337.168 9571.204 244.204 1133.194 452.306 4270.109 3545.466 9912.183 10481.986 443.249 5647.093 142.578 2597.387 767.403 900.715 9037.832 6341.189 4803.258 1909.835 3636.373 734.242 1500.734 13597.048 710.979 8975.416 15.847 11255.099 10967.195 360.299 189.365 8397.323 173.846 1620.471 206.425
11060.891 16216.463 10375.995 14966.011 5278.759 10136.465 8941.454 5400.602 17329.333 10312.749 7917.453 14139.789 11225.531 14933.382 10371.865 5072.798 6316.136 15201.171 9046.999 5456.550 9273.138 11534.814 10568.531 5783.603 3484.208 13121.108 17167.776 8384.192 9987.177 9085.751 5321.826 7008.085 4260.907 11011.345 6084.096 6163.329 11718.357 15014.639 8698.245 5802.451 11074.234 8446.962 5104.003 6307.895 5772.202 5803.535 5906.405 17453.076 6157.083 18637.045 10525.422 5698.126 5560.200 6722.399 9777.624 7030.112 16168.914 5949.102 8882.860 6732.636 4950.848 15102.416 5583.233 2201.409 6105.834 9125.503 5882.735 5535.221 8545.951 7833.534 8996.424 5007.619 15947.778 5901.560 0.000 8221.866 5398.742 12219.375 7576.831 5126.187 4974.250 16103.152 19193.724 6750.254 10913.265 6069.161 7067.123 6963.993 10719.183 10770.315 6051.884 9885.224 5624.753 8004.816 14084.374 6223.537 5462.468 5939.261 16012.469 4243.074 12730.296 5719.063 6859.062 5830.305 10103.109 8904.441 15499.425 16002.910 5659.629 10821.945 6001.639 6242.096 6499.874 5117.052 8969.701 9970.367 5038.616 4151.303 9015.326 6500.827 6735.475 19478.531 5742.377 8823.944 5908.046 16957.402 16801.425 5630.705 5718.952 3250.597 6061.353 5957.932 6103.013
7036.017 15315.490 2854.497 9247.222 3538.384 9068.456 6154.753 3408.267 9241.472 9246.439 10065.315 5962.266 12080.725 9156.221 2475.642 9483.298 2801.923 14699.401 4184.738 4284.891 4218.330 5346.245 10919.913 3369.785 8883.811 5524.355 9036.546 5698.779 4458.808 5750.047 13207.410 6847.212 4920.008 11881.989 2990.230 3054.155 7591.924 9272.920 6105.378 3092.391 3508.409 5261.430 9983.752 4738.278 2915.195 3249.044 4719.046 9340.126 2990.848 10881.639 10675.992 3125.253 3226.292 3135.164 4591.942 1191.769 8339.179 3011.991 6153.056 3392.159 3592.207 14600.801 13464.856 9966.987 3134.773 7764.908 4310.990 6442.192 4714.319 10046.399 7670.644 3552.332 10554.316 3222.665 8221.866 0.000 2875.958 11400.226 4779.346 4947.536 3575.705 8271.782 11422.093 4129.356 3073.918 3032.425 1234.498 6724.995 3022.188 2559.291 2362.490 4564.692 3523.038 7996.027 5926.433 2467.801 3232.635 4102.634 10570.862 6538.827 11742.076 3460.955 3399.531 2934.752 2771.163 4966.949 9743.661 10403.300 3106.399 2611.674 3081.553 5608.652 3377.173 3477.058 7702.602 8602.819 4837.341 4186.816 4992.787 3320.906 4109.372 11702.714 3899.319 7698.306 3207.164 8833.739 10022.118 3217.419 3295.105 9927.483 3074.018 4694.732 3146.960
8113.727 14691.796 5058.529 10535.911 1161.782 8160.218 5660.123 1108.124 11940.030 8354.377 8124.824 8742.037 10692.468 10473.019 4987.524 6939.122 1500.172 13907.498 4576.173 3084.071 4745.941 7342.217 9629.746 1480.497 6621.725 8198.969 11771.519 5064.987 6024.650 5482.740 10332.493 5254.542 2972.144 10476.809 1404.511 1558.092 8763.478 10574.640 5500.908 1174.429 5766.551 4815.689 7390.321 3183.619 903.567 1362.946 2929.137 12059.514 1489.957 13351.179 9439.392 1082.042 1041.693 2187.534 5261.608 1707.007 10846.108 1264.268 5628.381 2388.708 898.734 13805.243 10590.287 7091.121 1573.819 7720.731 2530.442 4337.156 4539.133 8085.293 7598.774 889.891 11715.509 1442.345 5398.742 2875.958 0.000 10572.256 3980.446 3548.899 894.636 10779.493 13904.182 2968.986 5544.120 1430.050 1877.888 5138.580 5373.616 5433.579 713.230 5318.891 1497.649 6541.849 8685.644 1080.121 921.868 2370.233 11756.930 4016.912 10998.966 1518.909 2501.708 1014.897 4818.591 4909.013 11067.479 11665.159 1004.962 5486.126 1402.946 3896.157 2173.546 883.672 7609.661 7771.729 3380.253 1311.452 4991.625 2128.412 2943.013 14188.517 2018.591 7543.713 1432.472 11561.970 11907.090 1118.889 1322.516 7464.963 1463.583 2937.119 1582.812
18335.774 4149.555 10167.868 7779.112 9462.939 2412.697 5245.661 9482.960 14761.172 2219.367 4827.103 13382.699 2394.849 7865.216 10856.798 7822.272 9266.419 3341.527 7363.234 13610.324 7418.689 16692.392 1970.435 9094.744 15417.027 16044.276 14931.736 5724.068 15845.395 5676.602 13279.594 5539.820 13143.302 2420.891 9252.554 9105.018 18931.368 7835.693 5302.871 9418.410 10275.731 6140.736 8190.023 7396.513 9706.413 9218.646 7696.989 15002.750 9184.082 14221.559 1852.840 9497.710 9530.657 8624.697 7264.590 11147.557 12894.044 9361.311 5247.353 8363.066 9883.042 3239.924 13404.238 11789.539 9063.152 18292.851 8061.216 6935.605 6692.991 4918.876 18171.028 9852.869 7665.748 9151.161 12219.375 11400.226 10572.256 0.000 6743.262 13966.626 9870.566 12861.232 14669.274 7659.742 10809.366 9216.035 11556.703 5631.531 10491.832 12545.327 10241.206 7369.926 9077.564 4313.823 13198.898 9796.204 9654.424 8206.419 7774.605 8122.858 517.065 9053.355 8291.650 9601.626 9890.524 6477.727 8055.205 8026.702 9572.848 12579.214 9221.934 6799.693 8513.289 9795.508 18181.815 2829.032 13791.434 10391.276 6474.042 8569.296 7685.485 14888.675 8562.646 18114.347 9163.194 14736.102 10584.962 9454.123 9251.907 15465.927 9173.942 7677.952 9051.760
11601.329 10798.747 4542.346 7396.550 3016.074 4352.544 1682.094 2987.798 11159.512 4539.210 5590.227 8589.963 7303.380 7368.608 5031.038 6050.724 2559.356 10080.963 1817.176 7064.055 2048.620 10125.590 6140.584 2530.110 9957.287 9960.377 11138.562 1084.861 9156.824 1591.050 11165.893 2323.952 6834.730 7106.416 2588.153 2434.594 12205.325 7446.293 1522.289 2807.534 5014.671 907.786 6622.529 1269.010 3078.843 2630.040 1671.875 11346.071 2509.223 11825.684 5898.164 2907.036 2976.391 1890.708 2440.916 4407.467 9602.089 2718.903 1648.481 1637.791 3484.351 9979.986 11390.040 8354.594 2409.417 11633.418 1781.590 2762.730 1022.869 5592.345 11515.800 3438.287 8377.172 2542.133 7576.831 4779.346 3980.446 6743.262 0.000 7515.326 3465.308 9543.821 12376.701 1028.110 5269.888 2557.709 4815.488 2215.080 4951.224 6477.148 3543.504 2580.548 2573.170 3281.389 8455.037 3085.552 3114.865 1814.506 8439.728 3740.205 7132.729 2518.257 1554.898 2968.214 4198.461 1344.883 7928.103 8426.111 2985.048 6522.306 2578.953 1647.619 1819.232 3350.716 11531.048 3914.358 7343.807 4214.941 1457.929 1870.333 1053.133 12654.650 2141.892 11475.996 2550.895 10918.613 9410.136 2887.924 2685.002 10461.559 2520.900 1621.235 2399.780
5969.106 18111.037 7767.847 13859.726 4541.322 11570.226 9197.393 4545.531 13956.803 11765.539 10909.160 10614.484 13817.797 13784.967 7421.881 8930.955 5039.211 17275.531 8045.319 668.446 8192.089 6539.244 12839.859 4987.700 4210.050 8509.436 13698.829 8596.763 4974.519 9031.530 10420.122 8484.716 995.526 13596.983 4953.282 5106.671 6635.037 13893.551 9029.214 4711.337 8443.976 8362.869 9222.085 6598.307 4450.979 4885.287 6274.278 14023.052 5038.850 15773.266 12682.811 4609.019 4540.240 5731.941 8691.386 4048.881 13229.167 4811.012 9163.314 5937.602 4097.609 17172.895 10679.311 7314.653 5119.574 4551.785 5930.526 7278.809 8081.716 10851.070 4420.302 4132.977 15095.322 4974.276 5126.187 4947.536 3548.899 13966.626 7515.326 0.000 4112.131 13161.926 16304.883 6492.899 8019.900 4978.083 3783.357 8380.254 7965.599 7058.964 4113.625 8728.785 4962.707 9773.643 10618.760 4566.040 4403.267 5808.428 15128.276 6463.402 14415.490 5006.966 6049.939 4562.391 7631.637 8447.971 14381.205 15007.791 4531.036 7101.887 4948.159 7172.743 5720.737 4202.544 4414.999 11213.032 175.203 3605.671 8527.074 5676.606 6467.235 16582.169 5450.909 4311.274 4966.047 13510.894 14918.331 4627.836 4831.510 5461.160 5010.415 6296.242 5128.045
8983.034 14008.903 5406.445 10418.839 450.399 7466.808 5137.345 508.488 12392.030 7661.992 7248.201 9271.898 9881.157 10366.102 5446.582 6062.969 1372.584 13192.693 4392.302 3741.586 4590.783 8231.717 8841.747 984.129 6667.497 9009.764 12249.791 4529.361 6919.215 5034.809 9686.784 4458.635 3374.551 9663.726 1161.389 1276.321 9636.545 10461.274 4953.309 863.142 6101.791 4351.068 6524.699 2486.450 798.331 936.290 2174.603 12525.255 1246.013 13664.264 8662.841 748.321 615.767 1921.414 5113.536 2475.440 11195.459 1010.720 5098.291 2037.393 24.220 13090.162 9941.154 6481.508 1243.068 8457.798 1818.527 3462.759 4178.675 7206.772 8332.776 34.519 11541.527 1042.540 4974.250 3575.705 894.636 9870.566 3465.308 4112.131 0.000 11129.799 14220.679 2438.480 5966.432 1158.683 2711.389 4346.524 5757.923 6097.712 1214.123 5193.410 898.950 5752.716 9200.458 1261.695 496.610 1700.469 11590.460 3129.389 10312.445 967.682 2166.822 858.409 5129.428 4558.334 10954.545 11524.377 696.806 6150.577 1097.963 3110.671 1792.160 147.615 8339.823 7102.537 3937.596 876.806 4653.046 1766.497 2413.979 14505.494 1345.485 8263.835 1042.469 12036.385 11981.252 701.508 856.459 7365.697 1165.424 2192.636 1245.217
12738.362 15264.600 5730.695 5668.785 10849.836 11553.112 9379.147 10722.014 1904.258 11621.638 14582.973 3010.399 14778.599 5540.943 5837.264 15592.548 9810.512 15238.245 7726.650 12493.481 7496.418 9863.841 13671.002 10384.487 17153.247 7333.439 2132.670 9502.574 10384.498 8863.735 20526.193 11660.301 13191.654 14669.543 10048.740 9989.162 12955.367 5633.264 9566.806 10317.583 5029.233 9088.281 16165.059 10554.986 10331.515 10341.930 10842.626 2150.681 9983.348 2612.033 13367.457 10416.678 10554.331 9515.979 7158.799 9363.460 67.398 10173.864 9434.458 9584.786 11153.059 15169.890 20764.999 17472.378 10055.716 14840.575 10647.795 12297.592 8590.612 14616.840 14790.084 11096.653 6683.831 10251.564 16103.152 8271.782 10779.493 12861.232 9543.821 13161.926 11129.799 0.000 3150.331 9875.264 5254.071 10068.932 9500.673 11579.551 5406.047 6220.122 10087.192 7010.158 10554.642 12079.562 2896.319 9880.902 10645.247 10509.309 6609.402 13114.717 12881.794 10460.593 9477.074 10276.325 6000.384 8406.175 5741.528 6265.679 10450.320 6187.064 10137.377 11178.032 9780.404 10988.119 14839.214 11114.693 13067.703 11959.063 8309.709 9762.343 9877.713 3431.336 10579.184 14898.700 10242.837 1968.962 3769.538 10489.356 10424.217 18161.984 10083.093 10791.298 10060.717
15524.937 16394.614 8846.268 6923.612 13922.608 13755.250 11966.021 13797.599 2901.548 13789.949 17067.780 5908.979 16801.889 6825.827 8983.846 18375.622 12882.577 16574.269 10576.070 15636.493 10339.460 12621.731 15777.520 13440.315 20303.354 9924.507 3333.139 12184.086 13311.908 11490.196 23484.772 14354.346 16341.984 16723.556 13117.958 13049.458 15671.911 6870.231 12178.892 13394.150 8139.324 11816.513 18949.036 13468.092 13423.809 13406.150 13782.377 3015.650 13048.820 557.799 15478.912 13496.727 13634.662 12544.346 9940.960 12510.823 3082.935 13248.531 12026.253 12591.409 14244.238 16520.718 23717.932 20490.103 13112.672 17804.490 13622.207 15138.014 11381.741 17111.939 17762.083 14187.104 7444.546 13312.436 19193.724 11422.093 13904.182 14669.274 12376.701 16304.883 14220.679 3150.331 0.000 12816.278 8397.349 13135.679 12650.906 14285.815 8537.019 9320.897 13206.229 9798.312 13607.420 14605.779 5844.051 12982.003 13731.265 13497.452 7343.024 16041.857 14591.518 13512.860 12477.588 13363.634 9100.033 11148.471 6745.031 7009.893 13534.185 9284.865 13203.861 14024.227 12798.872 14077.137 17813.336 13364.326 16212.686 15061.777 11043.712 12785.372 12821.307 284.815 13595.132 17882.566 13304.568 3400.921 4176.735 13566.097 13489.612 21306.470 13147.038 13729.806 13116.870
10748.942 11752.235 4504.414 8234.002 1988.756 5250.379 2707.538 1959.809 11388.556 5441.926 5960.296 8611.376 8028.212 8196.093 4865.869 5886.633 1609.143 11001.223 2321.851 6052.351 2555.729 9437.651 6898.814 1505.286 8980.692 9517.810 11328.092 2104.162 8376.497 2601.076 10669.232 2718.050 5806.628 7822.276 1598.113 1447.990 11367.170 8281.069 2536.495 1794.674 5078.856 1915.704 6443.596 722.103 2073.483 1610.066 967.945 11559.345 1526.257 12260.286 6677.273 1889.452 1952.660 1019.063 3042.433 3573.337 9936.621 1717.466 2671.666 750.168 2457.797 10899.535 10903.771 7718.924 1411.776 10657.399 867.710 2576.826 1827.713 5946.958 10538.056 2411.109 9274.365 1526.694 6750.254 4129.356 2968.986 7659.742 1028.110 6492.899 2438.480 9875.264 12816.278 0.000 5209.443 1563.706 3970.284 2595.938 4914.118 6125.287 2581.632 3159.258 1545.081 3890.352 8494.602 2138.142 2090.019 834.489 9331.675 3239.465 8069.007 1490.707 729.846 1964.457 4164.066 2202.777 8769.428 9297.339 1967.312 6174.108 1576.826 1550.147 856.892 2322.764 10551.634 4838.149 6320.853 3204.361 2308.002 914.396 26.050 13098.018 1130.597 10492.202 1536.523 11108.307 10086.726 1865.452 1661.435 9535.196 1523.605 916.219 1401.071
9016.794 14303.601 728.167 6708.744 5736.971 8773.786 5912.192 5603.564 6425.624 8914.554 10838.226 3413.012 12067.431 6598.809 598.281 11094.382 4720.200 13890.201 3703.576 7355.633 3559.193 6566.548 10873.619 5328.998 11918.594 5277.663 6290.989 5723.223 6364.877 5375.240 15567.253 7592.599 7969.254 11900.320 4961.434 4930.428 9439.532 6722.096 5990.455 5203.305 652.816 5227.493 11648.314 5931.443 5173.570 5262.774 6120.470 6560.957 4908.929 7850.069 10588.553 5290.902 5425.583 4578.121 3575.583 4116.490 5321.183 5067.792 5942.560 4717.287 5988.727 13799.653 15815.462 12416.933 5005.416 10413.415 5829.846 7783.965 4603.907 10845.687 10336.612 5934.680 8060.688 5184.376 10913.265 3073.918 5544.120 10809.366 5269.888 8019.900 5966.432 5254.071 8397.349 5209.443 0.000 4988.562 4279.985 7484.807 329.492 1975.028 4865.429 3456.332 5503.945 8423.415 3308.924 4704.915 5499.894 5655.469 8056.119 8337.029 11036.242 5413.714 4636.796 5132.663 1071.428 4629.091 7152.136 7834.045 5313.504 1988.053 5056.186 6714.365 4863.191 5830.872 10376.768 8280.831 7911.109 6762.365 4583.123 4830.906 5203.172 8680.247 5637.442 10400.384 5173.304 6075.930 7051.048 5371.565 5339.858 12909.198 5010.816 6075.658 5012.743
9260.047 13315.116 4379.821 9272.187 790.765 6804.393 4233.752 674.453 11397.234 6996.931 7148.962 8360.607 9482.932 9217.475 4509.863 6464.179 269.705 12556.831 3252.536 4508.830 3444.410 8141.401 8381.501 354.368 7812.667 8556.247 11276.932 3642.448 6974.883 4053.631 10580.118 4066.184 4361.205 9271.915 43.968 130.509 9890.242 9313.915 4079.925 301.675 5057.962 3385.639 6975.787 1912.245 527.134 274.869 1770.120 11541.113 88.600 12578.331 8173.572 419.744 543.893 787.933 3967.042 2191.667 10133.863 169.647 4203.304 962.120 1182.761 12454.961 10829.200 7435.173 152.910 9093.698 1344.184 3435.782 3124.283 7121.391 8974.359 1124.377 10409.795 202.370 6069.161 3032.425 1430.050 9216.035 2557.709 4978.083 1158.683 10068.932 13135.679 1563.706 4988.562 0.000 2553.149 3945.102 4752.797 5393.725 1035.165 4042.636 526.598 5319.262 8274.655 637.807 675.442 1142.258 10456.548 3536.556 9629.801 445.924 1080.140 415.748 4082.018 3498.511 9807.365 10383.606 488.123 5445.968 68.476 2730.630 743.670 1012.084 8987.995 6398.689 4808.786 2034.890 3585.566 698.526 1537.686 13420.363 877.469 8929.002 189.006 11060.933 10825.988 457.372 355.450 8524.372 46.172 1758.664 164.526
6788.649 15581.063 3986.596 10183.722 2809.046 9167.489 6371.968 2698.416 10471.990 9354.607 9695.939 7181.370 11992.725 10101.032 3683.365 8767.054 2402.618 14891.051 4685.633 3133.999 4776.605 5604.454 10868.862 2824.907 7652.735 6321.166 10262.075 5843.567 4425.822 6048.468 12146.788 6606.492 3692.594 11784.889 2509.552 2624.574 7400.117 10213.781 6275.447 2492.646 4669.232 5468.344 9234.968 4446.886 2240.112 2688.474 4322.956 10567.965 2546.747 12109.009 10647.202 2480.410 2540.601 2959.660 5224.060 410.935 9568.061 2467.176 6357.757 3228.512 2722.294 14790.430 12406.403 8891.725 2692.016 7042.865 3896.776 5949.567 5009.059 9666.338 6936.830 2696.137 11458.524 2701.980 7067.123 1234.498 1877.888 11556.703 4815.488 3783.357 2711.389 9500.673 12650.906 3970.284 4279.985 2553.149 0.000 6484.599 4199.760 3713.874 1602.097 5228.961 2939.759 7838.628 7150.768 1915.521 2497.328 3695.392 11483.234 5821.421 11937.282 2905.472 3282.895 2301.684 3849.397 5321.729 10694.811 11338.960 2434.842 3764.730 2579.366 5281.934 3124.651 2648.712 6961.611 8728.673 3661.104 3159.634 5371.906 3065.602 3946.211 12931.978 3412.565 6934.962 2686.370 10060.573 11136.317 2565.124 2705.567 8693.475 2599.283 4311.799 2704.939
13195.461 9779.049 6757.111 8657.419 3982.064 3305.045 2408.833 4030.947 13261.408 3496.112 3398.319 10789.701 5556.820 8659.410 7239.587 4122.760 4082.164 8905.707 3931.246 8070.951 4142.048 12018.624 4495.918 3727.314 9915.789 12082.492 13264.552 2101.980 10910.301 2815.915 9605.435 122.575 7527.586 5342.547 3987.590 3863.276 13830.381 8713.346 2167.291 4070.166 7216.502 2491.304 4691.671 2037.736 4356.449 3863.267 2214.240 13457.191 3942.277 13744.240 4317.334 4122.465 4119.933 3598.611 4424.591 6104.124 11634.804 4055.591 2344.178 3335.840 4355.402 8803.077 9806.824 7163.969 3799.842 12801.732 2629.578 1429.207 3018.289 3394.126 12676.043 4334.083 9404.567 3823.203 6963.993 6724.995 5138.580 5631.531 2215.080 8380.254 4346.524 11579.551 14285.815 2595.938 7484.807 3945.102 6484.599 0.000 7165.578 8639.135 4966.453 4574.174 3662.398 1406.295 10650.696 4579.454 4223.700 2815.671 9485.222 2721.120 6105.223 3664.125 3325.740 4265.997 6413.385 3173.512 9159.984 9546.522 4189.466 8685.952 3928.869 1242.424 3383.234 4295.005 12682.038 3053.539 8205.319 4781.284 3270.091 3442.069 2615.686 14557.566 3142.325 12602.783 3837.807 13045.317 11000.232 4059.092 3873.066 10130.398 3899.128 2212.050 3787.047
9185.200 14007.116 411.751 6554.962 5511.935 8447.319 5582.861 5379.797 6645.305 8588.819 10514.444 3698.103 11739.234 6448.447 618.583 10800.700 4486.066 13583.747 3374.374 7305.102 3229.726 6789.228 10545.331 5088.438 11810.120 5579.949 6526.321 5394.570 6524.477 5046.193 15323.372 7272.728 7874.898 11571.788 4727.345 4689.238 9623.361 6570.864 5660.979 4977.301 504.811 4899.016 11356.589 5635.528 4961.579 5027.592 5833.972 6788.367 4671.410 7986.166 10260.562 5068.525 5204.445 4312.025 3250.642 4008.080 5472.722 4839.074 5613.142 4441.475 5780.608 13492.778 15570.354 12187.376 4762.575 10496.947 5552.587 7485.457 4275.890 10522.446 10416.866 5725.611 7902.761 4946.049 10719.183 3022.188 5373.616 10491.832 4951.224 7965.599 5757.923 5406.047 8537.019 4914.118 329.492 4752.797 4199.760 7165.578 0.000 2216.118 4683.976 3133.017 5262.870 8096.100 3585.952 4498.985 5284.223 5381.989 7902.171 8062.209 10722.791 5171.516 4356.997 4915.586 756.358 4299.613 7010.922 7690.266 5094.621 2234.472 4820.852 6409.844 4595.231 5619.931 10455.627 7954.320 7851.285 6568.511 4253.663 4565.005 4908.583 8820.890 5376.471 10474.127 4935.498 6309.686 7025.936 5147.027 5106.207 12776.706 4773.127 5788.372 4769.410
7116.721 16167.708 2438.575 8633.070 6006.969 10392.203 7452.653 5872.401 6897.905 10547.767 12037.439 3556.813 13617.292 8518.859 1715.258 11832.645 5134.886 15704.513 5227.205 6396.068 5141.152 4593.989 12425.752 5746.925 11188.979 3524.726 6646.039 7152.286 4501.863 6946.894 15760.917 8756.293 7242.798 13436.854 5355.780 5382.448 7508.432 8642.942 7484.358 5517.183 2627.043 6660.622 12356.508 6819.808 5385.089 5642.967 6901.673 6967.060 5333.983 8806.564 12153.301 5570.848 5686.531 5260.825 5287.521 3746.937 6286.056 5412.638 7471.821 5474.180 6115.774 15611.522 16017.735 12524.401 5464.685 8759.927 6534.018 8641.255 6037.505 12032.104 8695.993 6072.036 9987.191 5594.817 10770.315 2559.291 5433.579 12545.327 6477.148 7058.964 6097.712 6220.122 9320.897 6125.287 1975.028 5393.725 3713.874 8639.135 2216.118 0.000 4886.483 5191.633 5914.379 9750.142 3560.378 4912.840 5714.627 6333.354 9977.182 8927.350 12807.361 5839.021 5435.547 5384.931 2672.547 6154.689 9056.977 9740.697 5565.531 52.866 5452.785 7674.657 5540.466 5988.542 8741.067 9901.734 6984.746 6743.150 6133.895 5492.739 6111.566 9592.045 6204.924 8783.999 5580.453 6455.097 8690.153 5662.070 5702.694 12314.564 5429.206 6866.805 5475.367
8230.701 14330.174 4360.146 9857.501 1218.194 7831.057 5199.468 1101.070 11277.454 8022.963 8113.337 8110.348 10512.595 9792.132 4319.983 7195.287 984.149 13582.616 3940.313 3589.613 4097.705 7203.797 9415.180 1248.169 7330.814 7825.513 11118.815 4622.100 5984.035 4972.095 10884.586 5086.720 3623.598 10300.828 995.665 1138.361 8864.001 9895.246 5061.227 906.677 5066.961 4325.198 7676.630 2941.529 639.752 1110.549 2767.435 11402.064 1058.613 12652.461 9208.321 881.572 938.789 1667.732 4607.008 1301.559 10153.630 911.246 5173.602 1907.354 1231.253 13480.886 11140.110 7664.108 1186.987 8089.914 2343.214 4352.727 3988.194 8081.349 7972.371 1190.129 11051.659 1143.353 6051.884 2362.490 713.230 10241.206 3543.504 4113.625 1214.123 10087.192 13206.229 2581.632 4865.429 1035.165 1602.097 4966.453 4683.976 4886.483 0.000 4656.529 1346.714 6348.355 8046.725 463.988 904.600 2151.344 11090.777 4244.023 10649.927 1321.822 2001.487 710.890 4113.471 4347.366 10387.452 10991.793 833.096 4939.337 1041.794 3739.788 1731.980 1115.397 7987.823 7419.429 3951.573 1908.837 4422.403 1677.751 2555.842 13490.725 1840.799 7933.997 1128.677 10907.636 11196.539 964.210 1116.022 8177.638 1079.665 2762.353 1199.092
11561.072 11001.529 2798.329 5231.039 4779.642 5325.005 2552.572 4689.749 8691.887 5461.913 7714.403 6412.645 8633.861 5175.030 3490.116 8596.524 3871.096 10514.000 839.207 8153.425 613.143 9531.798 7442.706 4230.338 11855.206 8675.444 8707.442 2531.106 8927.491 2003.995 13735.111 4658.659 8279.197 8472.966 4046.821 3919.799 12087.133 5272.168 2683.477 4344.071 2976.129 2087.274 9169.956 3733.374 4511.658 4258.674 4088.148 8891.151 3958.308 9248.267 7153.215 4462.120 4584.635 3273.323 150.121 4852.980 7066.328 4202.868 2594.436 3194.766 5217.088 10420.676 13961.702 10860.834 3950.351 12251.676 4021.159 5339.837 1587.243 7736.831 12149.516 5159.675 6396.990 4152.363 9885.224 4564.692 5318.891 7369.926 2580.548 8728.785 5193.410 7010.158 9798.312 3159.258 3456.332 4042.636 5228.961 4574.174 3133.017 5191.633 4656.529 0.000 4359.734 5217.869 6253.588 4239.348 4718.075 3948.065 6438.039 6292.500 7618.547 4271.727 3063.917 4412.476 2523.877 1404.625 5765.668 6350.259 4527.626 5223.106 4099.360 4227.851 3439.599 5049.221 12176.638 4832.697 8574.188 6061.552 1316.167 3452.314 3170.782 10075.703 4150.962 12156.029 4151.636 8489.095 6928.186 4495.053 4340.654 12541.725 4031.039 4034.457 3948.342
9541.657 13202.180 4884.982 9568.691 449.237 6666.359 4250.547 417.401 11904.326 6860.807 6766.770 8882.652 9219.075 9519.617 5031.737 5961.248 795.015 12411.283 3542.582 4549.084 3750.411 8544.186 8143.495 175.147 7533.949 9046.060 11788.918 3644.609 7329.695 4136.898 10063.311 3780.495 4261.562 9004.944 561.335 573.720 10181.803 9612.344 4072.782 448.578 5556.119 3453.823 6466.873 1685.971 709.955 274.442 1448.363 12050.633 598.714 13049.759 7948.733 468.358 459.486 1104.956 4271.287 2607.438 10619.204 511.129 4213.210 1169.138 919.533 12308.984 10311.603 6931.371 501.168 9216.785 1037.348 3009.827 3284.042 6734.641 9094.374 869.944 10672.275 324.531 5624.753 3523.038 1497.649 9077.564 2573.170 4962.707 898.950 10554.642 13607.420 1545.081 5503.945 526.598 2939.759 3662.398 5262.870 5914.379 1346.714 4359.734 0.000 5059.805 8795.168 1065.464 576.948 872.626 10723.248 3023.510 9507.620 94.679 1300.369 638.271 4581.215 3664.056 10104.979 10664.871 529.508 5966.730 463.596 2423.277 922.375 778.066 9104.666 6283.795 4789.540 1720.185 3760.213 907.420 1520.162 13891.911 523.000 9036.809 337.592 11572.473 11212.782 397.415 235.372 8182.206 497.506 1451.034 495.173
14578.735 8442.361 7699.055 8514.926 5387.079 2136.758 2706.547 5433.798 13844.019 2309.126 2507.850 11606.850 4164.252 8538.459 8250.665 4304.787 5439.288 7538.121 4737.252 9473.931 4911.878 13324.293 3089.748 5117.751 11118.907 13241.239 13888.656 2716.996 12258.868 3239.433 9973.797 1294.690 8907.513 3952.692 5360.920 5230.604 15209.443 8573.531 2540.466 5459.411 8075.250 3205.203 4823.438 3407.307 5747.449 5252.501 3613.954 14053.867 5310.409 14079.594 2913.115 5516.194 5518.504 4908.813 5070.064 7449.951 12130.199 5437.326 2654.331 4640.451 5761.503 7435.653 10150.196 7885.017 5171.100 14206.907 4023.634 2621.994 3821.860 2538.261 14081.035 5740.355 9077.753 5207.364 8004.816 7996.027 6541.849 4313.823 3281.389 9773.643 5752.716 12079.562 14605.779 3890.352 8423.415 5319.262 7838.628 1406.295 8096.100 9750.142 6348.355 5217.869 5059.805 0.000 11454.240 5948.115 5624.892 4203.596 9168.412 3826.832 4805.784 5057.722 4612.273 5654.254 7363.193 3849.159 8981.586 9279.237 5584.660 9794.451 5307.260 2646.962 4717.118 5701.128 14086.745 2043.483 9598.950 6169.762 3919.405 4776.284 3912.711 14868.322 4537.901 14006.664 5221.602 13672.203 11055.919 5455.376 5266.138 11229.699 5273.666 3608.937 5158.475
9842.830 16219.154 3992.492 7205.441 9004.269 11451.447 8805.832 8869.279 3340.469 11563.317 13930.411 196.570 14777.261 7073.521 3765.948 14380.192 8005.138 15994.640 6741.811 9955.047 6551.064 6974.250 13601.998 8620.021 14731.773 4530.194 3111.466 8740.634 7503.924 8257.397 18852.486 10751.538 10772.980 14632.475 8245.439 8223.142 10068.181 7190.651 8933.326 8474.539 3442.245 8261.655 14938.189 9214.705 8420.152 8547.229 9419.628 3421.255 8197.456 5358.198 13304.117 8555.740 8687.589 7886.936 6397.859 7098.896 2955.268 8343.813 8848.024 8024.730 9221.757 15913.688 19102.537 15677.802 8299.731 11979.206 9136.803 11059.206 7666.558 13946.609 11933.001 9170.121 8463.334 8473.091 14084.374 5926.433 8685.644 13198.898 8455.037 10618.760 9200.458 2896.319 5844.051 8494.602 3308.924 8274.655 7150.768 10650.696 3585.952 3560.378 8046.725 6253.588 8795.168 11454.240 0.000 7943.393 8751.452 8963.828 8416.420 11645.204 13331.733 8706.431 7942.104 8389.069 4330.874 7605.397 7466.407 8105.954 8572.103 3518.363 8341.503 9971.572 8172.109 9070.941 11983.345 10970.040 10542.760 9955.415 7535.294 8139.669 8489.823 6105.261 8944.689 12048.645 8461.406 2911.704 6191.940 8639.642 8621.978 15829.493 8299.245 9373.825 8307.559
8635.334 13877.975 4152.459 9456.079 1094.668 7388.052 4737.181 959.699 11130.450 7579.282 7783.752 8017.415 10110.284 9393.554 4186.014 7017.117 529.838 13137.716 3504.346 4050.240 3669.510 7508.082 9002.430 927.246 7681.111 7985.973 10988.416 4161.932 6337.287 4508.177 10925.980 4700.809 4044.431 9900.078 594.365 717.524 9262.438 9494.932 4601.082 625.456 4851.672 3861.487 7515.960 2543.662 479.742 796.379 2407.452 11263.574 637.842 12426.394 8790.571 660.986 773.726 1204.646 4183.575 1558.636 9946.813 562.876 4711.827 1447.945 1283.876 13036.127 11178.800 7734.771 779.731 8548.945 1981.310 4056.495 3526.577 7755.400 8431.897 1230.211 10636.245 793.205 6223.537 2467.801 1080.121 9796.204 3085.552 4566.040 1261.695 9880.902 12982.003 2138.142 4704.915 637.807 1915.521 4579.454 4498.985 4912.840 463.988 4239.348 1065.464 5948.115 7943.393 0.000 813.258 1780.023 10677.320 4071.075 10201.039 1014.246 1539.221 472.602 3883.126 3887.428 9987.846 10585.038 652.775 4965.567 665.025 3368.167 1282.920 1128.309 8447.792 6971.721 4402.372 2079.799 3963.802 1227.021 2112.611 13266.779 1503.201 8395.063 777.390 10774.891 10861.233 753.060 832.549 8482.243 683.970 2396.417 792.563
8998.097 13778.151 4927.247 9947.455 313.594 7243.085 4796.586 205.221 11924.546 7437.489 7270.524 8827.275 9779.910 9892.882 4990.258 6291.331 876.803 12988.227 3926.137 3977.026 4119.419 8086.872 8711.325 584.843 7137.276 8722.849 11788.431 4194.175 6831.987 4656.713 10113.203 4340.611 3733.431 9564.955 673.057 799.584 9642.346 9989.245 4626.003 374.306 5619.318 3978.596 6775.088 2262.359 333.525 493.991 2010.956 12060.773 760.411 13174.621 8519.210 256.589 141.447 1456.196 4642.120 2206.105 10710.753 518.946 4761.439 1600.038 520.778 12885.927 10365.856 6926.534 778.618 8639.855 1608.827 3490.730 3762.070 7234.882 8517.428 462.173 11082.176 594.184 5462.468 3232.635 921.868 9654.424 3114.865 4403.267 496.610 10645.247 13731.265 2090.019 5499.894 675.442 2497.328 4223.700 5284.223 5714.627 904.600 4718.075 576.948 5624.892 8751.452 813.258 0.000 1449.330 11129.491 3339.816 10083.919 606.961 1725.768 369.213 4645.373 4139.651 10482.685 11058.049 200.196 5767.434 619.973 2981.843 1361.564 349.463 8527.724 6859.180 4231.012 1370.840 4230.464 1327.956 2064.433 14016.073 1096.740 8460.002 589.937 11574.222 11487.413 233.897 430.592 7855.379 688.597 2017.355 783.038
10379.891 12333.936 4981.962 9062.705 1267.652 5795.938 3458.381 1277.250 11959.393 5990.561 6011.869 9067.742 8366.937 9023.260 5247.596 5510.023 1319.360 11539.195 3109.093 5412.442 3337.370 9278.689 7281.364 914.348 8153.113 9605.035 11875.628 2848.576 8116.399 3405.006 10017.832 2935.667 5069.762 8154.135 1185.840 1078.140 11014.847 9109.344 3264.827 1255.861 5606.243 2720.112 6045.741 813.511 1543.966 1048.925 629.378 12120.236 1153.027 12940.169 7082.895 1315.035 1330.096 1091.115 3838.650 3330.962 10572.058 1241.588 3416.198 941.707 1716.690 11436.876 10257.969 6996.962 1005.882 10089.057 208.458 2341.335 2662.163 5985.878 9966.502 1677.689 10108.626 1008.027 5939.261 4102.634 2370.233 8206.419 1814.506 5808.428 1700.469 10509.309 13497.452 834.489 5655.469 1142.258 3695.392 2815.671 5381.989 6333.354 2151.344 3948.065 872.626 4203.596 8963.828 1780.023 1449.330 0.000 10165.710 2681.591 8638.569 858.070 1037.023 1451.051 4653.640 3037.153 9598.457 10129.864 1385.692 6384.382 1119.037 1590.510 803.795 1605.989 9976.593 5417.785 5634.313 2403.489 3142.491 845.856 815.498 13780.517 358.220 9908.060 1022.803 11656.819 10872.926 1259.594 1064.758 8700.790 1096.115 616.408 992.944
17072.333 9051.956 7876.168 1347.569 11160.298 7599.759 7163.079 11082.346 8375.172 7559.054 11283.481 8608.145 10102.365 1458.503 8515.553 13444.016 10300.027 9268.310 7204.150 14530.203 7018.464 14535.664 9266.769 10610.999 18255.922 12676.997 8693.594 7667.776 14420.199 6941.057 19064.282 9499.187 14714.375 10074.726 10464.318 10330.259 17484.026 1334.651 7414.543 10757.935 7418.033 7566.152 13979.772 9707.063 10940.543 10655.041 10111.552 8626.572 10374.795 7000.392 8995.975 10875.814 10992.580 9673.763 6498.572 11145.700 6609.713 10620.759 7226.314 9557.386 11613.557 9220.263 19255.904 16599.625 10353.064 18312.349 10182.259 10767.558 7504.553 11351.590 18223.421 11557.553 109.444 10549.115 16012.469 10570.862 11756.930 7774.605 8439.728 15128.276 11590.460 6609.402 7343.024 9331.675 8056.119 10456.548 11483.234 9485.222 7902.171 9977.182 11090.777 6438.039 10723.248 9168.412 8416.420 10677.320 11129.491 10165.710 0.000 11986.393 7585.510 10641.028 9426.803 10838.836 7853.218 7133.062 954.780 348.156 10944.396 9978.691 10509.667 9839.742 9804.189 11449.804 18257.901 7361.764 14978.857 12442.780 7025.575 9826.035 9350.257 7512.499 10432.759 18260.660 10550.112 8555.509 3191.858 10901.238 10734.035 18865.837 10441.019 10060.959 10349.708
11954.749 12215.725 7660.623 11040.059 3026.401 5932.894 4827.955 3148.385 14613.911 6115.074 4450.793 11749.315 7501.737 11023.996 7924.257 2951.698 3792.707 11261.006 5481.192 6328.878 5719.039 11359.122 6651.589 3185.834 7295.057 12053.554 14541.280 4324.416 10022.811 5064.550 7447.639 2765.581 5503.668 7280.060 3575.710 3544.979 12619.674 11092.654 4577.556 3446.578 8274.452 4497.604 3444.988 2574.084 3636.321 3297.725 2272.603 14779.981 3593.851 15486.924 6553.234 3416.183 3323.638 3765.419 6159.673 5545.512 13176.042 3533.210 4765.701 3620.789 3122.323 11159.599 7677.897 4637.368 3462.789 11013.605 2510.329 1293.405 4763.066 4390.416 10882.482 3139.766 11913.532 3337.168 4243.074 6538.827 4016.912 8122.858 3740.205 6463.402 3129.389 13114.717 16041.857 3239.465 8337.029 3536.556 5821.421 2721.120 8062.209 8927.350 4244.023 6292.500 3023.510 3826.832 11645.204 4071.075 3339.816 2681.591 11986.393 0.000 8622.480 3093.583 3707.017 3606.805 7329.803 5071.137 11562.617 12011.743 3440.988 8979.412 3479.720 2160.859 3478.321 3176.147 10878.024 5739.738 6297.212 3043.223 5184.101 3514.387 3237.238 16322.656 2736.380 10774.448 3351.954 14321.989 13147.696 3324.349 3246.281 7426.755 3499.762 2323.623 3452.199
18705.688 3696.467 10410.321 7676.714 9899.688 2845.718 5592.472 9915.817 14785.202 2650.486 5333.522 13518.011 2748.352 7769.233 11108.583 8336.818 9671.296 2958.939 7660.926 14048.527 7703.179 17010.476 2458.965 9519.335 15917.476 16291.203 14969.884 6094.717 16195.310 5998.557 13780.582 6016.418 13602.349 2804.918 9665.495 9516.564 19295.147 7731.915 5666.433 9839.243 10486.584 6494.252 8701.108 7831.854 10126.058 9641.277 8141.820 15029.201 9595.126 14155.908 2359.442 9921.207 9958.185 9020.466 7519.891 11527.162 12912.220 9777.844 5598.723 8761.520 10325.468 2859.629 13902.976 12306.477 9477.099 18716.937 8498.463 7425.564 7028.039 5425.563 18595.969 10293.963 7476.155 9571.204 12730.296 11742.076 10998.966 517.065 7132.729 14415.490 10312.445 12881.794 14591.518 8069.007 11036.242 9629.801 11937.282 6105.223 10722.791 12807.361 10649.927 7618.547 9507.620 4805.784 13331.733 10201.039 10083.919 8638.569 7585.510 8622.480 0.000 9480.570 8685.868 10020.158 10142.422 6794.520 7922.779 7852.000 9996.948 12839.801 9637.931 7257.942 8919.015 10233.985 18607.701 3231.114 14240.363 10850.272 6783.826 8974.283 8094.889 14804.494 8995.846 18542.679 9582.899 14777.867 10474.845 9880.114 9676.977 15975.835 9588.356 8121.111 9465.919
9533.999 13174.048 4792.870 9483.443 522.243 6641.318 4198.154 470.887 11812.267 6835.499 6793.901 8794.592 9219.416 9433.842 4943.757 6026.539 711.474 12388.925 3456.438 4583.946 3663.039 8508.717 8138.226 92.259 7615.282 8985.079 11697.722 3593.738 7305.527 4074.815 10153.696 3783.019 4318.158 9005.899 483.240 483.436 10172.161 9526.921 4023.867 415.300 5463.126 3393.036 6535.048 1670.242 693.865 218.468 1453.194 11958.968 513.277 12955.196 7940.742 458.516 477.623 1012.657 4184.311 2565.695 10525.136 452.571 4161.822 1084.487 989.091 12286.692 10401.750 7024.267 408.979 9239.566 1034.681 3047.140 3211.176 6762.941 9117.673 937.410 10590.485 244.204 5719.063 3460.955 1518.909 9053.355 2518.257 5006.966 967.682 10460.593 13512.860 1490.707 5413.714 445.924 2905.472 3664.125 5171.516 5839.021 1321.822 4271.727 94.679 5057.722 8706.431 1014.246 606.961 858.070 10641.028 3093.583 9480.570 0.000 1215.540 611.032 4488.399 3590.938 10019.673 10581.181 527.758 5891.297 386.431 2428.502 837.487 840.522 9128.561 6254.425 4834.278 1801.756 3686.114 819.976 1465.431 13797.347 522.806 9062.252 258.646 11481.190 11120.573 402.163 209.081 8269.998 413.418 1452.364 402.470
10071.039 12353.644 3954.070 8268.335 1733.504 5892.510 3198.043 1658.376 10922.573 6081.333 6684.276 8049.676 8738.140 8219.305 4250.797 6479.072 1022.586 11631.317 2242.688 5564.515 2452.861 8712.481 7599.765 1184.475 8829.119 8801.831 10840.351 2624.385 7669.197 2984.755 11052.417 3447.875 5440.924 8533.899 1100.607 949.735 10682.646 8311.975 3063.425 1368.647 4571.124 2327.145 7025.564 1385.814 1604.437 1237.199 1494.802 11083.911 1013.065 11920.012 7372.110 1482.547 1585.118 336.297 2972.569 2879.537 9540.067 1249.698 3172.625 131.258 2189.549 11530.141 11293.204 8012.516 951.474 10086.906 1196.729 3214.765 2044.226 6669.517 9970.246 2134.490 9376.868 1133.194 6859.062 3399.531 2501.708 8291.650 1554.898 6049.939 2166.822 9477.074 12477.588 729.846 4636.796 1080.140 3282.895 3325.740 4356.997 5435.547 2001.487 3063.917 1300.369 4612.273 7942.104 1539.221 1725.768 1037.023 9426.803 3707.017 8685.868 1215.540 0.000 1493.691 3622.797 2419.088 8804.616 9365.731 1557.239 5485.165 1119.965 2249.975 378.102 2029.063 9986.438 5462.916 5881.766 3016.663 2507.413 400.406 710.142 12761.078 1126.635 9934.208 1136.344 10621.420 9946.474 1492.483 1312.680 9480.698 1053.379 1453.695 945.535
8929.568 13708.657 4558.072 9643.421 624.948 7189.056 4646.399 489.198 11556.752 7382.274 7403.187 8466.460 9817.894 9586.287 4626.132 6555.748 542.301 12941.076 3636.206 4096.170 3821.180 7906.138 8728.910 539.741 7448.163 8447.042 11422.047 4053.060 6694.868 4469.377 10470.382 4385.619 3950.767 9605.172 393.093 545.013 9565.880 9684.292 4489.842 196.568 5250.152 3801.015 7050.801 2252.831 111.417 402.889 2060.323 11693.620 481.369 12807.085 8526.910 190.652 303.212 1191.325 4342.656 1974.200 10341.853 249.549 4615.262 1377.261 882.249 12839.056 10722.384 7290.155 559.299 8698.123 1637.974 3647.906 3536.883 7371.610 8577.965 824.467 10793.594 452.306 5830.305 2934.752 1014.897 9601.626 2968.214 4562.391 858.409 10276.325 13363.634 1964.457 5132.663 415.748 2301.684 4265.997 4915.586 5384.931 710.890 4412.476 638.271 5654.254 8389.069 472.602 369.213 1451.051 10838.836 3606.805 10020.158 611.032 1493.691 0.000 4276.315 3910.012 10177.789 10760.464 183.833 5437.641 389.281 3034.500 1158.732 713.655 8590.773 6789.626 4393.048 1722.704 3995.830 1114.228 1938.411 13648.446 1131.468 8529.648 439.473 11207.643 11144.367 282.707 405.485 8192.913 448.706 2057.061 568.608
9362.500 13497.712 344.854 6516.738 4855.782 7789.420 4890.908 4726.383 7328.539 7936.993 9769.265 4447.666 11061.372 6420.175 966.445 10050.410 3819.506 13032.950 2664.428 6983.274 2538.768 7121.213 9866.987 4408.268 11351.295 6153.825 7228.374 4672.747 6696.032 4362.559 14626.481 6521.246 7457.212 10889.737 4059.521 4009.769 9838.510 6539.174 4955.750 4321.996 976.019 4175.905 10607.602 4884.727 4331.165 4356.489 5090.896 7480.744 3998.106 8544.938 9585.918 4419.034 4556.412 3595.797 2625.937 3599.774 6066.032 4179.823 4917.838 3711.948 5152.701 12940.195 14871.709 11512.584 4080.079 10460.929 4819.520 6732.593 3549.570 9776.115 10373.411 5096.271 7843.333 4270.109 10103.109 2771.163 4818.591 9890.524 4198.461 7631.637 5129.428 6000.384 9100.033 4164.066 1071.428 4082.018 3849.397 6413.385 756.358 2672.547 4113.471 2523.877 4581.215 7363.193 4330.874 3883.126 4645.373 4653.640 7853.218 7329.803 10142.422 4488.399 3622.797 4276.315 0.000 3597.071 7001.375 7669.114 4451.114 2702.398 4150.459 5654.406 3875.592 4987.771 10408.739 7296.649 7506.173 5962.771 3558.903 3848.282 4159.093 9384.758 4664.569 10415.147 4260.463 7010.299 7286.953 4493.390 4437.303 12269.473 4099.037 5044.584 4086.085
11983.948 10348.583 3918.370 6061.828 4112.176 4242.291 1299.593 4054.469 10096.483 4402.882 6330.748 7757.692 7473.211 6030.938 4534.249 7227.619 3410.444 9745.828 934.402 7936.970 1073.293 10217.269 6279.469 3577.408 11174.027 9679.115 10110.889 1137.242 9425.673 802.865 12471.453 3255.920 7859.716 7298.109 3517.305 3368.006 12552.978 6110.759 1361.370 3787.375 4238.387 683.109 7801.137 2605.096 4020.017 3646.882 3000.214 10295.705 3428.644 10602.277 6002.904 3900.460 3998.335 2722.035 1254.540 4914.713 8461.567 3668.157 1322.722 2541.365 4579.932 9648.163 12691.734 9695.243 3370.077 12330.246 3049.208 4023.540 380.175 6350.166 12219.075 4527.601 7074.350 3545.466 8904.441 4966.949 4909.013 6477.727 1344.883 8447.971 4558.334 8406.175 11148.471 2202.777 4629.091 3498.511 5321.729 3173.512 4299.613 6154.689 4347.366 1404.625 3664.056 3849.159 7605.397 3887.428 4139.651 3037.153 7133.062 5071.137 6794.520 3590.938 2419.088 3910.012 3597.071 0.000 6594.997 7106.484 3975.721 6193.257 3539.036 2937.646 2778.135 4427.300 12239.854 3754.420 8282.111 5373.760 113.213 2812.534 2222.362 11423.282 3320.098 12200.249 3549.937 9892.368 8077.209 3905.762 3717.620 11737.009 3472.440 2948.080 3363.779
16162.450 9704.855 7005.226 536.438 10533.934 7588.891 6781.537 10448.758 7548.461 7572.524 11213.427 7658.646 10312.993 596.394 7627.269 13199.597 9636.069 9834.608 6564.024 13771.493 6363.965 13603.216 9399.236 9983.610 17619.895 11723.780 7848.789 7241.579 13516.385 6498.254 18765.237 9185.613 14006.102 10265.324 9812.134 9683.676 16565.409 493.502 7032.339 10108.950 6520.665 7085.361 13748.043 9196.079 10276.318 10018.500 9594.378 7800.916 9723.443 6357.776 9115.762 10227.025 10348.397 9033.132 5841.162 10369.450 5746.241 9968.278 6846.094 8935.841 10978.056 9779.376 18965.192 16196.253 9711.992 17460.437 9631.202 10380.955 6955.185 11275.971 17373.927 10921.045 996.930 9912.183 15499.425 9743.661 11067.479 8055.205 7928.103 14381.205 10954.545 5741.528 6745.031 8769.428 7152.136 9807.365 10694.811 9159.984 7010.922 9056.977 10387.452 5765.668 10104.979 8981.586 7466.407 9987.846 10482.685 9598.457 954.780 11562.617 7922.779 10019.673 8804.616 10177.789 7001.375 6594.997 0.000 683.768 10293.001 9057.085 9863.341 9403.053 9182.668 10811.329 17409.605 7297.739 14235.629 11817.878 6484.122 9200.269 8786.389 6937.721 9846.590 17416.522 9912.079 7701.774 2574.256 10258.291 10099.476 18278.834 9794.886 9542.486 9709.527
16845.543 9384.995 7679.146 1156.596 11098.438 7766.686 7199.700 11017.085 8027.662 7733.575 11435.676 8296.831 10338.016 1248.940 8306.028 13538.015 10219.955 9586.924 7132.553 14403.283 6939.938 14286.259 9479.520 10548.347 18191.870 12393.103 8347.102 7687.853 14198.645 6953.285 19140.518 9564.854 14614.102 10304.804 10389.959 10258.467 17249.125 1130.605 7451.363 10685.261 7201.252 7564.120 14078.593 9695.015 10860.699 10588.158 10097.238 8278.998 10300.777 6661.586 9204.729 10803.298 10922.303 9604.330 6417.927 11008.199 6265.428 10546.350 7263.560 9496.710 11547.679 9537.514 19335.275 16635.188 10283.877 18129.833 10153.494 10806.661 7473.717 11502.022 18042.525 11491.176 439.042 10481.986 16002.910 10403.300 11665.159 8026.702 8426.111 15007.791 11524.377 6265.679 7009.893 9297.339 7834.045 10383.606 11338.960 9546.522 7690.266 9740.697 10991.793 6350.259 10664.871 9279.237 8105.954 10585.038 11058.049 10129.864 348.156 12011.743 7852.000 10581.181 9365.731 10760.464 7669.114 7106.484 683.768 0.000 10870.683 9740.839 10438.105 9858.282 9743.707 11382.451 18077.808 7511.178 14860.402 12382.230 6997.381 9763.615 9315.230 7182.705 10388.729 18083.325 10482.469 8209.780 2850.914 10831.493 10668.124 18824.580 10369.507 10046.055 10280.937
9012.286 13688.781 4735.196 9758.011 442.145 7160.314 4666.837 306.927 11736.902 7354.185 7288.698 8649.815 9745.578 9702.656 4808.725 6391.672 677.249 12909.935 3740.285 4085.513 3931.026 8036.798 8665.871 478.180 7327.773 8612.905 11603.415 4068.095 6807.141 4510.531 10286.696 4307.956 3886.929 9531.790 480.888 616.166 9652.295 9799.521 4502.522 188.871 5425.641 3836.130 6883.268 2197.080 196.958 358.148 1976.314 11874.404 569.906 12977.449 8468.487 78.012 121.052 1275.193 4453.498 2121.224 10515.757 324.769 4633.481 1434.453 720.974 12807.766 10538.651 7107.708 605.769 8720.523 1561.062 3521.427 3599.641 7255.422 8599.206 662.366 10897.774 443.249 5659.629 3106.399 1004.962 9572.848 2985.048 4531.036 696.806 10450.320 13534.185 1967.312 5313.504 488.123 2434.842 4189.466 5094.621 5565.531 833.096 4527.626 529.508 5584.660 8572.103 652.775 200.196 1385.692 10944.396 3440.988 9996.948 527.758 1557.239 183.833 4451.114 3975.721 10293.001 10870.683 0.000 5618.265 438.936 2951.649 1202.217 549.601 8610.762 6768.568 4360.010 1570.485 4064.628 1164.198 1941.422 13818.988 1047.211 8546.317 435.298 11388.879 11288.360 133.321 322.048 8053.083 507.042 1977.433 611.943
7120.932 16195.490 2464.016 8635.150 6059.719 10429.806 7491.547 5925.139 6854.929 10584.948 12084.271 3513.081 13657.338 8520.523 1742.575 11884.174 5187.008 15735.142 5265.064 6439.388 5177.406 4585.017 12465.583 5799.209 11234.529 3485.858 6601.463 7193.676 4511.056 6984.723 15813.634 8803.009 7289.520 13477.228 5408.057 5434.482 7508.688 8644.661 7524.424 5569.767 2639.176 6701.667 12408.255 6869.221 5437.872 5695.368 6952.094 6923.028 5386.125 8771.471 12192.753 5623.526 5739.263 5311.349 5319.917 3799.063 6252.904 5465.108 7511.011 5524.203 6168.638 15642.271 16070.466 12576.991 5516.712 8780.731 6584.923 8691.473 6078.145 12079.123 8717.443 6124.902 9989.277 5647.093 10821.945 2611.674 5486.126 12579.214 6522.306 7101.887 6150.577 6187.064 9284.865 6174.108 1988.053 5445.968 3764.730 8685.952 2234.472 52.866 4939.337 5223.106 5966.730 9794.451 3518.363 4965.567 5767.434 6384.382 9978.691 8979.412 12839.801 5891.297 5485.165 5437.641 2702.398 6193.257 9057.085 9740.839 5618.265 0.000 5505.078 7723.614 5591.178 6041.405 8762.736 9939.156 7028.355 6795.760 6171.804 5543.544 6160.459 9555.656 6256.615 8806.555 5632.739 6411.006 8675.230 5714.736 5755.167 12361.812 5481.405 6917.131 5527.381
9271.478 13324.899 4448.115 9328.016 723.701 6809.767 4257.467 609.172 11465.390 7002.620 7118.731 8427.126 9471.405 9273.816 4576.490 6410.430 336.395 12562.220 3306.174 4485.299 3499.760 8172.882 8373.519 294.220 7756.556 8605.849 11344.791 3663.793 6997.724 4085.174 10512.856 4049.617 4321.422 9259.899 97.768 179.684 9903.299 9369.925 4100.562 250.151 5126.408 3414.712 6920.425 1900.066 499.957 206.745 1744.274 11609.138 155.445 12646.501 8167.418 366.933 485.299 837.315 4022.507 2223.106 10202.304 140.649 4226.150 998.984 1121.959 12460.283 10762.039 7366.986 171.478 9082.469 1317.995 3396.876 3163.740 7090.399 8962.700 1063.782 10462.503 142.578 6001.639 3081.553 1402.946 9221.934 2578.953 4948.159 1097.963 10137.377 13203.861 1576.826 5056.186 68.476 2579.366 3928.869 4820.852 5452.785 1041.794 4099.360 463.596 5307.260 8341.503 665.025 619.973 1119.037 10509.667 3479.720 9637.931 386.431 1119.965 389.281 4150.459 3539.036 9863.341 10438.105 438.936 5505.078 0.000 2709.370 773.059 951.963 8975.896 6406.977 4778.308 1973.322 3627.193 731.237 1550.776 13488.541 839.773 8915.724 127.802 11128.827 10889.459 396.624 286.973 8463.175 68.649 1734.735 179.954
11962.500 10948.301 5998.209 8879.764 2740.133 4421.100 2703.923 2788.585 12767.303 4615.934 4457.704 10096.022 6798.078 8863.235 6397.362 4436.023 2888.063 10102.810 3456.795 6844.438 3690.947 10850.158 5736.477 2494.813 8960.751 11050.751 12731.876 2171.972 9705.453 2906.361 9534.336 1358.787 6344.572 6583.248 2773.885 2657.937 12600.158 8932.225 2458.217 2838.090 6534.579 2340.623 5004.223 871.485 3122.138 2631.695 975.452 12948.510 2735.319 13473.056 5553.086 2885.994 2879.593 2477.619 4087.447 4911.136 11236.967 2831.663 2644.123 2231.475 3120.348 10000.177 9755.578 6798.032 2589.942 11568.400 1396.761 1119.563 2656.185 4437.838 11443.254 3097.165 9768.829 2597.387 6242.096 5608.652 3896.157 6799.693 1647.619 7172.743 3110.671 11178.032 14024.227 1550.147 6714.365 2730.630 5281.934 1242.424 6409.844 7674.657 3739.788 4227.851 2423.277 2646.962 9971.572 3368.167 2981.843 1590.510 9839.742 2160.859 7257.942 2428.502 2249.975 3034.500 5654.406 2937.646 9403.053 9858.282 2951.649 7723.614 2709.370 0.000 2232.271 3055.220 11450.031 4103.368 6997.566 3592.401 3049.536 2289.234 1563.279 14302.240 1905.760 11372.854 2612.357 12511.774 11009.815 2820.506 2637.580 9296.555 2684.462 977.557 2577.023
9895.607 12598.211 4199.011 8646.395 1356.252 6105.298 3491.512 1284.161 11196.214 6296.429 6689.924 8273.470 8868.123 8597.242 4446.589 6312.158 753.206 11854.805 2620.317 5251.869 2829.274 8636.245 7746.266 808.411 8451.788 8846.349 11103.479 2902.928 7541.750 3312.118 10762.886 3505.771 5088.985 8660.511 771.377 617.316 10516.006 8690.004 3341.189 1015.732 4837.002 2642.315 6849.142 1363.998 1270.129 868.927 1366.071 11352.911 690.421 12241.115 7528.055 1125.712 1220.217 287.623 3349.584 2733.033 9843.939 909.749 3461.840 247.000 1814.669 11753.212 11005.920 7695.316 601.592 9818.625 996.867 3108.208 2400.525 6670.000 9700.312 1760.162 9753.998 767.403 6499.874 3377.173 2173.546 8513.289 1819.232 5720.737 1792.160 9780.404 12798.872 856.892 4863.191 743.670 3124.651 3383.234 4595.231 5540.466 1731.980 3439.599 922.375 4717.118 8172.109 1282.920 1361.564 803.795 9804.189 3478.321 8919.015 837.487 378.102 1158.732 3875.592 2778.135 9182.668 9743.707 1202.217 5591.178 773.059 2232.271 0.000 1656.033 9714.945 5689.187 5551.084 2638.878 2869.434 59.167 831.657 13082.756 798.781 9658.499 772.174 10885.182 10311.956 1127.668 941.340 9103.561 710.331 1334.960 593.615
8994.490 13930.327 5266.529 10275.721 339.131 7388.948 5026.520 372.846 12256.444 7583.982 7241.436 9143.819 9839.003 10222.567 5314.312 6118.578 1225.004 13121.478 4250.022 3814.956 4447.392 8195.272 8790.870 850.082 6809.672 8930.737 12116.288 4419.642 6899.399 4914.200 9807.476 4408.628 3484.405 9622.234 1014.210 1130.736 9645.447 10318.010 4845.941 715.742 5960.756 4231.560 6587.484 2402.905 658.388 794.767 2106.121 12390.699 1099.189 13520.627 8608.111 600.726 468.642 1778.464 4970.185 2396.041 11053.722 863.199 4988.478 1900.259 171.836 13018.999 10061.282 6608.306 1099.339 8518.381 1735.582 3453.812 4048.004 7201.712 8394.082 113.096 11401.257 900.715 5117.052 3477.058 883.672 9795.508 3350.716 4202.544 147.615 10988.119 14077.137 2322.764 5830.872 1012.084 2648.712 4295.005 5619.931 5988.542 1115.397 5049.221 778.066 5701.128 9070.941 1128.309 349.463 1605.989 11449.804 3176.147 10233.985 840.522 2029.063 713.655 4987.771 4427.300 10811.329 11382.451 549.601 6041.405 951.963 3055.220 1656.033 0.000 8402.085 7019.058 4028.518 1024.189 4521.085 1628.669 2297.939 14361.950 1248.366 8328.498 899.994 11902.605 11833.737 555.341 716.652 7512.500 1019.681 2121.064 1101.863
3147.768 22298.696 10413.714 16924.794 8728.767 15769.878 13182.747 8701.881 15097.117 15964.032 15321.368 11907.189 18182.400 16828.876 9838.944 13288.886 8971.889 21515.780 11645.748 4617.652 11737.948 5570.878 17171.741 9088.475 6490.999 8333.033 14744.296 12609.650 4519.818 12924.555 13927.801 12792.095 5388.954 17962.682 8954.151 9105.631 3582.452 16947.713 13048.800 8769.402 10959.351 12298.181 13543.116 10788.449 8483.763 8966.534 10508.149 15089.549 9028.645 17339.192 16999.323 8686.502 8651.179 9650.861 12178.790 7354.887 14902.274 8835.438 13158.624 9895.045 8329.807 21413.452 14171.823 11138.553 9139.866 157.602 10127.573 11657.123 11905.425 15264.093 60.134 8354.189 18244.943 9037.832 8969.701 7702.602 7609.661 18181.815 11531.048 4414.999 8339.823 14839.214 17813.336 10551.634 10376.768 8987.995 6961.611 12682.038 10455.627 8741.067 7987.823 12176.638 9104.666 14086.745 11983.345 8447.792 8527.724 9976.593 18257.901 10878.024 18607.701 9128.561 9986.438 8590.773 10408.739 12239.854 17409.605 18077.808 8610.762 8762.736 8975.896 11450.031 9714.945 8402.085 0.000 15378.699 4580.837 7966.353 12299.020 9662.298 10525.604 18066.898 9621.549 167.749 9026.410 14599.340 17394.139 8728.168 8930.945 7832.076 9028.064 10522.247 9150.619
15510.577 6920.214 7598.888 6876.280 6682.847 493.047 2472.754 6694.379 12964.786 649.251 3924.525 11142.012 3812.575 6920.482 8253.149 6290.113 6441.892 6168.543 4675.096 10830.226 4766.279 13921.272 2631.979 6291.430 12969.152 13423.648 13069.914 2907.580 13034.933 2956.048 11964.194 2989.100 10424.201 3662.866 6434.387 6285.529 16109.270 6936.009 2498.056 6609.442 7806.724 3344.868 6782.385 4616.616 6895.805 6412.285 4942.624 13191.886 6364.145 12863.877 2334.926 6692.541 6731.984 5796.296 4707.484 8319.857 11157.849 6546.952 2464.798 5535.371 7116.437 6067.298 12131.953 9927.643 6245.993 15487.224 5284.549 4465.389 3925.620 3991.027 15366.580 7082.830 7264.608 6341.189 9970.367 8602.819 7771.729 2829.032 3914.358 11213.032 7102.537 11114.693 13364.326 4838.149 8280.831 6398.689 8728.673 3053.539 7954.320 9901.734 7419.429 4832.697 6283.795 2043.483 10970.040 6971.721 6859.180 5417.785 7361.764 5739.738 3231.114 6254.425 5462.916 6789.626 7296.649 3754.420 7297.739 7511.178 6768.568 9939.156 6406.977 4103.368 5689.187 7019.058 15378.699 0.000 11038.182 7678.085 3769.003 5744.734 4864.012 13612.493 5775.783 15314.885 6352.771 12861.171 9565.150 6652.898 6449.282 13166.082 6357.266 4918.518 6234.821
6082.957 17935.886 7647.543 13713.295 4367.367 11395.121 9025.899 4372.293 13882.179 11590.435 10741.525 10541.430 13644.892 13639.311 7312.870 8780.365 4872.558 17100.359 7886.183 592.319 8034.696 6582.491 12665.723 4815.585 4248.694 8505.777 13628.396 8424.856 5018.729 8862.403 10342.933 8309.860 852.783 13424.123 4784.327 4937.574 6750.614 13747.464 8857.015 4540.789 8326.994 8192.966 9076.621 6423.657 4281.652 4713.827 6099.217 13951.205 4870.156 15679.524 12508.316 4437.971 4368.245 5564.737 8535.424 3916.695 13134.992 4641.449 8991.606 5768.879 3923.002 16997.724 10602.695 7220.543 4949.757 4716.618 5755.915 7106.235 7915.175 10683.781 4585.372 3958.550 14945.272 4803.258 5038.616 4837.341 3380.253 13791.434 7343.807 175.203 3937.596 13067.703 16212.686 6320.853 7911.109 4808.786 3661.104 8205.319 7851.285 6984.746 3951.573 8574.188 4789.540 9598.950 10542.760 4402.372 4231.012 5634.313 14978.857 6297.212 14240.363 4834.278 5881.766 4393.048 7506.173 8282.111 14235.629 14860.402 4360.010 7028.355 4778.308 6997.566 5551.084 4028.518 4580.837 11038.182 0.000 3431.401 8361.765 5507.266 6295.213 16490.553 5276.877 4478.722 4795.136 13439.122 14791.681 4456.067 4659.570 5478.426 4840.818 6121.242 4958.144
8911.687 14540.352 6228.983 11281.835 1284.059 8011.278 5858.823 1372.425 13181.654 8206.351 7401.736 10018.138 10221.028 11230.795 6224.775 5851.644 2247.621 13685.107 5253.867 3355.816 5456.302 8447.586 9234.389 1834.384 5813.800 9469.602 13026.452 5249.092 7047.586 5802.309 9021.067 4883.673 2752.190 10000.734 2038.164 2150.758 9577.014 11324.860 5659.411 1739.920 6930.132 5116.544 6262.602 3117.154 1649.063 1803.660 2750.745 13308.337 2122.475 14506.118 9077.469 1624.704 1492.553 2788.304 5978.670 3016.718 12025.077 1887.346 5815.183 2885.818 852.632 13582.462 9278.836 5781.352 2113.677 8093.885 2471.662 3690.915 4993.633 7350.779 7965.156 911.264 12392.145 1909.835 4151.303 4186.816 1311.452 10391.276 4214.941 3605.671 876.806 11959.063 15061.777 3204.361 6762.365 2034.890 3159.634 4781.284 6568.511 6743.150 1908.837 6061.552 1720.185 6169.762 9955.415 2079.799 1370.840 2403.489 12442.780 3043.223 10850.272 1801.756 3016.663 1722.704 5962.771 5373.760 11817.878 12382.230 1570.485 6795.760 1973.322 3592.401 2638.878 1024.189 7966.353 7678.085 3431.401 0.000 5472.219 2618.687 3181.493 15346.556 2075.002 7876.175 1911.155 12814.899 12857.822 1577.519 1721.102 6489.908 2040.280 2781.504 2114.976
12016.400 10324.009 3876.520 5950.745 4207.795 4258.680 1332.008 4148.246 10006.078 4416.335 6406.903 7689.033 7504.534 5919.410 4502.061 7331.959 3492.015 9731.912 906.754 8011.751 1023.947 10226.660 6310.318 3671.016 11275.067 9657.290 10023.573 1216.241 9450.494 813.087 12582.999 3350.804 7946.396 7331.448 3603.539 3455.070 12582.237 5999.554 1412.573 3876.060 4180.576 778.967 7905.416 2717.303 4105.489 3738.361 3111.790 10206.348 3514.579 10497.977 6031.574 3989.739 4089.268 2806.137 1166.128 4966.084 8364.828 3755.192 1359.973 2630.967 4674.789 9634.620 12803.055 9808.439 3458.860 12388.393 3157.095 4133.719 480.969 6427.504 12277.796 4622.103 6967.339 3636.373 9015.326 4992.787 4991.625 6474.042 1457.929 8527.074 4653.046 8309.709 11043.712 2308.002 4583.123 3585.566 5371.906 3270.091 4253.663 6133.895 4422.403 1316.167 3760.213 3919.405 7535.294 3963.802 4230.464 3142.491 7025.575 5184.101 6783.826 3686.114 2507.413 3995.830 3558.903 113.213 6484.122 6997.381 4064.628 6171.804 3627.193 3049.536 2869.434 4521.085 12299.020 3769.003 8361.765 5472.219 0.000 2902.675 2327.265 11318.237 3422.340 12260.695 3640.556 9805.249 7964.436 3996.639 3809.925 11843.009 3560.276 3059.575 3452.795
9837.114 12652.731 4170.124 8664.092 1334.832 6161.697 3540.223 1258.028 11171.418 6352.710 6746.937 8240.020 8927.197 8614.131 4409.874 6355.755 697.184 11910.790 2636.645 5204.480 2843.176 8577.608 7805.106 784.989 8430.003 8793.222 11076.610 2953.277 7482.584 3355.210 10785.780 3564.601 5050.954 8719.613 724.469 570.518 10457.306 8707.433 3391.792 976.635 4811.685 2687.413 6891.487 1421.612 1225.634 837.529 1417.293 11327.171 641.675 12227.589 7586.703 1088.361 1186.915 252.982 3364.345 2673.878 9826.007 866.098 3511.099 272.295 1789.263 11809.220 11029.304 7711.518 560.246 9765.653 1042.162 3159.018 2435.799 6726.794 9647.504 1734.123 9776.391 734.242 6500.827 3320.906 2128.412 8569.296 1870.333 5676.606 1766.497 9762.343 12785.372 914.396 4830.906 698.526 3065.602 3442.069 4565.005 5492.739 1677.751 3452.314 907.420 4776.284 8139.669 1227.021 1327.956 845.856 9826.035 3514.387 8974.283 819.976 400.406 1114.228 3848.282 2812.534 9200.269 9763.615 1164.198 5543.544 731.237 2289.234 59.167 1628.669 9662.298 5744.734 5507.266 2618.687 2902.675 0.000 889.266 13069.355 819.011 9606.301 738.026 10858.451 10315.714 1094.255 912.379 9089.557 667.019 1387.104 553.045
10724.339 11778.198 4499.108 8250.888 1964.160 5276.038 2732.918 1934.689 11388.164 5467.616 5977.799 8606.123 8051.600 8212.670 4857.173 5892.132 1583.701 11026.958 2332.931 6026.411 2566.378 9416.052 6922.769 1479.672 8959.510 9501.413 11326.693 2129.742 8353.198 2624.760 10664.667 2737.862 5781.666 7845.544 1572.119 1422.041 11342.778 8297.866 2562.223 1768.687 5075.774 1939.509 6448.522 729.324 2047.443 1584.220 964.934 11558.530 1500.337 12265.224 6701.530 1863.554 1926.995 996.305 3054.664 3549.557 9939.143 1691.417 2697.158 727.754 2433.348 10925.265 10899.485 7710.519 1385.743 10631.381 853.596 2584.576 1846.774 5964.162 10512.032 2386.532 9293.129 1500.734 6735.475 4109.372 2943.013 7685.485 1053.133 6467.235 2413.979 9877.713 12821.307 26.050 5203.172 1537.686 3946.211 2615.686 4908.583 6111.566 2555.842 3170.782 1520.162 3912.711 8489.823 2112.611 2064.433 815.498 9350.257 3237.238 8094.889 1465.431 710.142 1938.411 4159.093 2222.362 8786.389 9315.230 1941.422 6160.459 1550.776 1563.279 831.657 2297.939 10525.604 4864.012 6295.213 3181.493 2327.265 889.266 0.000 13103.128 1108.269 10466.160 1510.546 11106.935 10098.602 1839.718 1635.747 9516.271 1497.569 913.625 1375.033
15759.782 16563.835 9130.717 7131.008 14207.336 14000.267 12233.317 14082.352 3105.556 14032.931 17326.828 6166.544 17033.153 7035.757 9266.273 18649.902 13167.315 16758.497 10855.293 15913.820 10618.556 12856.001 16014.895 13724.856 20584.582 10147.775 3529.817 12455.672 13562.149 11759.701 23766.172 14625.490 16622.693 16956.850 13402.667 13334.070 15899.820 7076.896 12447.247 13678.915 8423.854 12090.370 19223.254 13748.774 13708.623 13690.800 14063.924 3204.185 13333.492 842.152 15716.849 13781.512 13919.447 12828.455 10218.043 12793.164 3363.955 13533.284 12293.742 12875.037 14529.053 16706.092 23999.106 20773.589 13397.239 18056.904 13904.867 15415.530 11658.422 17371.545 18015.418 14471.919 7615.223 13597.048 19478.531 11702.714 14188.517 14888.675 12654.650 16582.169 14505.494 3431.336 284.815 13098.018 8680.247 13420.363 12931.978 14557.566 8820.890 9592.045 13490.725 10075.703 13891.911 14868.322 6105.261 13266.779 14016.073 13780.517 7512.499 16322.656 14804.494 13797.347 12761.078 13648.446 9384.758 11423.282 6937.721 7182.705 13818.988 9555.656 13488.541 14302.240 13082.756 14361.950 18066.898 13612.493 16490.553 15346.556 11318.237 13069.355 13103.128 0.000 13878.901 18137.219 13589.191 3609.564 4364.536 13850.861 13774.274 21589.437 13431.691 14011.319 13401.425
10056.766 12691.413 4984.147 9310.297 909.732 6152.706 3800.706 920.318 11989.589 6347.413 6283.374 9041.898 8698.377 9267.262 5201.712 5628.934 1097.760 11894.364 3316.388 5054.463 3537.850 9010.902 7620.767 592.645 7854.792 9419.161 11892.810 3191.403 7821.843 3727.439 9966.893 3260.953 4718.024 8484.582 921.200 845.220 10694.948 9355.864 3611.673 934.931 5629.696 3041.658 6151.784 1166.901 1216.637 730.291 930.398 12144.588 909.644 13037.414 7425.734 980.402 982.486 1069.807 4049.361 3061.834 10642.716 945.402 3759.951 1006.540 1362.290 11792.012 10210.584 6897.273 764.603 9734.567 514.535 2558.320 2941.492 6253.977 9611.752 1321.938 10377.849 710.979 5742.377 3899.319 2018.591 8562.646 2141.892 5450.909 1345.485 10579.184 13595.132 1130.597 5637.442 877.469 3412.565 3142.325 5376.471 6204.924 1840.799 4150.962 523.000 4537.901 8944.689 1503.201 1096.740 358.220 10432.759 2736.380 8995.846 522.806 1126.635 1131.468 4664.569 3320.098 9846.590 10388.729 1047.211 6256.615 839.773 1905.760 798.781 1248.366 9621.549 5775.783 5276.877 2075.002 3422.340 819.011 1108.269 13878.901 0.000 9552.313 726.683 11674.826 11059.083 917.475 731.858 8435.855 833.140 930.276 752.372
3299.232 22235.098 10425.667 16929.492 8656.743 15703.060 13131.674 8632.195 15175.806 15897.412 15220.214 11974.825 18095.292 16834.491 9858.323 13167.506 8917.647 21446.468 11616.129 4533.623 11711.424 5684.197 17089.899 9023.586 6326.376 8437.275 14825.653 12556.040 4602.466 12879.473 13769.766 12712.206 5279.348 17875.336 8895.656 9047.605 3742.901 16952.956 12995.144 8706.769 10978.306 12249.577 13417.360 10719.060 8422.087 8902.762 10434.538 15170.700 8971.024 17405.880 16919.644 8622.381 8584.678 9599.034 12156.129 7325.373 14962.007 8775.158 13106.821 9841.315 8253.423 21344.085 14013.402 10989.676 9080.541 320.084 10056.832 11566.063 11863.410 15162.301 220.012 8278.764 18246.704 8975.416 8823.944 7698.306 7543.713 18114.347 11475.996 4311.274 8263.835 14898.700 17882.566 10492.202 10400.384 8929.002 6934.962 12602.783 10474.127 8783.999 7933.997 12156.029 9036.809 14006.664 12048.645 8395.063 8460.002 9908.060 18260.660 10774.448 18542.679 9062.252 9934.208 8529.648 10415.147 12200.249 17416.522 18083.325 8546.317 8806.555 8915.724 11372.854 9658.499 8328.498 167.749 15314.885 4478.722 7876.175 12260.695 9606.301 10466.160 18137.219 9552.313 0.000 8964.186 14679.047 17425.692 8662.574 8865.836 7666.197 8968.664 10449.381 9091.168
9358.601 13272.388 4560.604 9376.370 639.855 6750.549 4232.359 538.757 11579.066 6943.886 7009.702 8547.928 9385.772 9323.709 4697.066 6283.252 457.916 12502.333 3350.098 4516.158 3548.374 8284.303 8293.107 166.474 7709.565 8731.519 11460.565 3634.559 7099.702 4075.994 10394.494 3958.046 4318.223 9173.599 224.768 255.496 9992.589 9418.813 4069.634 258.275 5236.153 3401.003 6792.845 1816.860 543.259 107.916 1642.587 11723.842 264.375 12747.084 8089.741 357.492 448.919 878.956 4071.109 2335.692 10307.635 219.951 4199.375 1010.159 1065.981 12400.291 10643.304 7253.947 203.376 9134.475 1216.940 3279.597 3172.604 6980.544 9013.979 1009.020 10501.810 15.847 5908.046 3207.164 1432.472 9163.194 2550.895 4966.047 1042.469 10242.837 13304.568 1536.523 5173.304 189.006 2686.370 3837.807 4935.498 5580.453 1128.677 4151.636 337.592 5221.602 8461.406 777.390 589.937 1022.803 10550.112 3351.954 9582.899 258.646 1136.344 439.473 4260.463 3549.937 9912.079 10482.469 435.298 5632.739 127.802 2612.357 772.174 899.994 9026.410 6352.771 4795.136 1911.155 3640.556 738.026 1510.546 13589.191 726.683 8964.186 0.000 11244.399 10963.546 356.257 192.477 8399.290 162.492 1635.531 203.921
12186.819 17226.349 6693.094 7637.563 11812.885 13314.961 10967.257 11679.491 507.725 13396.049 16179.406 2898.703 16583.394 7509.840 6591.823 16947.736 10793.389 17183.501 9122.835 12849.666 8905.737 9284.183 15453.351 11397.963 17639.239 6548.407 220.102 11018.976 10079.788 10433.144 21632.265 13135.388 13682.947 16464.599 11034.718 10998.799 12306.592 7601.793 11134.401 11279.111 6050.585 10573.150 17515.069 11815.541 11246.513 11335.554 12061.366 512.170 10980.162 3060.100 15149.956 11366.786 11501.331 10606.054 8639.164 10000.266 1958.473 11143.104 11018.317 10715.849 12058.363 17113.692 21878.687 18492.635 11072.258 14579.818 11816.102 13623.334 10027.363 16206.675 14546.044 12005.071 8632.951 11255.099 16957.402 8833.739 11561.970 14736.102 10918.613 13510.894 12036.385 1968.962 3400.921 11108.307 6075.930 11060.933 10060.573 13045.317 6309.686 6455.097 10907.636 8489.095 11572.473 13672.203 2911.704 10774.891 11574.222 11656.819 8555.509 14321.989 14777.867 11481.190 10621.420 11207.643 7010.299 9892.368 7701.774 8209.780 11388.879 6411.006 11128.827 12511.774 10885.182 11902.605 14599.340 12861.171 13439.122 12814.899 9805.249 10858.451 11106.935 3609.564 11674.826 14679.047 11244.399 0.000 5598.504 11447.484 11413.460 18741.169 11081.957 12012.640 11079.095
15718.154 12229.857 7168.292 2806.468 11603.287 9908.049 8594.243 11497.583 5343.958 9916.262 13416.676 6360.999 12794.039 2725.513 7622.325 15117.138 10611.213 12397.548 7767.046 14270.031 7536.308 12960.722 11828.793 11066.715 18526.977 10706.160 5706.221 8945.776 13170.638 8202.603 20530.948 11046.700 14707.122 12733.050 10820.660 10715.116 16032.094 2749.514 8833.136 11118.182 6526.212 8677.883 15681.614 10633.062 11228.895 11071.280 11003.103 5589.043 10737.791 3811.913 11537.286 11233.120 11365.871 10107.930 7044.647 10878.517 3750.598 10970.539 8658.514 10074.477 12005.456 12344.142 20746.044 17761.527 10760.405 17422.434 10949.337 12071.473 8388.641 13471.394 17351.702 11946.756 3289.276 10967.195 16801.425 10022.118 11907.090 10584.962 9410.136 14918.331 11981.252 3769.538 4176.735 10086.726 7051.048 10825.988 11136.317 11000.232 7025.936 8690.153 11196.539 6928.186 11212.782 11055.919 6191.940 10861.233 11487.413 10872.926 3191.858 13147.696 10474.845 11120.573 9946.474 11144.367 7286.953 8077.209 2574.256 2850.914 11288.360 8675.230 10889.459 11009.815 10311.956 11833.737 17394.139 9565.150 14791.681 12857.822 7964.436 10315.714 10098.602 4364.536 11059.083 17425.692 10963.546 5598.504 0.000 11282.623 11156.019 19336.007 10823.963 10949.472 10760.908
9144.304 13572.923 4782.685 9722.839 365.419 7041.862 4569.990 233.074 11791.640 7235.929 7155.519 8719.734 9615.550 9669.090 4874.377 6273.697 686.020 12790.232 3699.015 4192.236 3894.398 8167.956 8537.702 362.939 7361.810 8729.325 11662.519 3968.951 6940.293 4424.960 10214.635 4177.374 3966.026 9401.583 462.337 575.589 9784.685 9764.913 4401.941 171.957 5468.977 3747.710 6768.179 2072.266 325.028 260.844 1845.384 11931.303 545.104 13009.052 8341.363 92.214 92.662 1227.526 4417.197 2247.496 10554.593 318.681 4535.540 1366.413 725.547 12688.018 10465.790 7045.663 548.241 8838.735 1431.845 3389.155 3528.174 7122.326 8717.040 667.270 10853.475 360.299 5630.705 3217.419 1118.889 9454.123 2887.924 4627.836 701.508 10489.356 13566.097 1865.452 5371.565 457.372 2565.124 4059.092 5147.027 5662.070 964.210 4495.053 397.415 5455.376 8639.642 753.060 233.897 1259.594 10901.238 3324.349 9880.114 402.163 1492.483 282.707 4493.390 3905.762 10258.291 10831.493 133.321 5714.736 396.624 2820.506 1127.668 555.341 8728.168 6652.898 4456.067 1577.519 3996.639 1094.255 1839.718 13850.861 917.475 8662.574 356.257 11447.484 11282.623 0.000 204.908 8067.093 464.441 1847.260 551.943
9324.924 13369.414 4734.398 9563.645 447.400 6839.481 4366.938 349.291 11751.080 7033.446 6997.706 8706.277 9428.129 9511.543 4856.322 6188.198 620.157 12588.607 3536.411 4397.143 3736.337 8309.850 8345.874 158.156 7523.764 8816.623 11629.284 3765.288 7100.042 4226.694 10231.104 3992.013 4163.010 9214.689 378.863 445.163 9963.167 9606.284 4197.901 213.322 5413.271 3548.160 6690.912 1875.322 484.968 85.077 1662.255 11894.301 441.047 12932.208 8147.616 250.294 291.398 1067.332 4258.950 2372.076 10489.128 290.069 4332.164 1184.308 879.643 12486.422 10480.717 7081.263 395.707 9041.122 1243.534 3244.295 3339.144 6966.136 8919.614 823.522 10685.201 189.365 5718.952 3295.105 1322.516 9251.907 2685.002 4831.510 856.459 10424.217 13489.612 1661.435 5339.858 355.450 2705.567 3873.066 5106.207 5702.694 1116.022 4340.654 235.372 5266.138 8621.978 832.549 430.592 1064.758 10734.035 3246.281 9676.977 209.081 1312.680 405.485 4437.303 3717.620 10099.476 10668.124 322.048 5755.167 286.973 2637.580 941.340 716.652 8930.945 6449.282 4659.570 1721.102 3809.925 912.379 1635.747 13774.274 731.858 8865.836 192.477 11413.460 11156.019 204.908 0.000 8208.065 342.803 1661.400 395.711
10575.857 19466.340 12490.372 17742.401 7764.889 13353.348 11951.850 7860.783 19160.584 13532.769 11135.968 15849.381 14454.786 17696.511 12324.848 8201.988 8729.019 18447.780 11723.154 6059.505 11932.590 11849.119 13817.279 8312.597 1375.717 13966.172 18939.326 11367.997 10301.979 12028.761 6416.485 10184.016 5076.184 14242.355 8526.503 8640.644 11166.364 17787.165 11718.038 8227.594 13198.653 11361.497 8142.636 9215.422 8107.263 8291.499 8806.907 19250.558 8611.669 20758.407 13775.893 8111.204 7981.119 9272.955 12453.142 8800.940 18229.198 8374.053 11896.965 9349.503 7341.612 18349.294 6632.578 4495.681 8602.325 7986.196 8692.359 8704.761 11362.906 11050.187 7876.265 7400.023 18809.281 8397.323 3250.597 9927.483 7464.963 15465.927 10461.559 5461.160 7365.697 18161.984 21306.470 9535.196 12909.198 8524.372 8693.475 10130.398 12776.706 12314.564 8177.638 12541.725 8182.206 11229.699 15829.493 8482.243 7855.379 8700.790 18865.837 7426.755 15975.835 8269.998 9480.698 8192.913 12269.473 11737.009 18278.834 18824.580 8053.083 12361.812 8463.175 9296.555 9103.561 7512.500 7832.076 13166.082 5478.426 6489.908 11843.009 9089.557 9516.271 21589.437 8435.855 7666.197 8399.290 18741.169 19336.007 8067.093 8208.065 0.000 8530.187 8854.313 8603.208
9305.510 13274.194 4398.571 9259.542 785.405 6762.137 4198.126 673.775 11416.852 6954.763 7103.133 8386.020 9437.408 9205.413 4535.121 6425.255 298.083 12514.610 3237.542 4544.306 3431.250 8187.161 8336.439 323.211 7825.020 8597.490 11298.109 3605.742 7021.054 4021.973 10556.936 4020.190 4387.614 9226.335 89.816 111.240 9935.888 9301.475 4042.931 318.424 5074.822 3352.621 6937.850 1866.559 560.018 259.139 1724.049 11561.483 101.895 12589.615 8128.795 435.476 553.601 768.758 3954.006 2237.496 10147.945 199.424 4167.281 933.331 1189.382 12412.722 10805.710 7415.986 111.928 9134.059 1298.151 3391.338 3097.466 7075.637 9014.576 1131.300 10393.854 173.846 6061.353 3074.018 1463.583 9173.942 2520.900 5010.415 1165.424 10083.093 13147.038 1523.605 5010.816 46.172 2599.283 3899.128 4773.127 5429.206 1079.665 4031.039 497.506 5273.666 8299.245 683.970 688.597 1096.115 10441.019 3499.762 9588.356 413.418 1053.379 448.706 4099.037 3472.440 9794.886 10369.507 507.042 5481.405 68.649 2684.462 710.331 1019.681 9028.064 6357.266 4840.818 2040.280 3560.276 667.019 1497.569 13431.691 833.140 8968.664 162.492 11081.957 10823.963 464.441 342.803 8530.187 0.000 1712.522 122.569
10985.819 11817.428 5381.393 9009.692 1793.901 5275.401 3136.144 1829.758 12297.606 5470.656 5398.961 9485.872 7768.291 8978.974 5702.491 5026.707 1930.182 11001.054 3204.467 5933.481 3441.170 9893.027 6694.086 1517.451 8394.325 10179.960 12232.258 2534.849 8732.433 3174.544 9755.028 2330.721 5511.819 7554.384 1802.247 1692.598 11622.890 9058.757 2919.097 1860.713 5973.697 2509.680 5575.563 361.732 2145.461 1654.214 53.697 12466.488 1768.338 13174.059 6502.278 1910.529 1909.567 1607.623 3910.434 3946.564 10852.701 1855.115 3086.637 1397.311 2205.107 10898.552 9988.932 6826.869 1621.560 10637.710 419.204 1775.149 2595.565 5374.077 10513.810 2175.215 9998.360 1620.471 5957.932 4694.732 2937.119 7677.952 1621.235 6296.242 2192.636 10791.298 13729.806 916.219 6075.658 1758.664 4311.799 2212.050 5788.372 6866.805 2762.353 4034.457 1451.034 3608.937 9373.825 2396.417 2017.355 616.408 10060.959 2323.623 8121.111 1452.364 1453.695 2057.061 5044.584 2948.080 9542.486 10046.055 1977.433 6917.131 1734.735 977.557 1334.960 2121.064 10522.247 4918.518 6121.242 2781.504 3059.575 1387.104 913.625 14011.319 930.276 10449.381 1635.531 12012.640 10949.472 1847.260 1661.400 8854.313 1712.522 0.000 1608.618
9421.606 13151.653 4390.415 9173.889 842.459 6640.044 4077.816 742.633 11409.815 6832.620 7004.169 8396.906 9321.760 9120.927 4546.512 6367.673 346.264 12392.499 3148.397 4664.775 3345.645 8286.027 8218.826 323.820 7911.454 8667.514 11295.689 3484.640 7128.914 3905.658 10555.118 3908.344 4498.083 9110.992 203.548 93.652 10050.999 9216.225 3921.623 423.794 5060.949 3234.841 6884.430 1752.220 679.569 311.738 1622.233 11556.646 160.577 12559.281 8010.292 537.013 643.914 676.651 3868.422 2338.048 10125.346 319.144 4046.659 822.556 1268.833 12290.622 10802.922 7426.513 12.943 9256.628 1197.688 3305.306 2987.778 6977.593 9137.140 1211.603 10301.771 206.425 6103.013 3146.960 1582.812 9051.760 2399.780 5128.045 1245.217 10060.717 13116.870 1401.071 5012.743 164.526 2704.939 3787.047 4769.410 5475.367 1199.092 3948.342 495.173 5158.475 8307.559 792.563 783.038 992.944 10349.708 3452.199 9465.919 402.470 945.535 568.608 4086.085 3363.779 9709.527 10280.937 611.943 5527.381 179.954 2577.023 593.615 1101.863 9150.619 6234.821 4958.144 2114.976 3452.795 553.045 1375.033 13401.425 752.372 9091.168 203.921 11079.095 10760.908 551.943 395.711 8603.208 122.569 1608.618 0.000
NODE_COORD_SECTION
1 -5405.118560 8004.859443
2 9136.219517 -8930.730125
3 2425.136267 3052.144185
4 8518.628665 696.580118
5 -1422.625555 -365.818331
6 3994.140307 -4886.185237
7 2922.042657 -2132.059045
8 -1348.839020 -251.602520
9 7288.349913 8113.877006
10 4151.698366 -5001.622041
11 915.321850 -6944.829419
12 4241.927228 6735.466224
13 3990.248174 -8213.026040
14 8454.376777 812.820636
15 1974.375026 3622.945947
16 -2090.589802 -6306.376300
17 -571.337054 231.950798
18 8009.201306 -9005.695720
19 2523.811288 65.257028
20 -4642.604555 2250.426096
21 2710.283072 212.917588
22 -2501.510205 7958.575271
23 3813.199356 -7031.831639
24 -875.138700 -309.888103
25 -8512.327728 -655.700330
26 243.624468 8513.490459
27 6896.243639 8321.387649
28 2339.863639 -1950.487141
29 -3172.777028 6545.121494
30 2995.762749 -1588.403271
31 -7456.921917 -8152.210024
32 1007.281702 -3664.549793
33 -4952.916075 1095.545483
34 3826.391193 -8063.464220
35 -736.348354 55.849210
36 -601.683020 -19.014143
37 -5513.980358 8667.920227
38 8556.980568 742.428627
39 2686.351258 -2220.301621
40 -1029.552725 -3.300484
41 3063.611623 3359.920748
42 2323.345795 -1453.669085
43 -2460.621086 -6744.643308
44 183.556151 -1668.209181
45 -1212.013350 222.124369
46 -923.417792 -180.976671
47 -224.666565 -1684.337740
48 7239.664216 8361.808243
49 -646.783690 47.342116
50 9661.882399 7101.950690
51 3882.554907 -6736.249832
52 -1147.356058 -11.369087
53 -1263.098853 -86.410334
54 55.583029 -67.174007
55 3231.165582 257.709192
56 -1228.705959 2146.399971
57 7268.669356 6237.066888
58 -892.782910 54.156879
59 2866.534819 -2165.663694
60 179.226341 -306.863991
61 -1880.176809 -255.888755
62 7929.290386 -8941.269269
63 -7550.961622 -8397.062619
64 -5987.794103 -5242.801311
65 -623.256257 -98.494887
66 -7631.589844 5932.077008
67 -360.162615 -1280.165594
68 -450.236271 -3411.887209
69 2281.030928 -827.065410
70 822.728724 -6937.809313
71 -7578.296281 5810.610422
72 -1824.730549 -236.496721
73 9681.491696 2.737291
74 -817.771230 -168.892599
75 -5973.047556 -3041.441696
76 -429.276519 3030.270453
77 -2017.086879 632.356303
78 5727.420832 -6564.531821
79 1418.776648 -1377.319286
80 -5276.112417 2037.148155
81 -1857.313180 -247.896675
82 7206.356744 6211.384798
83 10109.355891 7434.977317
84 461.691927 -1001.820798
85 2554.628322 3768.704927
86 -728.298483 12.624453
87 -1514.449934 2441.726574
88 972.570789 -3546.992200
89 2565.093588 3439.378806
90 1087.902082 5091.372475
91 -1337.687144 849.411203
92 3296.411371 392.910548
93 -981.207067 -449.265612
94 1873.147804 -4627.097696
95 4331.131314 6560.302407
96 -937.100481 615.285062
97 -1400.544428 -53.002289
98 -369.846526 -1071.933125
99 9727.868487 101.869684
100 -1743.120785 -3375.201767
101 6239.784729 -6634.095598
102 -901.396058 -398.332056
103 309.135408 -288.096844
104 -1110.716180 175.728589
105 2324.712882 2722.235755
106 2659.845896 -859.189832
107 9049.488834 773.737239
108 9646.492506 440.382404
109 -1216.259413 25.212476
110 1113.145618 5137.822274
111 -780.956539 -31.149145
112 248.653415 -2537.259064
113 -66.917648 -327.405940
114 -1717.977295 -199.154422
115 -7626.425923 5774.559749
116 3904.131337 -4401.423700
117 -5139.291379 1927.713132
118 -2700.985952 -486.655546
119 2761.687473 -809.738578
120 -90.999588 -273.361926
121 441.096969 -985.870091
122 10349.166526 7588.633815
123 -660.250766 -862.202041
124 -7680.431589 5615.741594
125 -819.162338 -153.106993
126 6781.018097 8133.856654
127 9589.456942 3290.725575
128 -1171.493638 -100.367842
129 -1001.495033 -214.769542
130 -9028.116742 -1931.067015
131 -712.308715 -30.689983
132 -178.023750 -1657.733861
133 -619.652057 -110.925830
DEMAND_SECTION
1 0
2 27
3 77
4 63
5 66
6 23
7 35
8 85
9 69
10 26
11 97
12 95
13 33
14 56
15 95
16 84
17 46
18 4
19 52
20 25
21 80
22 50
23 4
24 57
25 87
26 10
27 82
28 36
29 19
30 37
31 70
32 30
33 28
34 42
35 50
36 65
37 39
38 58
39 23
40 68
41 59
42 25
43 86
44 54
45 8
46 59
47 61
48 75
49 48
50 75
51 40
52 70
53 98
54 97
55 70
56 16
57 92
58 41
59 29
60 75
61 98
62 21
63 82
64 61
65 60
66 39
67 77
68 57
69 39
70 60
71 42
72 100
73 94
74 100
75 53
76 8
77 46
78 29
79 46
80 28
81 67
82 65
83 68
84 91
85 60
86 22
87 34
88 10
89 54
90 63
91 49
92 52
93 66
94 38
95 62
96 5
97 55
98 77
99 58
100 52
101 32
102 59
103 95
104 35
105 79
106 49
107 61
108 67
109 19
110 92
111 96
112 71
113 62
114 56
115 33
116 6
117 6
118 62
119 13
120 94
121 63
122 98
123 99
124 36
125 98
126 66
127 69
128 53
129 69
130 80
131 97
132 100
133 83
DEPOT_SECTION
1
-1
EOF
