NAME : mamut-berlin-n145-k11-hyb
COMMENT : Mamut2026 euclidean metric; city berlin; No of trucks: 11 (lower bound, fleet not fixed); 3-decimal seconds/meters; ENU ref in mamut-berlin-n145-k11-hyb.vrp.json
TYPE : CVRP
DIMENSION : 146
EDGE_WEIGHT_TYPE : EXPLICIT
EDGE_WEIGHT_FORMAT : FULL_MATRIX
CAPACITY : 14
EDGE_WEIGHT_SECTION
0.000 3462.695 9210.874 2266.101 10300.366 37353.540 8265.237 12674.980 9368.492 13703.423 19335.759 12610.065 11618.947 6101.445 8321.106 7360.916 7108.188 10882.496 6122.112 11679.902 26212.860 4860.520 3196.612 5337.219 2961.763 9829.746 7648.899 9251.795 13534.172 7632.293 5599.049 9333.877 3108.059 10459.795 5103.611 9039.571 9404.383 3071.681 2854.120 27210.985 9156.183 9286.744 3251.556 4075.319 23640.813 6214.775 2137.076 7340.797 17173.282 10149.886 5546.498 33804.483 5192.113 10682.851 4852.836 1844.597 5686.193 5382.984 2132.998 9783.146 26076.141 10820.254 2409.691 4124.765 5624.376 5371.316 23642.578 9542.653 8600.899 4521.791 9108.777 14798.817 3594.039 15292.511 7836.049 21502.665 30680.578 15697.193 13580.306 24874.552 10019.525 26708.951 24342.831 7214.877 20962.448 7774.762 22116.073 25054.556 11148.883 25657.431 8481.073 9232.984 19974.887 13303.730 27549.907 21220.539 29017.465 28335.547 2404.153 15310.720 7261.578 34180.837 22634.186 37027.439 19387.558 11090.497 24346.427 27205.234 20052.637 14443.589 24469.602 5405.815 11471.821 7204.226 9896.254 21016.881 22112.846 10379.327 7380.753 27776.539 9304.327 4250.554 1812.971 9491.179 13877.068 3946.062 21485.911 2595.910 42137.682 7199.921 25494.965 7063.263 17084.711 18836.507 21864.660 15196.318 18389.335 8391.354 9593.880 4710.817 3872.577 20436.143 16614.691 13806.216 12065.340 19210.136
3462.695 0.000 12492.563 1547.618 12880.276 39293.286 11520.043 15295.768 12537.861 13305.750 22665.756 15059.609 15058.481 9562.390 11491.221 10823.319 9200.376 12647.417 7302.462 15027.539 26882.092 7213.169 5467.114 8367.158 5596.486 13005.599 10946.208 12491.808 13102.176 10996.854 6538.166 12117.945 6036.368 12741.609 6398.314 12501.878 12772.831 6074.578 1334.698 27990.836 12395.829 12741.375 4845.423 6632.655 20401.846 7272.804 5492.548 9560.382 19118.128 13018.913 8921.758 35511.759 8585.823 13893.053 8312.092 4963.445 7340.327 8510.621 5478.045 12210.438 26724.685 14238.477 2843.654 6984.822 5464.352 8623.088 23167.920 10427.112 11719.937 6071.689 12571.420 18215.922 6027.844 17903.393 10060.770 24956.809 32859.454 18411.996 15502.545 28020.531 13471.570 26914.907 25724.384 9265.693 23177.488 7876.705 25418.465 28241.271 13369.111 27110.282 11692.908 11398.035 21760.579 13052.750 30323.882 24587.791 32251.724 31795.056 5819.502 18108.971 7731.772 35410.941 19197.228 40306.255 21247.711 13973.163 25254.079 30612.766 23514.431 15969.861 27682.752 8811.497 14629.989 9062.980 13215.388 22218.728 23694.637 12885.298 10397.163 30814.388 5855.392 2495.907 5070.887 11399.158 13018.945 4043.487 24663.121 868.188 45578.136 9969.990 26073.858 10444.368 15377.752 21512.440 23498.964 14927.226 15124.824 9696.107 12035.200 4515.459 2518.495 17090.340 20028.156 16360.196 15265.475 22672.641
9210.874 12492.563 0.000 11000.746 11184.457 36868.854 990.242 5659.898 973.330 15421.271 13493.783 6303.078 3516.779 4408.791 1316.354 3730.059 6107.002 14097.975 8433.090 2625.747 29857.864 6237.694 7455.899 4293.726 7083.286 1095.400 1563.052 385.192 15377.978 1759.808 8909.464 3320.850 6521.815 5840.425 8303.471 3295.268 1013.527 6453.080 11449.193 30529.379 393.508 2767.383 10740.710 6330.339 31187.117 8683.574 7843.852 10912.596 11526.863 9855.523 5942.998 27550.072 4106.668 1590.849 4856.274 8609.097 7473.580 4044.880 7880.866 5035.363 29778.308 5788.777 10061.551 5713.603 10700.644 3869.651 29772.060 15062.834 1465.478 7984.079 3405.700 6053.852 6906.707 14434.829 5614.319 13840.234 29704.170 14287.435 8871.018 19938.501 4557.154 31355.026 26319.724 6216.770 20687.977 14937.027 16265.502 19844.231 6373.853 20494.406 7191.854 11984.559 14406.925 14788.812 24394.659 14838.097 19806.819 19867.787 6830.732 13594.407 10018.517 29141.828 31610.676 30725.873 13670.996 10295.811 27553.971 18244.511 11859.282 10756.653 15264.242 5709.433 2485.547 6769.883 808.752 23790.155 23734.966 4889.986 2683.799 23287.211 18293.939 13372.609 7446.974 12839.471 21268.930 12357.505 12303.678 11648.478 33327.379 9127.285 29395.793 2338.953 25282.613 17023.078 23360.242 16230.531 26170.087 8388.566 4931.096 13049.390 12951.051 28448.540 7784.512 13562.221 8910.002 11259.147
2266.101 1547.618 11000.746 0.000 12351.259 39165.850 10022.190 13757.677 11017.064 12576.001 21599.236 13536.978 13665.504 8287.187 9972.780 9529.375 7702.514 12544.349 5954.162 13557.930 27337.626 5675.277 3922.293 6837.009 4052.534 11485.207 9464.541 10987.264 12385.150 9546.776 5231.479 10570.573 4510.845 11234.245 5001.215 11182.540 11319.532 4558.629 592.300 28400.903 10891.403 11384.140 4620.534 5085.171 21375.100 5954.544 4401.722 9199.237 17682.830 12314.552 7809.148 34148.563 7167.953 12378.417 6989.406 4025.671 5891.919 6994.653 4396.334 10684.756 27188.723 13059.969 1383.172 5445.148 4481.946 7136.621 24067.413 10702.599 10192.158 4615.601 11258.872 16790.533 4481.085 17373.021 8550.609 23690.796 32598.408 17819.035 14062.706 27128.759 12222.778 27562.265 25857.959 7774.130 22884.304 8433.474 24381.582 27314.659 11872.037 25803.176 10738.053 11084.361 20363.929 12260.723 29705.393 23476.707 30731.511 30437.498 4454.399 17462.448 6597.963 34174.479 20633.173 39293.430 19833.901 13262.750 25602.705 29170.090 22175.380 14618.465 26159.190 7660.498 13104.039 7600.090 11736.115 22427.495 23728.010 11353.492 8859.566 30009.694 7297.351 3530.973 3641.066 11214.941 14013.034 4409.733 23133.905 874.994 44169.845 9311.950 26566.053 9007.001 16660.500 20948.763 23506.278 14156.203 16125.869 8356.234 10507.719 5052.624 3363.890 18186.700 18597.263 15859.558 14323.484 21359.316
10300.366 12880.276 11184.457 12351.259 0.000 27276.699 10988.040 16827.455 12080.645 23293.848 11716.493 17383.811 10266.381 7445.137 11576.093 7541.926 14476.488 3545.496 15135.970 11828.308 18679.220 12722.677 12117.576 11169.760 11516.830 12279.571 10435.686 11533.727 23160.833 9816.227 14973.825 13938.047 10990.956 16302.100 14287.064 8089.421 10406.739 10811.990 12924.044 19346.731 11490.972 8709.720 8073.202 12009.715 33045.475 15331.439 8408.004 3469.547 22642.259 1562.517 6278.650 38693.516 9164.018 12511.711 8190.106 8461.973 14272.549 10792.463 8390.577 15416.736 18603.202 6781.496 12697.476 11364.541 15672.060 10185.430 19488.635 6364.009 12003.532 13643.627 8011.400 12832.158 12043.342 5028.437 14658.554 15732.970 20453.163 5546.645 19661.074 15760.267 7402.053 20323.168 15315.660 14625.637 10767.688 8405.087 14040.974 16126.361 16974.795 31635.387 3996.067 2205.147 25549.855 22789.912 17452.822 13833.114 27275.188 23190.945 9443.521 5319.848 16707.979 40302.542 29836.109 28382.839 24823.542 1954.201 16370.496 23574.095 15458.613 21292.950 23300.566 6605.834 13354.403 14970.835 11169.764 12615.705 12803.121 15583.655 11958.876 18223.168 17628.845 11555.011 10197.188 3033.309 13079.512 9434.375 20956.290 12220.053 37144.187 3142.839 18240.294 9496.165 17824.410 8632.170 12467.234 24599.610 27771.975 16705.263 15247.993 9514.405 11156.360 29522.353 14265.866 3509.658 4693.896 14371.906
37353.540 39293.286 36868.854 39165.850 27276.699 0.000 37090.715 42210.744 37841.474 50561.844 26006.186 43030.969 34241.551 34299.567 37732.795 33935.161 41501.771 26652.065 42396.814 36126.730 17310.412 39931.142 39393.949 38196.856 38793.471 37843.795 36736.629 37254.010 50432.228 36081.055 42250.441 40119.188 38261.068 42644.166 41562.131 33620.040 35878.294 38081.455 39689.088 16012.071 37251.873 34105.360 34562.651 39253.096 57688.856 42597.484 35623.538 30017.053 48001.536 27946.186 33415.039 61983.418 36167.252 37647.277 35292.337 35570.292 41509.263 37789.458 35602.139 41788.593 17523.878 31092.464 39758.545 38577.917 42884.693 37160.271 26129.755 29171.744 38107.050 40919.585 33502.163 34756.499 39313.889 22709.647 41530.741 30134.747 7211.146 22676.558 45728.594 20845.002 32311.951 20493.954 14473.279 41650.513 16526.523 32111.200 24613.896 21528.424 43224.460 56574.846 30507.375 28123.081 50674.747 50047.519 14526.391 26400.537 43233.104 34095.209 36719.264 23325.834 43983.284 64842.194 51327.655 24527.711 49916.573 27178.257 16895.886 37499.193 32210.138 47621.437 41501.621 33731.886 38233.719 42053.221 36480.507 18093.601 15843.696 41743.848 38522.905 18178.043 42503.309 37294.341 37456.767 27951.989 31117.093 35305.974 40863.368 38822.575 42820.963 30403.254 18294.665 35966.205 34362.029 19846.999 15952.974 51835.128 52705.954 43829.662 41651.785 35004.547 37029.205 53872.240 34944.644 23944.746 27969.161 31499.819
8265.237 11520.043 990.242 10022.190 10988.040 37090.715 0.000 5888.350 1262.482 14741.972 14173.134 6396.289 4340.218 3858.122 642.387 3446.114 5316.573 13738.594 7539.060 3611.799 29610.303 5277.820 6466.521 3304.883 6093.531 1659.308 695.721 988.921 14687.959 1186.786 7983.669 3045.752 5535.637 5555.920 7362.476 3490.191 1682.937 5469.804 10465.770 30319.976 894.196 3085.848 9923.966 5345.377 30224.987 7790.827 6979.717 10422.487 11654.970 9741.990 5383.884 27900.383 3238.196 2431.044 4081.881 7744.794 6564.192 3055.506 7017.925 4698.130 29524.229 6130.363 9072.691 4723.548 9749.397 2903.200 29253.271 14497.794 1034.854 7023.086 3611.271 7023.237 5918.733 14527.720 4917.674 14730.594 29952.703 14441.874 8771.161 20564.502 4872.557 31004.985 26232.886 5436.341 20801.429 14219.424 16969.728 20499.825 6159.398 20649.676 7037.710 11615.095 14566.871 14118.847 24851.643 15592.855 20756.715 20838.697 5901.775 13771.192 9154.234 29322.320 30624.967 31527.493 13845.307 10263.353 27342.255 19234.752 12795.762 10561.071 16204.616 5119.315 3271.880 5980.233 1779.317 23601.194 23668.709 4697.371 1826.519 23882.623 17312.442 12451.789 6487.867 12435.412 20577.241 11502.694 13225.202 10679.509 34316.465 8715.325 29118.583 1652.803 24512.252 17267.851 23304.711 15620.312 25195.945 7661.356 4564.525 12207.767 12035.816 27468.967 8766.065 13565.416 9130.800 12168.466
12674.980 15295.768 5659.898 13757.677 16827.455 42210.744 5888.350 0.000 4746.825 12853.463 17654.010 1017.738 7999.795 9712.464 5364.792 9306.651 6278.297 19625.900 8813.667 6142.247 35483.332 8082.830 9841.203 7443.741 9816.743 4574.061 6515.046 5299.377 12893.178 7075.091 9589.659 3398.974 9567.445 2973.563 9328.189 8913.195 6535.312 9606.755 14018.595 36173.800 5338.328 8338.030 15093.806 8714.399 31210.919 8992.741 12068.455 16261.846 5887.732 15514.929 11210.064 22026.704 8642.449 4581.466 9658.571 12787.577 8275.615 7537.233 12110.095 3167.078 35399.783 11195.518 12479.587 8550.424 11490.806 7844.864 35021.610 20240.603 4934.385 9411.494 9015.613 8584.846 9296.999 20006.677 5373.338 16518.761 35012.498 19798.958 3866.583 24178.404 10043.693 36890.975 31975.541 6260.420 26220.720 19648.491 20208.401 23947.896 2735.544 14835.363 12842.534 17501.958 8748.894 12200.569 29213.804 18542.696 18123.769 20951.800 10683.116 19084.184 9743.094 23483.092 33425.189 33753.861 8011.335 15947.385 33197.060 18292.759 14100.001 5936.354 13626.424 10924.043 3989.719 6653.463 5835.174 29440.677 29386.465 2444.549 5568.292 27610.714 20578.897 16879.633 10907.526 18314.328 26024.465 16436.993 10587.386 14580.094 33246.357 14596.822 35001.273 7500.422 29658.021 22393.507 29008.614 13129.119 26615.801 7227.235 3318.587 17191.740 16531.167 29028.655 9589.332 19195.661 14393.754 13910.494
9368.492 12537.861 973.330 11017.064 12080.645 37841.474 1262.482 4746.825 0.000 14631.415 14329.969 5350.524 4289.557 5097.173 1049.435 4568.776 5474.128 14922.402 7930.577 3043.873 30740.084 5924.811 7312.192 4189.586 7009.061 468.278 1956.725 588.338 14596.837 2399.849 8471.001 2391.353 6506.255 4890.213 7908.800 4263.032 1971.477 6463.285 11430.296 31426.998 603.506 3740.658 11155.983 6143.640 30812.741 8176.705 8188.287 11654.861 10589.596 10778.269 6629.328 26709.291 4462.081 1381.730 5337.770 8951.307 7010.530 4028.257 8227.268 4104.724 30657.753 6758.043 9987.958 5609.926 10321.312 4004.857 30497.995 15750.609 873.322 7655.454 4374.806 6491.605 6745.012 15402.203 4889.554 14444.576 30675.606 15259.545 7897.855 20801.879 5529.539 32188.682 27256.279 5570.309 21658.098 15478.353 17079.869 20689.494 5408.869 19569.050 8097.590 12802.155 13480.938 13992.720 25329.528 15612.047 19714.747 20246.297 7045.470 14567.317 9453.554 28226.354 31547.838 31438.700 12749.318 11240.327 28450.309 18439.387 12370.592 9785.941 15144.999 6371.050 2103.553 6127.294 1522.166 24694.354 24676.372 3925.686 2283.240 24165.703 18276.204 13588.784 7568.080 13638.012 21838.372 12710.226 12133.335 11712.817 33556.294 9917.917 30265.016 2908.125 25757.371 17995.369 24304.164 15390.418 25851.269 7664.017 4011.647 13423.613 13181.489 28158.877 8138.785 14516.061 9883.327 11834.762
13703.423 13305.750 15421.271 12576.001 23293.848 50561.844 14741.972 12853.463 14631.415 0.000 28906.086 11896.524 18914.552 16477.050 14169.717 17127.903 9504.521 24507.490 8166.393 17536.167 39860.040 10679.647 11203.013 12604.187 11789.728 14903.408 14792.551 15100.624 230.768 15379.078 8342.901 12356.074 12303.041 10316.333 9013.150 18016.721 16374.949 12482.222 12261.790 40887.882 15050.070 17749.799 16901.873 11317.832 19837.286 7964.380 15085.995 20851.728 11856.594 22651.731 17181.572 25099.924 14575.989 15619.843 15349.525 15291.452 9077.204 13029.288 15113.122 10800.391 39716.697 20674.617 11499.529 12015.754 8146.588 13653.039 36463.006 23177.719 13955.848 9660.067 18138.374 20777.629 11250.523 27945.702 9825.881 28882.371 43646.321 28121.822 9710.099 35302.949 19439.691 40136.588 37998.696 9369.154 34037.021 21008.685 31686.407 35241.368 10222.657 16477.239 20213.318 22697.642 13113.262 656.115 39339.823 30243.015 30258.263 33797.239 13873.236 27567.588 6598.654 23695.394 24898.590 46024.930 13023.199 23470.847 38041.089 31093.121 26614.147 8257.680 25999.207 16872.817 15652.904 8863.557 16138.037 34714.831 35702.524 11321.883 12953.654 38602.245 15195.907 15801.130 13196.449 23087.036 26285.072 16984.835 23099.937 13279.561 45892.350 20188.974 39110.423 15269.095 28096.458 31193.314 35430.129 1656.444 16216.984 7100.571 10819.914 17620.967 15779.396 18626.822 22124.214 26632.470 23295.280 26243.366
19335.759 22665.756 13493.783 21599.236 11716.493 26006.186 14173.134 17654.010 14329.969 28906.086 0.000 18621.074 10051.941 13534.018 14736.625 12446.914 19474.610 14828.530 21465.424 11675.655 25241.736 18938.475 19430.413 16784.137 18854.287 14118.504 14190.699 13827.420 28856.745 13662.318 21740.047 16694.157 18182.372 19076.996 21043.361 11119.164 12531.192 18027.094 22182.155 25311.334 13871.952 11259.369 18500.725 18643.938 42970.687 21715.504 17211.244 14791.729 22975.614 10619.141 13790.093 35987.862 15186.506 13548.973 14891.679 17702.349 20458.465 16376.918 17220.519 18377.537 25262.232 8682.029 21306.112 17875.609 23222.618 15834.768 29153.174 18043.605 14957.025 20544.526 11006.151 9257.867 19039.328 9222.669 19081.689 5075.747 18917.917 8340.017 21493.107 6530.712 9763.764 28031.299 19967.890 19599.356 12719.292 20054.831 2835.326 6363.254 19460.656 31009.311 11027.256 13920.781 25374.834 28277.403 11929.650 2117.599 18668.915 12092.091 17345.678 7823.132 23149.165 39019.114 41081.173 17725.244 24628.898 9829.418 22726.289 13646.737 6431.189 23548.606 15946.838 13947.654 13810.002 20135.252 12808.408 19248.311 17528.404 18048.837 15983.382 9957.033 28207.142 22143.975 18250.252 14720.571 24600.265 20197.233 14919.215 21839.248 25711.295 13346.217 25249.014 13903.110 29394.316 8394.399 17079.456 29717.981 37724.941 21834.490 18307.509 20508.927 21692.906 39751.843 9058.294 10072.919 7587.484 5570.293
12610.065 15059.609 6303.078 13536.978 17383.811 43030.969 6396.289 1017.738 5350.524 11896.524 18621.074 0.000 8877.638 10135.528 5822.081 9842.109 5904.004 20074.555 8320.327 7046.603 35995.539 7881.299 9653.587 7518.088 9692.969 5249.039 6974.966 5927.369 11942.741 7574.065 9116.633 3600.616 9510.551 2396.366 8922.914 9593.238 7233.138 9568.350 13759.049 36714.555 5953.372 9039.965 15182.090 8575.162 30447.189 8480.291 12173.886 16634.524 5258.682 16116.119 11597.298 21679.775 8910.203 5386.052 9951.002 12869.317 7879.114 7666.442 12215.716 2854.552 35907.038 11965.847 12222.331 8501.206 10980.864 8042.573 35301.391 20526.954 5390.738 9072.045 9700.828 9588.749 9132.043 20725.200 5014.776 17535.911 35840.202 20548.451 2874.654 25148.993 10784.792 37320.468 32602.082 5863.411 26963.231 19790.418 21193.401 24927.538 1965.400 14253.804 13422.018 17950.833 8173.916 11245.790 30131.044 19537.279 18866.431 21929.312 10743.435 19842.380 9111.576 22929.291 32907.497 34771.385 7458.799 16590.724 33736.776 19213.311 15117.623 4940.347 14410.062 11298.835 4879.932 6193.893 6573.697 29997.482 30025.311 2232.215 5792.542 28577.932 20195.661 16761.285 10884.184 18736.413 26150.829 16446.707 11398.633 14378.477 34120.531 15033.201 35490.839 7947.110 29667.412 23196.170 29654.084 12135.102 25918.309 6548.500 3036.012 17208.349 16431.733 28341.465 10607.045 19864.676 15148.397 14926.424
11618.947 15058.481 3516.779 13665.504 10266.381 34241.551 4340.218 7999.795 4289.557 18914.552 10051.941 8877.638 0.000 5703.124 4818.744 4470.970 9618.751 13629.110 11875.803 1888.579 28691.234 9542.663 10512.498 7446.195 10044.686 4066.740 4573.658 3817.505 18876.354 4246.848 12297.138 6642.326 9411.361 9046.421 11655.939 2832.387 2662.080 9301.751 14176.251 29224.935 3872.972 2393.558 12347.100 9485.299 34417.658 12127.844 9841.569 11107.545 13761.632 8739.720 6928.068 28844.434 6500.938 3556.786 6788.561 10561.528 10894.671 7106.233 9870.249 8328.393 28635.256 3618.430 12927.552 8781.693 14012.497 6726.607 29637.471 15369.854 4974.824 11271.368 2822.036 3243.030 10007.662 12392.143 9126.858 10412.091 27036.352 12059.542 11690.723 16546.173 2883.291 30546.511 24643.720 9730.663 18459.039 15916.107 12791.163 16414.759 9469.160 22476.391 6528.499 11652.982 16479.067 18277.886 21276.036 11330.281 18010.477 16789.854 9239.065 11319.535 13494.182 30971.609 34251.672 27210.456 15721.930 8863.160 26283.049 15620.234 8590.576 13699.475 13660.734 6844.787 4010.108 10282.385 2776.515 22482.648 22020.244 8027.525 6156.702 19930.564 20913.623 15490.319 10024.580 12595.126 21992.961 14101.672 10993.551 14191.555 30520.276 9161.055 28338.029 4713.141 26343.449 14474.446 21615.594 19677.810 29325.830 11903.157 8255.975 14700.678 15040.514 31550.956 5051.144 11837.261 6733.458 7886.273
6101.445 9562.390 4408.791 8287.187 7445.137 34299.567 3858.122 9712.464 5097.173 16477.050 13534.018 10135.528 5703.124 0.000 4347.683 1269.751 7202.297 9939.238 8419.032 6243.993 25889.589 5831.957 5947.985 3908.215 5351.913 5427.734 3200.920 4662.121 16374.780 2699.032 8505.151 6585.096 4684.942 8872.634 7786.911 2968.855 4060.441 4521.068 8843.325 26644.877 4589.882 3310.287 6679.168 5328.369 29532.323 8651.601 4174.127 6564.639 15370.337 6419.527 1536.334 31738.693 1901.076 5980.927 1357.923 4872.185 7443.899 3494.128 4199.723 7988.524 25796.263 4862.342 7815.538 4566.572 9780.128 2863.435 25400.852 10662.396 4778.312 7214.609 3026.973 8944.524 5619.174 11590.389 7273.747 15406.719 27274.698 11687.177 12254.229 19461.312 3938.464 27189.941 22759.770 7350.985 17815.968 10595.845 16358.909 19544.578 9555.924 24357.082 3792.264 7815.961 18296.720 15915.429 22940.898 15312.936 23595.847 22262.319 3868.568 11106.414 10107.694 33041.196 28680.088 31255.426 17590.405 7126.768 23669.169 21309.048 13969.414 13849.622 19151.236 1306.084 6883.236 7762.635 4774.307 19968.648 20245.452 8202.203 4525.127 22576.091 15383.284 9799.781 4756.920 8606.406 16890.056 8413.793 16317.738 8696.859 36124.727 4897.686 25366.419 2214.706 20999.270 14726.107 19904.500 17628.987 24327.625 9549.587 7815.879 9034.971 9347.281 26445.655 10754.216 10410.975 6885.179 13112.308
8321.106 11491.221 1316.354 9972.780 11576.093 37732.795 642.387 5364.792 1049.435 14169.717 14736.625 5822.081 4818.744 4347.683 0.000 4039.894 4800.107 14270.510 7120.678 3878.502 30173.588 4977.807 6297.170 3155.301 5975.861 1515.430 1154.874 1111.994 14120.323 1760.620 7609.778 2411.548 5462.630 4914.981 7015.823 4131.266 2207.127 5416.863 10390.925 30894.845 1026.635 3716.088 10167.146 5140.198 29915.023 7370.753 7180.019 10902.519 11077.769 10350.881 5851.292 27391.118 3482.613 2408.378 4412.857 7940.348 6166.840 2980.693 7219.549 4055.895 30085.430 6765.411 8957.959 4580.391 9420.797 2963.361 29701.106 14929.734 432.464 6721.065 4252.105 7331.521 5734.501 15163.893 4345.384 15156.318 30595.090 15082.313 8146.255 21149.325 5508.388 31531.276 26839.525 4912.960 21438.422 14545.898 17523.270 21074.100 5523.036 20073.571 7642.832 12146.049 13995.969 13542.539 25477.923 16120.958 20760.579 21133.628 6007.268 14412.645 8702.178 28751.087 30521.009 32028.568 13279.583 10886.212 27917.080 19416.837 13163.146 9923.368 16192.408 5571.748 3152.347 5463.872 2115.878 24183.511 24280.058 4066.585 1373.201 24477.607 17238.749 12545.465 6519.333 12950.993 20917.158 11696.727 13182.601 10664.686 34522.588 9235.587 29672.174 2136.845 24782.194 17910.221 23918.215 15022.966 24920.768 7108.213 3922.176 12416.296 12140.224 27213.521 9032.771 14191.582 9773.168 12572.975
7360.916 10823.319 3730.059 9529.375 7541.926 33935.161 3446.114 9306.651 4568.776 17127.903 12446.914 9842.109 4470.970 1269.751 4039.894 0.000 7690.410 10368.609 9213.104 5180.506 26176.978 6625.778 6983.594 4543.075 6411.051 4815.470 2914.995 4049.723 17039.255 2279.675 9385.519 6426.935 5738.949 8862.713 8674.200 1700.508 3149.167 5586.980 10079.084 26877.231 3996.148 2081.959 7877.658 6234.055 30717.515 9455.076 5442.965 7235.265 15100.723 6317.885 2504.222 31270.634 2747.358 5211.444 2546.839 6135.509 8214.609 4117.243 5468.196 7981.409 26093.140 3771.390 9004.643 5462.188 10783.922 3512.060 26086.570 11444.909 4464.689 8139.655 1757.223 7713.583 6599.294 11260.430 7615.964 14161.872 26851.158 11260.902 12167.617 18497.483 2735.986 27629.208 22801.595 7835.032 17531.654 11617.072 15280.023 18547.087 9508.977 24094.817 3607.343 8254.500 18010.715 16545.005 22213.262 14173.542 22428.121 20993.230 5088.454 10632.370 10912.798 32765.393 29949.594 30147.473 17286.976 6892.423 23899.668 20055.432 12701.224 13883.930 18013.822 2384.540 6106.226 8297.865 3912.710 20155.592 20246.696 8082.076 4599.399 21670.984 16649.895 11059.769 5959.864 9112.615 17841.097 9630.763 15224.294 9956.826 34856.271 5407.858 25696.921 2041.387 22047.252 14213.812 19887.950 18201.168 25527.845 10090.945 7825.006 10232.408 10605.982 27663.897 9516.793 10206.696 6175.668 11849.334
7108.188 9200.376 6107.002 7702.514 14476.488 41501.771 5316.573 6278.297 5474.128 9504.521 19474.610 5904.004 9618.751 7202.297 4800.107 7690.410 0.000 16396.161 2650.891 8515.768 32341.535 2261.918 3947.772 3316.979 4160.467 5846.054 5300.161 5838.218 9434.233 5875.984 3365.869 3697.356 4226.089 3546.462 3050.358 8512.299 6990.408 4349.274 7884.327 33213.292 5770.774 8257.508 10075.269 3090.705 25564.513 2869.897 7293.267 12707.437 10079.555 13590.824 8197.929 26696.422 5346.162 6708.041 6286.606 7846.535 1997.563 3715.375 7332.698 3112.085 32226.805 11171.213 6356.725 3390.986 5296.054 4342.640 30572.439 16033.935 4675.032 3168.882 8633.900 11948.591 3514.567 18792.679 905.114 19912.817 34470.524 18875.365 6474.966 25822.236 9935.176 33225.513 29683.858 149.392 25010.858 14745.806 22279.431 25781.651 4169.932 18592.359 10994.561 14366.616 12866.743 8900.807 29865.995 20908.830 24124.637 25615.926 5800.574 18276.321 4006.106 27173.291 27180.695 36828.604 12283.515 14326.139 30265.056 23553.158 17838.940 7427.096 19558.917 7871.003 7054.086 664.134 6884.141 26682.854 27234.017 3835.959 3494.036 29104.973 14309.390 11057.885 5602.091 14968.251 20965.055 11051.847 16484.671 8562.173 38674.333 11558.928 31719.545 5773.906 24143.852 21880.587 26915.207 10515.519 20740.003 2411.493 2961.216 11817.750 10768.753 23107.824 13538.581 17595.124 13863.635 17307.792
10882.496 12647.417 14097.975 12544.349 3545.496 26652.065 13738.594 19625.900 14922.402 24507.490 14828.530 20074.555 13629.110 9939.238 14270.510 10368.609 16396.161 0.000 16529.949 15075.447 16003.095 14380.643 13387.237 13221.215 12846.791 15183.829 13116.171 14416.764 24349.436 12552.477 16205.173 16516.181 12453.804 18712.498 15580.434 11234.956 13432.926 12288.403 13053.318 16828.461 14360.764 11855.842 7925.888 13582.042 31988.195 16688.667 9456.399 3708.832 25306.689 5091.312 8509.037 41631.534 11361.281 15538.893 10311.052 9216.855 15793.775 12901.912 9426.025 17839.026 15900.400 10250.498 13245.277 13063.371 16503.672 12355.208 16017.950 3482.877 14702.852 14934.967 11174.198 16321.999 13461.148 6571.166 16741.256 19113.216 20255.263 7392.815 22118.466 18060.481 10745.829 17267.255 13491.910 16540.908 10656.503 6239.294 16917.901 18531.634 19414.586 34286.843 7138.405 2124.467 28234.057 24067.331 18661.985 16937.606 30820.201 26563.943 10802.270 7510.195 17942.818 42971.746 27781.378 30711.573 27529.390 5432.241 13872.040 27080.865 18959.091 23583.467 26828.074 8822.164 16415.740 16796.314 14206.909 10307.661 11230.459 18112.619 14399.727 20111.135 16462.412 10764.333 11359.597 1436.318 9772.021 8703.559 24442.346 12172.276 40451.902 5042.248 15444.618 12134.764 14566.319 9979.015 10986.581 25938.334 26784.635 18416.900 17657.504 8492.737 10457.341 28317.332 17791.693 5129.471 8207.382 17867.052
6122.112 7302.462 8433.090 5954.162 15135.970 42396.814 7539.060 8813.667 7930.577 8166.393 21465.424 8320.327 11875.803 8419.032 7120.678 9213.104 2650.891 16529.949 0.000 10962.648 32213.915 2593.021 3147.545 4699.404 3686.832 8338.598 7351.412 8215.987 8041.936 7823.216 812.874 6338.836 4150.190 5924.418 1019.710 10353.440 9213.775 4327.606 5971.930 33169.021 8137.850 10216.200 9355.254 3156.493 22947.154 252.387 7077.704 12832.596 11863.961 14489.398 9024.694 28212.016 6534.550 9232.620 7224.008 7410.969 1007.440 5118.061 7109.444 5665.527 32084.319 12918.478 4577.340 3877.225 2677.883 5703.657 29730.034 15606.391 7083.145 1622.512 10468.976 14418.737 3102.915 19787.657 3518.159 22266.797 35483.529 19983.538 8271.211 27673.936 11741.481 32812.675 30001.490 2622.200 25871.280 13878.634 24294.354 27689.034 6433.864 19849.211 12091.288 14637.129 14462.623 7654.001 31359.234 23018.537 26764.673 28163.285 5760.015 19446.340 1699.818 28246.361 24612.185 39001.536 13961.826 15317.958 30266.062 26178.256 20278.816 8672.112 22202.958 8720.025 9647.672 2165.245 9236.453 26817.508 27648.877 6400.893 5749.327 30878.235 11933.070 9476.867 5176.889 15096.237 19830.096 9936.526 19129.108 6825.531 41303.828 12046.633 31525.852 7563.144 22614.570 23074.061 27361.806 9473.794 18094.096 2402.327 5536.314 10674.498 9270.296 20458.187 16061.679 18466.338 15298.794 19692.160
11679.902 15027.539 2625.747 13557.930 11828.308 36126.730 3611.799 6142.247 3043.873 17536.167 11675.655 7046.603 1888.579 6243.993 3878.502 5180.506 8515.768 15075.447 10962.648 0.000 30388.979 8850.143 10077.015 6916.407 9691.040 2679.986 4099.999 2766.702 17514.310 4048.092 11479.556 5180.182 9113.290 7430.655 10893.413 3871.589 2285.907 9034.868 14023.257 30956.185 2852.315 3267.758 12885.356 8955.927 33793.326 11210.217 10135.576 12283.694 11875.107 10342.834 7671.921 27054.623 6493.881 1919.900 7052.866 10890.515 10027.712 6654.040 10169.411 6787.033 30327.062 5394.594 12661.283 8332.022 13299.287 6426.199 31021.834 16538.888 3879.506 10595.551 3918.255 3457.919 9530.500 14233.649 7902.568 11420.827 28920.450 13924.379 9888.259 18201.795 4459.971 32150.521 26446.673 8609.566 20332.326 16794.887 14343.540 18027.602 7787.342 20595.015 7938.299 13034.730 14591.396 16889.755 23084.452 12787.864 17420.015 17255.615 9277.656 13187.859 12497.117 29106.226 34186.997 28489.702 13834.428 10556.253 28002.978 15636.185 9326.830 11919.878 12932.688 7514.821 2167.566 9166.391 1837.826 24205.310 23827.018 6395.825 5243.909 21611.855 20855.215 15757.776 9959.465 13954.528 23014.741 14579.074 10073.971 14173.894 30706.580 10372.058 30007.652 4624.022 27220.618 16362.745 23427.128 18200.034 28790.127 10662.688 6741.945 15232.868 15323.127 31072.696 5160.890 13620.335 8567.244 8801.506
26212.860 26882.092 29857.864 27337.626 18679.220 17310.412 29610.303 35483.332 30740.084 39860.040 25241.736 35995.539 28691.234 25889.589 30173.588 26176.978 32341.535 16003.095 32213.915 30388.979 0.000 30252.419 29079.878 29213.684 28592.256 30953.263 29020.661 30202.136 39679.167 28426.492 31781.533 32473.945 28278.245 34710.590 31220.475 26751.372 29084.690 28123.255 27718.789 1376.939 30156.283 27367.582 22976.122 29430.790 42442.537 32343.594 25192.978 19644.986 41247.858 20081.361 24498.457 57366.491 27363.865 31186.753 26314.133 24804.304 31572.322 28901.218 25157.723 33834.683 218.337 25076.271 28360.653 28971.961 31713.851 28358.100 8819.426 16684.801 30605.233 30592.593 26667.908 30743.405 29236.729 16852.138 32724.931 30317.129 14920.205 17518.655 38114.184 24105.593 25929.497 3608.059 5757.630 32483.832 12775.511 19005.616 25754.975 24881.669 35409.936 50241.346 22675.196 18103.331 44169.108 39492.897 20039.144 26850.415 43752.405 36938.858 26627.843 18237.418 33471.589 58922.756 34935.338 34283.217 43452.836 19836.632 2521.393 38888.041 31283.665 39583.776 40463.336 24815.393 32020.318 32705.590 29845.495 6250.432 7787.096 34088.538 30385.566 23792.691 28330.594 24471.092 27065.563 17406.797 15572.162 22948.271 38628.548 26715.561 49355.653 21017.969 1032.587 28052.112 17755.425 16869.086 8228.995 41390.641 37859.932 34257.059 33654.470 22381.369 24369.584 38600.542 31803.275 16967.604 22123.284 30235.850
4860.520 7213.169 6237.694 5675.277 12722.677 39931.142 5277.820 8082.830 5924.811 10679.647 18938.475 7881.299 9542.663 5831.957 4977.807 6625.778 2261.918 14380.643 2593.021 8850.143 30252.419 0.000 1772.431 2158.083 1902.472 6375.327 4969.361 6088.197 10568.257 5368.318 2804.743 4965.444 1998.797 5637.069 2125.608 7819.515 6899.316 2140.098 5945.327 31154.118 6000.141 7725.864 7819.423 840.684 24949.619 2831.559 5098.884 10673.347 12312.873 11990.864 6517.620 28948.025 3942.624 7297.224 4669.878 5613.053 1612.587 2561.569 5136.912 5026.960 30132.610 10348.999 4409.791 1358.138 4475.161 3123.934 28323.752 13838.072 5051.539 1746.386 7932.327 12291.485 1273.698 17273.991 2980.896 19953.843 32978.890 17442.196 8721.892 25104.716 9189.177 31053.369 27774.170 2379.044 23406.314 12487.139 21771.561 25131.564 6311.052 20852.915 9535.360 12403.981 15119.586 10137.499 28769.121 20536.629 25406.368 26103.972 3629.072 16891.405 4290.374 29425.518 25769.756 36533.628 14527.863 12795.899 28220.286 24363.022 18069.310 9673.910 20822.578 6203.667 7873.369 2475.907 7044.711 24687.670 25369.883 5682.038 3641.920 28295.689 12640.005 8898.529 3348.754 12945.391 18704.392 8798.407 17761.352 6504.227 39481.101 9691.955 29608.311 5048.418 21927.544 20518.360 25067.101 11904.345 19942.967 4038.843 4845.713 9564.982 8586.740 22238.742 14009.030 15986.716 12707.402 17419.675
3196.612 5467.114 7455.899 3922.293 12117.576 39393.949 6466.521 9841.203 7312.192 11203.013 19430.413 9653.587 10512.498 5947.985 6297.170 6983.594 3947.772 13387.237 3147.545 10077.015 29079.878 1772.431 0.000 3162.475 619.007 7777.351 6016.684 7374.537 11061.522 6266.007 2861.602 6656.680 1264.914 7401.034 2199.419 8422.094 7959.691 1435.102 4230.032 30027.263 7280.971 8454.590 6322.841 1189.471 23918.383 3301.430 3931.786 9695.228 14027.252 11586.359 6211.739 30632.100 4254.372 8693.049 4617.997 4277.278 2532.672 3435.987 3963.041 6799.343 28952.016 10751.202 2717.419 1747.782 3835.665 3789.904 26810.095 12508.849 6454.464 1551.095 8522.640 13453.984 575.025 16887.178 4729.749 20851.357 32539.955 17145.011 10419.723 25409.018 9692.023 29732.755 26866.092 4045.348 22881.660 10942.385 22263.102 25490.573 8067.147 22461.424 9354.151 11514.635 16803.291 10725.652 28728.030 21139.917 26964.704 27250.977 2675.320 16650.029 4604.427 30986.783 24240.960 37126.126 16227.892 12455.879 27120.890 25696.670 19102.132 11246.995 22382.933 5936.671 9351.604 4008.774 8240.337 23670.628 24528.475 7451.047 5068.117 28508.633 11014.366 7133.198 2029.615 11954.780 17073.200 7138.539 19336.058 4739.004 40782.965 8995.372 28400.286 5821.112 20196.239 20267.736 24247.222 12575.420 18813.383 5254.867 6617.821 7900.999 6830.056 21048.690 15220.674 15513.273 12753.970 18383.341
5337.219 8367.158 4293.726 6837.009 11169.760 38196.856 3304.883 7443.741 4189.586 12604.187 16784.137 7518.088 7446.195 3908.215 3155.301 4543.075 3316.979 13221.215 4699.404 6916.407 29213.684 2158.083 3162.475 0.000 2820.657 4657.691 2888.354 4216.553 12509.951 3228.869 4962.813 4052.349 2331.913 5663.847 4279.171 5665.146 4837.796 2309.663 7241.485 30049.050 4122.394 5569.066 7667.142 2052.099 26981.382 4946.337 4656.007 9575.492 12462.874 10274.981 4893.052 29102.417 2030.969 5562.643 2983.396 5355.196 3693.408 426.145 4697.840 4848.091 29105.770 8219.798 5802.791 1427.086 6580.215 1050.759 27892.556 13175.302 3355.461 3840.038 5778.909 10309.117 2614.437 15491.110 3526.847 17844.441 31181.785 15595.335 9041.319 22974.618 7043.999 30239.964 26412.642 3466.361 21698.317 12275.991 19616.461 22991.160 6382.122 21301.366 7695.332 11154.897 15365.564 12031.379 26748.966 18378.817 23897.618 24118.531 3239.934 15011.238 6396.558 29960.562 27366.112 34376.323 14711.944 11018.653 27088.795 22534.668 16013.741 10375.787 19323.245 4565.273 6267.834 3857.011 5081.112 23466.632 23945.754 5313.184 2050.192 26185.362 14086.619 9587.406 3528.505 11807.735 18632.788 8998.015 16297.138 7555.644 37621.094 8300.721 28623.191 2890.406 22215.118 18627.328 23621.814 13726.499 21919.998 5641.520 4655.314 9750.204 9207.299 24178.929 12065.990 14280.220 10693.238 15332.425
2961.763 5596.486 7083.286 4052.534 11516.830 38793.471 6093.531 9816.743 7009.061 11789.728 18854.287 9692.969 10044.686 5351.913 5975.861 6411.051 4160.467 12846.791 3686.832 9691.040 28592.256 1902.472 619.007 2820.657 0.000 7476.920 5603.137 7028.333 11651.330 5806.832 3456.998 6550.794 672.109 7505.488 2776.775 7881.633 7530.866 830.845 4429.587 29526.849 6933.467 7938.618 5953.227 1120.624 24419.732 3856.745 3407.221 9146.731 14212.691 10971.535 5592.760 30850.479 3700.885 8383.273 4014.129 3817.234 2980.461 3038.655 3440.848 6850.146 28466.760 10172.667 2983.564 1401.704 4443.638 3321.643 26461.734 12067.310 6167.436 2129.758 7979.532 13034.612 665.567 16273.255 4874.299 20347.522 31931.228 16527.787 10624.251 24809.757 9130.252 29294.967 26314.736 4272.978 22278.057 10608.328 21685.469 24896.491 8190.562 22742.867 8735.543 10951.563 17022.042 11304.090 28109.840 20578.934 26708.317 26810.954 2084.114 16031.558 5194.092 31300.339 24546.718 36558.410 16429.700 11838.978 26612.488 25325.433 18634.383 11548.220 22130.958 5318.174 9078.585 4311.307 7853.543 23141.118 23964.578 7469.876 4813.763 27901.559 11268.531 7071.441 1531.497 11412.205 16804.768 6896.055 19096.499 4817.476 40392.822 8400.716 27923.311 5336.087 20041.080 19649.713 23679.691 13145.135 19291.569 5685.004 6663.237 7662.707 6738.861 21506.356 14814.333 14903.838 12141.240 17897.978
9829.746 13005.599 1095.400 11485.207 12279.571 37843.795 1659.308 4574.061 468.278 14903.408 14118.504 5249.039 4066.740 5427.734 1515.430 4815.470 5846.054 15183.829 8338.598 2679.986 30953.263 6375.327 7777.351 4657.691 7476.920 0.000 2353.008 771.068 14874.704 2732.711 8894.388 2577.376 6974.424 5005.462 8342.383 4348.824 1984.684 6931.030 11898.534 31624.005 838.158 3790.964 11580.575 6606.883 31241.513 8583.065 8624.670 11966.231 10450.994 10945.774 6963.802 26458.107 4889.616 922.220 5739.403 9388.740 7430.626 4495.582 8663.336 4263.937 30873.671 6751.749 10455.330 6077.496 10755.253 4462.596 30820.722 16089.984 1328.207 8101.072 4454.581 6102.903 7209.446 15476.166 5222.733 14100.068 30667.515 15306.375 7885.473 20609.981 5547.693 32444.155 27401.579 5936.335 21717.215 15872.214 16849.081 20481.454 5478.171 19409.313 8286.396 13068.109 13322.923 14260.960 25222.237 15354.112 19246.742 19827.393 7499.655 14605.153 9839.890 28052.182 32014.423 31138.386 12585.004 11374.064 28648.756 17987.746 11993.515 9816.033 14677.439 6715.602 1643.100 6492.648 1381.243 24883.986 24813.551 4006.867 2737.072 23987.277 18744.302 14045.893 8031.247 13916.964 22224.695 13147.857 11667.494 12179.954 33107.571 10200.812 30490.627 3271.513 26171.558 17997.505 24436.819 15623.817 26291.258 7985.976 4189.257 13857.547 13636.951 28603.442 7723.163 14629.990 9912.802 11481.451
7648.899 10946.208 1563.052 9464.541 10435.686 36736.629 695.721 6515.046 1956.725 14792.551 14190.699 6974.966 4573.658 3200.920 1154.874 2914.995 5300.161 13116.171 7351.412 4099.999 29020.661 4969.361 6016.684 2888.354 5603.137 2353.008 0.000 1653.799 14728.032 656.264 7735.640 3512.150 5015.068 5962.399 7085.826 3254.384 1949.602 4934.926 9924.519 29745.422 1562.826 2958.093 9236.917 4939.229 29869.005 7603.756 6305.600 9762.873 12228.747 9232.878 4715.735 28539.382 2562.006 3095.122 3386.697 7071.098 6356.640 2580.719 6343.357 5085.981 28932.077 5926.660 8564.576 4269.483 9439.169 2328.274 28580.171 13818.161 1587.334 6698.563 3377.258 7437.760 5486.896 14115.774 5014.568 14984.491 29618.482 14066.396 9252.631 20522.085 4673.873 30377.991 25714.272 5430.466 20392.135 13523.707 17005.402 20484.328 6598.849 21224.218 6522.284 10991.731 15148.474 14179.996 24666.001 15682.046 21369.407 21237.350 5267.760 13410.929 9004.594 29902.996 30088.866 31653.692 14433.211 9794.073 26767.719 19734.318 13126.435 10984.261 16827.223 4444.191 3952.956 5955.664 2271.619 23037.805 23161.444 5167.087 1859.828 23809.857 16761.412 11811.276 5890.963 11799.305 19881.925 10826.550 13863.287 10098.408 34790.443 8082.555 28517.731 986.296 23819.369 16943.201 22802.945 15733.737 24806.454 7692.317 4936.441 11527.494 11391.000 27059.127 9211.576 13105.675 8816.535 12455.314
9251.795 12491.808 385.192 10987.264 11533.727 37254.010 988.921 5299.377 588.338 15100.624 13827.420 5927.369 3817.505 4662.121 1111.994 4049.723 5838.218 14416.764 8215.987 2766.702 30202.136 6088.197 7374.537 4216.553 7028.333 771.068 1653.799 0.000 15060.546 1973.421 8717.096 2947.025 6488.616 5461.491 8126.938 3676.749 1391.727 6429.909 11422.175 30880.209 96.005 3152.339 10887.746 6229.580 31027.003 8465.131 7958.633 11195.746 11157.901 10216.369 6198.451 27221.229 4215.055 1443.920 5021.331 8724.060 7269.936 4000.530 7996.512 4662.356 30121.402 6172.987 10011.594 5643.241 10532.616 3885.143 30051.144 15324.380 1164.906 7832.244 3787.939 6221.185 6817.136 14816.381 5311.779 14081.976 30089.082 14671.521 8486.190 20283.356 4942.248 31678.895 26687.297 5943.273 21070.959 15137.979 16590.946 20182.061 5990.533 20130.751 7544.607 12300.045 14042.771 14465.756 24766.856 15147.419 19774.313 20021.635 6890.652 13979.023 9779.532 28782.458 31572.621 31012.774 13308.559 10666.518 27904.195 18325.134 12063.010 10371.864 15219.299 5953.829 2301.690 6498.689 1048.539 24143.652 24104.646 4506.759 2479.193 23638.044 18271.086 13440.709 7470.408 13147.031 21482.905 12480.159 12236.794 11654.638 33424.123 9430.327 29734.554 2526.945 25458.612 17408.175 23731.034 15891.506 26030.971 8089.312 4561.598 13181.196 13024.629 28321.100 7921.287 13937.329 9295.046 11488.278
13534.172 13102.176 15377.978 12385.150 23160.833 50432.228 14687.959 12893.178 14596.837 230.768 28856.745 11942.741 18876.354 16374.780 14120.323 17039.255 9434.233 24349.436 8041.936 17514.310 39679.167 10568.257 11061.522 12509.951 11651.330 14874.704 14728.032 15060.546 0.000 15310.174 8200.174 12334.373 12171.360 10325.682 8875.804 17945.915 16326.668 12350.866 12065.828 40710.309 15008.766 17685.971 16726.522 11196.367 19675.190 7836.330 14935.594 20698.506 11995.581 22530.717 17062.763 25317.818 14473.991 15599.798 15237.590 15132.678 8962.441 12935.486 14962.349 10793.417 39535.232 20600.478 11318.694 11899.811 7965.458 13557.648 36255.793 22998.404 13912.534 9521.638 18067.346 20770.070 11118.570 27827.061 9775.063 28873.260 43525.202 28009.560 9795.060 35244.205 19368.273 39943.542 37839.677 9300.381 33908.677 20816.646 31641.140 35187.666 10247.972 16692.375 20103.499 22547.770 13287.679 710.057 39252.432 30206.236 30353.325 33829.370 13733.891 27459.069 6457.683 23924.302 24684.551 46004.012 13188.691 23354.013 37866.852 31147.395 26614.615 8376.884 26081.541 16755.322 15646.153 8789.284 16100.071 34548.519 35549.432 11325.624 12893.849 38537.517 14966.174 15597.873 13049.056 22930.534 26075.683 16794.605 23173.333 13083.573 45964.799 20051.860 38927.001 15191.877 27874.006 31085.545 35278.784 1879.963 16023.556 7036.300 10808.827 17427.525 15579.429 18436.511 22129.717 26507.694 23202.874 26234.805
7632.293 10996.854 1759.808 9546.776 9816.227 36081.055 1186.786 7075.091 2399.849 15379.078 13662.318 7574.065 4246.848 2699.032 1760.620 2279.675 5875.984 12552.477 7823.216 4048.092 28426.492 5368.318 6266.007 3228.869 5806.832 2732.711 656.264 1973.421 15310.174 0.000 8162.650 4152.585 5184.867 6615.657 7493.851 2640.662 1776.136 5085.021 10030.603 29140.490 1896.950 2403.331 8997.080 5248.071 30173.257 8074.842 6138.505 9255.220 12832.106 8594.294 4233.619 29084.194 2447.230 3350.636 3108.108 6901.194 6820.185 2868.749 6174.238 5740.477 28339.865 5310.022 8723.785 4535.804 9808.909 2485.201 28099.364 13358.980 2187.320 7068.872 2762.986 7256.114 5761.857 13460.137 5632.998 14621.623 28964.389 13410.297 9894.042 19957.656 4064.233 29819.209 25080.794 6010.117 19736.525 13178.706 16484.900 19933.507 7248.047 21827.739 5884.858 10429.222 15747.018 14771.248 24042.834 15195.661 21435.427 21005.328 5229.603 12755.494 9495.113 30502.704 30179.085 31183.358 15027.303 9144.998 26162.712 19623.451 12836.147 11636.917 16917.057 3982.902 4242.988 6524.713 2301.797 22425.686 22523.820 5809.203 2489.046 23230.048 16838.267 11725.370 5925.987 11252.647 19515.598 10634.538 13990.234 10139.074 34638.610 7532.103 27932.712 591.777 23523.744 16290.616 22163.521 16343.661 25079.371 8279.536 5591.877 11316.797 11295.200 27309.310 9055.309 12455.317 8166.960 12125.819
5599.049 6538.166 8909.464 5231.479 14973.825 42250.441 7983.669 9589.659 8471.001 8342.901 21740.047 9116.633 12297.138 8505.151 7609.778 9385.519 3365.869 16205.173 812.874 11479.556 31781.533 2804.743 2861.602 4962.813 3456.998 8894.388 7735.640 8717.096 8200.174 8162.650 0.000 7012.547 4010.821 6720.276 718.744 10622.129 9639.658 4191.413 5213.875 32757.639 8634.939 10529.430 8849.942 3176.783 22349.459 735.676 6756.526 12527.990 12664.296 14405.683 8976.860 28974.585 6658.640 9801.200 7249.806 7016.886 1467.830 5364.374 6785.152 6431.458 31648.186 13131.733 3869.560 3941.655 1931.701 5910.928 29126.535 15132.892 7609.543 1335.868 10734.310 14937.014 2966.285 19709.470 4255.867 22706.745 35381.188 19941.506 9077.208 27881.248 11984.980 32307.038 29694.088 3355.529 25734.133 13302.422 24573.743 27918.766 7240.027 20583.328 12089.681 14361.922 15244.444 7873.308 31425.934 23340.901 27488.779 28717.223 5535.767 19426.576 1744.944 28944.040 23837.211 39337.154 14751.775 15258.798 29870.275 26806.690 20768.737 9432.718 22920.761 8684.600 10261.487 2936.736 9717.469 26463.540 27373.249 7165.277 6238.026 31050.476 11121.678 8762.043 4858.949 14777.223 19176.031 9324.028 19846.408 6096.382 41935.221 11855.750 31077.013 7853.058 21881.322 23051.407 27095.959 9734.593 17443.923 3160.449 6295.601 10049.924 8574.086 19791.278 16609.475 18353.614 15386.963 20152.034
9333.877 12117.945 3320.850 10570.573 13938.047 40119.188 3045.752 3398.974 2391.353 12356.074 16694.157 3600.616 6642.326 6585.096 2411.548 6426.935 3697.356 16516.181 6338.836 5180.182 32473.945 4965.444 6656.680 4052.349 6550.794 2577.376 3512.150 2947.025 12334.373 4152.585 7012.547 0.000 6238.348 2531.043 6585.220 6499.580 4334.367 6262.792 10884.452 33220.272 2927.408 6034.720 11694.834 5485.485 29259.239 6563.846 8669.617 13043.047 8791.604 12744.730 8018.168 25280.063 5310.640 3266.241 6350.386 9389.026 5567.043 4138.380 8711.269 1715.379 32381.140 9084.161 9358.805 5225.032 8939.881 4464.046 31705.405 16928.484 2016.059 6511.848 6617.985 8486.017 6090.977 17573.472 2907.138 16565.104 32970.779 17482.727 5741.512 23179.721 7837.419 33742.894 29225.721 3748.628 23847.039 16256.908 19426.350 23056.673 3114.099 17772.673 10034.278 14395.433 11719.795 11710.064 27713.881 17924.929 20519.214 21991.354 7288.645 16807.543 7662.801 26457.216 30682.316 33669.736 11021.347 13294.189 30243.367 19858.773 14375.531 7516.646 15940.882 7714.654 3425.380 4277.557 3904.885 26526.514 26673.569 1656.889 2196.682 26550.157 17604.093 13565.961 7546.331 15163.724 22630.530 13050.295 12868.930 11362.294 34977.877 11474.634 31950.673 4442.938 26266.481 20284.697 26314.712 13049.068 24432.928 5561.088 1620.991 13802.437 13203.338 26794.601 9974.378 16601.452 12150.904 13932.053
3108.059 6036.368 6521.815 4510.845 10990.956 38261.068 5535.637 9567.445 6506.255 12303.041 18182.372 9510.551 9411.361 4684.942 5462.630 5738.949 4226.089 12453.804 4150.190 9113.290 28278.245 1998.797 1264.914 2331.913 672.109 6974.424 5015.068 6488.616 12171.360 5184.867 4010.821 6238.348 0.000 7405.603 3307.988 7215.175 6925.842 180.594 4933.644 29192.046 6393.039 7281.503 5860.314 1160.592 25076.729 4341.088 3102.503 8745.559 14175.582 10394.872 4978.823 30834.943 3032.590 7869.503 3353.098 3621.364 3344.093 2488.710 3140.112 6697.837 28156.525 9500.875 3550.003 1017.078 5100.557 2705.329 26346.957 11839.310 5683.639 2675.127 7312.248 12429.763 1052.822 15698.667 4849.451 19692.882 31374.296 15935.064 10618.909 24145.158 8458.829 29056.036 25892.299 4352.606 21738.816 10534.440 21013.697 24229.004 8106.608 22806.553 8111.728 10516.929 17018.036 11801.171 27479.922 19907.348 26220.687 26189.057 1654.676 15428.041 5726.733 31398.368 25089.334 35886.331 16407.151 11249.939 26265.605 24749.056 17997.857 11652.987 21648.902 4695.407 8594.417 4474.639 7278.765 22759.677 23518.458 7278.545 4372.846 27243.886 11782.785 7327.623 1399.567 11017.494 16799.361 6957.026 18626.800 5223.993 39801.333 7896.443 27626.207 4698.590 20162.724 19050.188 23226.289 13623.592 19939.469 5981.354 6506.908 7722.720 6967.996 22144.324 14217.223 14347.773 11492.630 17252.326
10459.795 12741.609 5840.425 11234.245 16302.100 42644.166 5555.920 2973.563 4890.213 10316.333 19076.996 2396.366 9046.421 8872.634 4914.981 8862.713 3546.462 18712.498 5924.418 7430.655 34710.590 5637.069 7401.034 5663.847 7505.488 5005.462 5962.399 5461.491 10325.682 6615.657 6720.276 2531.043 7405.603 0.000 6536.769 9027.251 6852.892 7486.464 11429.040 35495.570 5448.004 8565.737 13209.057 6386.387 28256.275 6086.558 10257.468 15141.320 6810.977 15167.693 10213.631 23470.706 7358.000 5530.731 8413.168 10908.591 5498.401 5902.058 10299.022 885.426 34610.822 11614.450 9898.450 6426.009 8588.073 6388.786 33552.461 18837.273 4537.302 6711.771 9146.176 10508.071 6907.550 20071.074 2683.959 18608.534 35499.411 19997.250 3408.015 25587.609 10368.409 35850.696 31614.753 3493.622 26347.057 17867.340 21770.386 25438.115 718.304 15649.117 12459.562 16607.263 9703.506 9660.729 30216.834 20215.809 21094.543 23565.609 8780.301 19326.987 6773.147 24319.763 30520.140 35808.287 9057.638 15753.167 32522.785 21095.919 16306.250 5022.191 16587.010 9895.486 5401.993 3800.714 6375.023 28837.091 29080.892 1036.666 4347.525 28976.849 17806.736 14533.838 8802.299 17327.153 24182.995 14360.477 13537.619 12087.374 36118.525 13695.421 34155.216 6836.102 27544.415 22813.287 28729.680 10828.308 23642.716 4256.203 1057.691 15126.796 14223.730 26055.099 11808.988 19066.232 14678.003 15969.620
5103.611 6398.314 8303.471 5001.215 14287.064 41562.131 7362.476 9328.189 7908.800 9013.150 21043.361 8922.914 11655.939 7786.911 7015.823 8674.200 3050.358 15580.434 1019.710 10893.413 31220.475 2125.608 2199.419 4279.171 2776.775 8342.383 7085.826 8126.938 8875.804 7493.851 718.744 6585.220 3307.988 6536.769 0.000 9928.330 9004.660 3488.467 5063.621 32183.109 8042.457 9848.208 8340.188 2458.622 22905.733 1123.251 6124.206 11892.388 12722.046 13700.996 8264.880 29147.381 5943.598 9256.612 6531.424 6425.253 1052.828 4674.077 6154.415 6161.327 31089.621 12424.925 3618.336 3224.753 2412.874 5209.619 28711.666 14599.310 7040.539 648.677 10039.588 14347.244 2258.585 19004.688 3955.466 22068.012 34682.235 19231.063 9110.082 27171.236 11284.444 31799.842 29062.982 3070.419 25042.552 12859.021 23877.722 27212.275 7104.164 20818.772 11373.784 13714.054 15369.643 8528.737 30707.383 22656.544 27099.778 28144.946 4860.741 18713.323 2421.164 29240.340 24145.455 38654.883 14850.345 14550.206 29286.024 26298.219 20157.412 9620.035 22523.894 7971.017 9755.294 2744.103 9112.224 25855.356 26727.884 6886.317 5650.641 30336.045 11272.949 8508.009 4221.204 14149.270 18822.754 8920.939 19450.793 5875.852 41426.122 11176.220 30527.083 7168.528 21654.785 22338.754 26446.515 10376.041 17954.486 3378.527 6011.571 9661.058 8287.847 20281.962 16038.593 17655.455 14668.328 19524.342
9039.571 12501.878 3295.268 11182.540 8089.421 33620.040 3490.191 8913.195 4263.032 18016.721 11119.164 9593.238 2832.387 2968.855 4131.266 1700.508 8512.299 11234.956 10353.440 3871.589 26751.372 7819.515 8422.094 5665.146 7881.633 4348.824 3254.384 3676.749 17945.915 2640.662 10622.129 6499.580 7215.175 9027.251 9928.330 0.000 2379.152 7077.232 11723.155 27379.010 3661.867 622.755 9535.708 7553.609 32276.582 10602.565 7142.930 8426.047 14797.150 6675.780 4099.697 30615.263 4183.419 4445.229 4195.429 7835.513 9346.006 5258.081 7168.366 8180.263 26679.877 2672.379 10594.513 6792.891 12149.232 4726.696 27153.686 12688.242 4490.948 9443.462 122.896 6058.662 7986.794 11139.678 8267.525 12530.758 26472.178 11002.656 12153.224 17346.730 1423.641 28390.794 23071.922 8647.692 17395.635 13104.054 13952.045 17341.885 9605.394 23740.622 4122.174 9175.586 17658.405 17410.509 21411.794 12743.690 20840.408 19301.130 6729.369 10317.249 12043.412 32366.274 31644.780 28742.801 16916.461 7043.432 24409.731 18364.654 11013.483 14005.625 16471.115 4030.647 5268.990 9157.413 3112.065 20627.891 20477.224 8126.823 5114.151 20601.529 18337.430 12758.079 7578.844 10088.973 19233.587 11300.148 13748.938 11634.313 33155.997 6504.484 26327.582 2793.398 23537.057 13786.074 20097.182 18983.070 27110.559 10918.512 8051.218 11885.414 12303.695 29271.798 7849.111 10282.925 5651.325 10177.706
9404.383 12772.831 1013.527 11319.532 10406.739 35878.294 1682.937 6535.312 1971.477 16374.949 12531.192 7233.138 2662.080 4060.441 2207.127 3149.167 6990.408 13432.926 9213.775 2285.907 29084.690 6899.316 7959.691 4837.796 7530.866 1984.684 1949.602 1391.727 16326.668 1776.136 9639.658 4334.367 6925.842 6852.892 9004.660 2379.152 0.000 6834.480 11798.876 29730.251 1406.965 1807.350 10635.433 6888.828 31817.289 9465.838 7853.405 10383.024 12421.039 9029.880 5551.141 28287.802 4213.634 2110.945 4776.668 8610.238 8232.967 4525.674 7887.605 6048.747 29009.699 4789.078 10473.585 6214.163 11373.919 4220.943 29227.295 14592.116 2439.307 8636.330 2480.381 5504.479 7434.263 13492.309 6552.145 13067.092 28708.671 13322.801 9852.375 18956.062 3569.652 30657.051 25450.310 7107.406 19732.626 14655.867 15316.160 18872.770 7380.178 21361.509 6413.013 11336.627 15279.335 15746.422 23381.914 13919.721 19701.242 19291.426 7000.580 12623.308 10835.694 29989.379 31952.584 29845.767 14537.312 9421.119 26758.155 17850.908 11179.291 11755.355 15202.088 5359.239 2983.250 7654.503 774.118 22982.515 22856.312 5896.747 3507.557 22295.852 18612.838 13471.880 7701.944 12217.927 20935.868 12312.635 12310.904 11915.207 32878.670 8536.181 28643.817 2342.025 25057.331 16031.356 22476.316 17210.739 26755.779 9314.603 5943.522 12975.887 13037.434 29006.032 7293.191 12660.386 7932.587 10520.844
3071.681 6074.578 6453.080 4558.629 10811.990 38081.455 5469.804 9606.755 6463.285 12482.222 18027.094 9568.350 9301.751 4521.068 5416.863 5586.980 4349.274 12288.403 4327.606 9034.868 28123.255 2140.098 1435.102 2309.663 830.845 6931.030 4934.926 6429.909 12350.866 5085.021 4191.413 6262.792 180.594 7486.464 3488.467 7077.232 6834.480 0.000 4996.181 29033.819 6334.124 7154.104 5754.304 1308.194 25207.015 4519.656 2959.261 8579.788 14267.143 10214.279 4799.404 30929.042 2893.872 7820.608 3184.629 3498.613 3514.030 2436.761 2997.508 6766.540 28002.136 9345.136 3639.698 1067.757 5270.007 2614.577 26228.656 11700.997 5649.551 2855.709 7173.080 12336.306 1232.595 15518.073 4952.206 19566.208 31193.865 15754.767 10719.169 23979.360 8310.897 28913.618 25722.321 4478.124 21558.976 10428.137 20857.680 24065.646 8190.552 22918.767 7933.531 10346.479 17116.406 11979.460 27302.857 19758.346 26177.433 26084.664 1495.684 15248.231 5906.997 31517.033 25158.509 35734.162 16501.453 11069.501 26105.688 24668.478 17884.825 11775.893 21608.225 4516.816 8556.861 4614.915 7202.933 22595.018 23345.873 7336.186 4358.326 27074.166 11842.880 7307.491 1318.639 10852.091 16706.320 6885.573 18591.206 5252.958 39712.827 7719.252 27473.946 4588.811 20099.919 18870.190 23052.944 13800.513 20062.780 6140.003 6574.871 7650.034 6940.767 22260.778 14127.519 14167.423 11319.437 17132.950
2854.120 1334.698 11449.193 592.300 12924.044 39689.088 10465.770 14018.595 11430.296 12261.790 22182.155 13759.049 14176.251 8843.325 10390.925 10079.084 7884.327 13053.318 5971.930 14023.257 27718.789 5945.327 4230.032 7241.485 4429.587 11898.534 9924.519 11422.175 12065.828 10030.603 5213.875 10884.452 4933.644 11429.040 5063.621 11723.155 11798.876 4996.181 0.000 28795.881 11326.565 11911.656 5128.398 5413.114 20790.061 5947.248 4990.859 9747.601 17783.691 12901.578 8392.391 34183.416 7675.334 12799.163 7535.025 4617.366 6009.196 7422.275 4985.990 10914.924 27567.263 13631.114 1539.252 5830.976 4254.394 7597.076 24287.956 11121.470 10594.641 4743.529 11801.480 17282.912 4800.746 17948.101 8752.015 24240.666 33142.949 18399.835 14168.518 27720.663 12781.094 27881.183 26324.680 7946.294 23431.763 8763.241 24966.783 27905.720 12050.137 25794.082 11329.493 11628.184 20427.184 11970.676 30289.647 24054.553 31137.039 30957.503 4994.437 18047.158 6464.440 34117.644 20164.401 39879.638 19913.215 13850.390 26014.299 29648.354 22703.894 14642.140 26560.310 8239.609 13506.722 7733.752 12195.221 22874.742 24216.460 11597.805 9242.337 30601.748 6849.226 3641.628 4157.715 11737.357 14185.961 4770.531 23525.795 1017.773 44665.820 9894.346 26935.742 9499.708 16678.845 21527.747 24000.166 13859.936 15544.238 8368.489 10742.093 5368.708 3546.465 17615.556 19085.642 16431.094 14914.822 21896.542
27210.985 27990.836 30529.379 28400.903 19346.731 16012.071 30319.976 36173.800 31426.998 40887.882 25311.334 36714.555 29224.935 26644.877 30894.845 26877.231 33213.292 16828.461 33169.021 30956.185 1376.939 31154.118 30027.263 30049.050 29526.849 31624.005 29745.422 30880.209 40710.309 29140.490 32757.639 33220.272 29192.046 35495.570 32183.109 27379.010 29730.251 29033.819 28795.881 0.000 30837.700 27990.565 23988.186 30339.069 43775.785 33305.176 26121.281 20505.857 41972.283 20703.609 25284.223 57982.246 28168.276 31822.886 27124.176 25758.927 32503.663 29726.001 26086.946 34615.900 1594.073 25606.523 29394.135 29858.665 32746.346 29171.033 10131.371 17714.848 31325.161 31550.414 27291.537 31166.948 30165.200 17191.119 33569.704 30383.447 13946.925 17807.657 38892.194 23818.424 26503.976 4623.237 5453.685 33356.990 12688.188 20121.305 25673.276 24603.167 36189.318 50968.087 23337.609 18904.031 44886.840 40508.344 19468.719 26845.024 43906.262 36858.397 27538.378 18541.394 34459.635 59642.239 36308.732 33643.671 44164.196 20402.803 2977.783 38939.755 31453.405 40402.850 40721.940 25604.641 32642.530 33594.996 30484.576 6753.844 7783.294 34846.665 31157.865 23315.232 29580.034 25600.719 28005.449 18248.774 16879.337 24028.363 38971.710 27798.407 49059.942 21803.182 2409.496 28785.193 19128.732 16917.058 8232.308 42403.863 39168.447 35173.364 34438.130 23480.576 25484.929 39932.377 32163.955 17426.588 22590.553 30421.457
9156.183 12395.829 393.508 10891.403 11490.972 37251.873 894.196 5338.328 603.506 15050.070 13871.952 5953.372 3872.972 4589.882 1026.635 3996.148 5770.774 14360.764 8137.850 2852.315 30156.283 6000.141 7280.971 4122.394 6933.467 838.158 1562.826 96.005 15008.766 1896.950 8634.939 2927.408 6393.039 5448.004 8042.457 3661.867 1406.965 6334.124 11326.565 30837.700 0.000 3147.096 10798.328 6137.159 30941.012 8387.260 7866.649 11129.103 11189.679 10180.448 6126.058 27274.637 4123.215 1537.477 4934.670 8632.028 7189.389 3905.063 7904.588 4641.858 30074.982 6176.811 9916.649 5548.943 10447.202 3789.274 29982.813 15252.245 1102.740 7744.671 3774.355 6304.936 6724.023 14800.171 5254.043 14153.902 30089.311 14661.117 8494.546 20322.729 4941.700 31624.326 26655.568 5877.071 21057.467 15054.867 16638.951 20224.818 5985.094 20166.220 7504.215 12243.022 14078.089 14416.131 24788.116 15201.339 19870.251 20107.843 6795.694 13970.623 9705.743 28820.660 31477.427 31073.921 13345.123 10637.878 27861.398 18417.973 12141.936 10371.394 15315.089 5879.215 2390.823 6431.984 1113.367 24102.707 24074.658 4501.235 2396.976 23674.279 18175.437 13345.859 7374.522 13087.308 21401.592 12388.521 12332.091 11558.634 33515.950 9369.534 29686.131 2445.131 25371.957 17406.988 23702.000 15848.835 25942.559 8030.894 4537.766 13090.281 12930.012 28231.539 8008.931 13912.657 9289.387 11562.623
9286.744 12741.375 2767.383 11384.140 8709.720 34105.360 3085.848 8338.030 3740.658 17749.799 11259.369 9039.965 2393.558 3310.287 3716.088 2081.959 8257.508 11855.842 10216.200 3267.758 27367.582 7725.864 8454.590 5569.066 7938.618 3790.964 2958.093 3152.339 17685.971 2403.331 10529.430 6034.720 7281.503 8565.737 9848.208 622.755 1807.350 7154.104 11911.656 27990.565 3147.096 0.000 9959.416 7525.343 32357.859 10467.261 7461.205 9017.611 14225.174 7289.038 4564.770 29999.767 4276.534 3839.682 4436.287 8174.684 9210.939 5178.977 7488.999 7732.981 27296.757 3053.893 10728.569 6778.874 12118.937 4694.237 27766.430 13275.871 4047.142 9391.977 699.676 5636.284 7992.077 11685.248 7954.759 12412.105 26945.523 11522.721 11638.373 17565.156 1802.753 29013.273 23662.858 8388.360 17928.602 13630.782 14083.203 17533.480 9124.189 23155.846 4744.906 9793.341 17076.893 17135.887 21766.105 12812.032 20355.463 19057.034 6933.974 10827.596 11893.677 31773.765 31917.488 28807.816 16332.987 7638.635 25022.303 18003.110 10792.278 13516.591 15958.816 4463.845 4653.369 8911.571 2515.397 21238.575 21064.506 7641.427 4802.078 20852.454 18590.872 13104.000 7754.595 10704.143 19792.496 11710.169 13205.471 11873.225 32859.531 7104.410 26946.573 2681.349 24065.670 14261.598 20682.037 18675.215 27215.907 10649.995 7612.128 12314.328 12652.989 29401.532 7444.197 10860.658 6142.785 9998.026
3251.556 4845.423 10740.710 4620.534 8073.202 34562.651 9923.966 15093.806 11155.983 16901.873 18500.725 15182.090 12347.100 6679.168 10167.146 7877.658 10075.269 7925.888 9355.254 12885.356 22976.122 7819.423 6322.841 7667.142 5953.227 11580.575 9236.917 10887.746 16726.522 8997.080 8849.942 11694.834 5860.314 13209.057 8340.188 9535.708 10635.433 5754.304 5128.398 23988.186 10798.328 9959.416 0.000 6984.846 25016.100 9456.972 3027.582 4715.327 20009.121 8357.093 5453.324 36673.368 6693.936 12319.663 5889.017 2312.780 8853.436 7556.969 2986.160 12450.971 22837.335 10581.009 5429.888 6794.446 8770.364 7299.608 20508.947 6296.150 10528.130 7741.855 9566.223 15587.874 6618.150 13081.541 10706.468 21370.503 28050.683 13618.551 16472.787 23489.919 10119.808 23461.272 21264.210 10196.763 18353.105 4674.211 21162.197 23763.051 13919.922 28665.105 7507.109 6557.867 22868.184 16520.751 25525.759 20514.692 30273.230 28536.960 4442.067 13351.746 10509.391 37244.838 22634.965 35939.949 22247.913 9305.377 21140.693 27874.198 20263.259 17492.629 25814.979 5505.371 13189.150 10263.793 11277.994 17873.022 19111.104 12965.938 9554.030 26164.410 9763.501 3651.319 4473.227 6613.437 10978.743 1785.707 22946.133 4274.938 42512.571 5316.957 22250.268 8407.909 14621.718 16698.303 18886.786 18417.177 19735.421 11574.544 12257.581 2356.117 3208.587 21557.706 17384.410 11530.729 10937.144 19315.994
4075.319 6632.655 6330.339 5085.171 12009.715 39253.096 5345.377 8714.399 6143.640 11317.832 18643.938 8575.162 9485.299 5328.369 5140.198 6234.055 3090.705 13582.042 3156.493 8955.927 29430.790 840.684 1189.471 2052.099 1120.624 6606.883 4939.229 6229.580 11196.367 5248.071 3176.783 5485.485 1160.592 6386.387 2458.622 7553.609 6888.828 1308.194 5413.114 30339.069 6137.159 7525.343 6984.846 0.000 24934.542 3372.129 4262.913 9873.302 13108.150 11334.398 5868.201 29754.835 3492.947 7525.352 4085.155 4772.412 2263.172 2379.947 4300.610 5730.341 29309.908 9997.055 3906.434 771.877 4597.145 2833.156 27486.175 12999.220 5280.923 1905.706 7660.812 12359.330 614.544 16631.476 3767.025 19868.820 32329.003 16828.946 9529.094 24729.632 8880.338 30216.623 26998.467 3212.060 22726.609 11655.132 21479.264 24780.664 7073.649 21682.701 8944.752 11623.126 15929.268 10794.817 28255.171 20297.297 25777.505 26170.215 2802.969 16296.333 4810.655 30261.423 25421.084 36296.255 15330.184 12161.506 27409.032 24554.274 18061.439 10511.038 21195.349 5563.995 8170.310 3315.084 7124.393 23889.650 24608.140 6354.632 3886.841 27883.090 12203.611 8186.655 2512.062 12145.977 17887.362 7997.574 18147.367 5881.646 39652.125 8948.788 28782.132 4852.385 21158.626 19923.806 24310.207 12590.977 19867.948 4837.399 5543.824 8764.611 7857.774 22128.153 14111.186 15316.037 12210.861 17370.463
23640.813 20401.846 31187.117 21375.100 33045.475 57688.856 30224.987 31210.919 30812.741 19837.286 42970.687 30447.189 34417.658 29532.323 29915.023 30717.515 25564.513 31988.195 22947.154 33793.326 42442.537 24949.619 23918.383 26981.382 24419.732 31241.513 29869.005 31027.003 19675.190 30173.257 22349.459 29259.239 25076.729 28256.275 22905.733 32276.582 31817.289 25207.015 20790.061 43775.785 30941.012 32357.859 25016.100 24934.542 0.000 22712.515 25773.218 29596.228 31616.624 33358.939 29182.159 43816.558 28097.920 32150.377 28185.153 25331.106 23816.134 27311.907 25766.144 28307.091 42239.022 34377.248 21717.447 25637.573 20495.528 27707.394 35443.357 28881.522 29945.878 23203.289 32368.849 37240.515 24411.577 37982.803 26368.050 44766.766 51946.708 38582.826 28983.556 48421.203 33451.939 40998.009 43309.877 25510.624 42591.796 25898.727 45756.653 48642.101 28500.982 35541.715 32077.989 31274.263 32932.187 20337.099 50440.694 44824.739 49313.612 51048.571 25669.550 38354.133 21623.135 41201.400 10300.969 60667.848 32860.044 34311.088 41657.142 49117.594 42995.120 27910.143 44837.258 29023.748 32594.517 24986.988 31994.328 39650.109 41871.630 29017.410 28554.866 51174.408 15529.700 21495.271 24775.608 31018.454 26942.575 23622.678 41793.611 21190.714 64235.960 30305.991 41447.308 29739.482 25181.904 41601.879 41800.559 20703.209 5282.803 24010.608 28223.798 23630.866 21889.191 3846.386 38943.921 36415.745 35658.751 42298.551
6214.775 7272.804 8683.574 5954.544 15331.439 42597.484 7790.827 8992.741 8176.705 7964.380 21715.504 8480.291 12127.844 8651.601 7370.753 9455.076 2869.897 16688.667 252.387 11210.217 32343.594 2831.559 3301.430 4946.337 3856.745 8583.065 7603.756 8465.131 7836.330 8074.842 735.676 6563.846 4341.088 6086.558 1123.251 10602.565 9465.838 4519.656 5947.248 33305.176 8387.260 10467.261 9456.972 3372.129 22712.515 0.000 7232.894 12995.513 11936.459 14699.222 9238.599 28239.419 6770.392 9475.386 7447.941 7546.604 1257.040 5364.113 7263.864 5853.875 32212.818 13164.471 4585.724 4101.874 2501.949 5947.056 29796.392 15721.121 7330.745 1757.306 10717.937 14665.834 3289.992 19999.281 3725.317 22518.090 35692.038 20201.067 8355.592 27920.335 11989.346 32917.947 30166.127 2834.224 26072.953 13955.084 24544.705 27936.896 6579.549 19853.441 12313.545 14807.782 14509.452 7460.312 31592.459 23270.289 26969.122 28406.184 5936.673 19667.217 1458.852 28226.491 24438.168 39253.648 14018.608 15532.069 30406.690 26409.820 20527.691 8697.477 22410.173 8935.755 9883.783 2358.907 9486.596 26969.719 27821.167 6589.520 5999.776 31122.059 11809.415 9483.373 5329.983 15256.131 19871.996 9996.391 19336.783 6822.081 41534.371 12235.378 31650.289 7812.859 22609.806 23294.847 27536.397 9290.577 17870.338 2424.800 5728.905 10729.174 9287.932 20238.376 16305.841 18671.758 15533.399 19942.711
2137.076 5492.548 7843.852 4401.722 8408.004 35623.538 6979.717 12068.455 8188.287 15085.995 17211.244 12173.886 9841.569 4174.127 7180.019 5442.965 7293.267 9456.399 7077.704 10135.576 25192.978 5098.884 3931.786 4656.007 3407.221 8624.670 6305.600 7958.633 14935.594 6138.505 6756.526 8669.617 3102.503 10257.468 6124.206 7142.930 7853.405 2959.261 4990.859 26121.281 7866.649 7461.205 3027.582 4262.913 25773.218 7232.894 0.000 5771.515 17068.161 8117.790 3433.086 33726.883 3743.637 9400.705 3090.239 765.536 6382.441 4531.240 41.834 9475.443 25069.115 8746.772 4378.928 3917.507 7269.513 4278.616 23326.836 8743.540 7528.214 5478.571 7199.414 13069.194 4044.524 13335.606 7840.390 19491.606 28856.582 13694.412 13573.035 22741.090 8013.053 25954.490 22940.004 7425.694 19155.001 7622.832 19985.724 22918.184 10973.056 25812.428 6347.505 7612.200 19949.424 14628.379 25499.576 19110.121 27554.582 26426.659 1497.645 13277.003 8498.999 34433.269 24515.758 34894.660 19313.517 9045.460 23205.376 25461.497 18130.365 14710.837 23050.039 3319.920 10251.462 7574.159 8440.068 19739.908 20618.437 9966.896 6526.796 25657.834 11247.902 5654.081 1903.203 8025.094 13976.974 4523.371 20128.449 4645.416 40298.851 5267.495 24532.475 5547.349 17639.117 16837.148 20344.189 16490.677 20517.483 9066.177 9281.907 5236.467 5208.773 22546.650 14885.341 11885.717 9930.331 17254.747
7340.797 9560.382 10912.596 9199.237 3469.547 30017.053 10422.487 16261.846 11654.861 20851.728 14791.729 16634.524 11107.545 6564.639 10902.519 7235.265 12707.437 3708.832 12832.596 12283.694 19644.986 10673.347 9695.228 9575.492 9146.731 11966.231 9762.873 11195.746 20698.506 9255.220 12527.990 13043.047 8745.559 15141.320 11892.388 8426.047 10383.024 8579.788 9747.601 20505.857 11129.103 9017.611 4715.327 9873.302 29596.228 12995.513 5771.515 0.000 21822.101 4181.972 5051.917 38285.919 7788.166 12438.078 6732.054 5593.311 12086.677 9275.421 5742.863 14278.556 19534.519 8209.057 9742.291 9360.733 12921.962 8755.012 18860.015 4265.535 11330.391 11245.326 8393.826 14117.137 9756.120 8401.467 13080.408 18372.625 23399.612 8987.167 18548.675 19190.524 8316.888 20715.659 17170.865 12851.163 13685.138 5342.024 17267.798 19532.662 15851.142 30769.928 4739.489 1894.132 24749.798 20398.983 20862.943 16887.068 28921.788 25777.713 7095.025 8788.285 14269.957 39450.552 26453.169 31782.083 24059.839 5043.535 17559.603 25733.672 17734.736 19951.132 24702.170 5340.106 13336.633 13095.966 11147.974 14016.350 14850.949 14598.633 10881.753 21691.854 14160.635 8100.969 7672.190 2272.676 10942.502 5974.865 22099.747 8961.048 39799.499 1950.242 19047.718 8777.655 15466.945 12023.753 14582.368 22262.172 24327.588 14708.655 14093.053 6045.953 7711.635 26058.322 15763.347 6840.342 7306.826 16690.108
17173.282 19118.128 11526.863 17682.830 22642.259 48001.536 11654.970 5887.732 10589.596 11856.594 22975.614 5258.682 13761.632 15370.337 11077.769 15100.723 10079.555 25306.689 11863.961 11875.107 41247.858 12312.873 14027.252 12462.874 14212.691 10450.994 12228.747 11157.901 11995.581 12832.106 12664.296 8791.604 14175.582 6810.977 12722.046 14797.150 12421.039 14267.143 17783.691 41972.283 11189.679 14225.174 20009.121 13108.150 31616.624 11936.459 17068.161 21822.101 0.000 21366.337 16809.085 16664.278 14048.075 10453.560 15101.049 17714.360 11790.995 12677.929 17109.691 7616.026 41157.947 17066.524 16305.773 13216.105 14245.123 13124.029 40355.213 25618.298 10647.183 13067.230 14900.694 13719.485 13582.545 25892.396 9341.126 21050.406 40794.425 25674.158 3620.754 29427.086 15927.612 42531.242 37845.091 9983.418 32097.244 24673.413 25354.958 29119.183 6095.126 8995.836 18676.883 23184.944 2928.490 11310.147 34752.167 23597.146 18855.409 24091.280 15588.540 24955.022 11988.680 17674.898 35547.408 38038.934 2249.320 21822.564 38994.501 20727.609 18521.064 3753.260 14955.702 16503.897 9791.012 10090.984 11722.457 35256.162 35261.828 7227.493 10940.635 32869.087 23625.778 21114.102 15575.143 23954.990 30973.462 21105.659 12416.238 18555.364 34845.996 20264.600 40735.638 13195.782 34222.554 28222.688 34886.722 11362.169 27632.895 9550.618 7808.295 21872.677 20838.537 30079.064 14249.967 25080.014 20269.534 18586.092
10149.886 13018.913 9855.523 12314.552 1562.517 27946.186 9741.990 15514.929 10778.269 22651.731 10619.141 16116.119 8739.720 6419.527 10350.881 6317.885 13590.824 5091.312 14489.398 10342.834 20081.361 11990.864 11586.359 10274.981 10971.535 10945.774 9232.878 10216.369 22530.717 8594.294 14405.683 12744.730 10394.872 15167.693 13700.996 6675.780 9029.880 10214.279 12901.578 20703.609 10180.448 7289.038 8357.093 11334.398 33358.939 14699.222 8117.790 4181.972 21366.337 0.000 5473.548 37288.320 8244.690 11119.292 7346.780 8312.125 13579.181 9876.506 8107.711 14283.782 20012.611 5225.630 12491.006 10641.959 15277.883 9252.646 21051.069 7697.154 10771.038 13069.906 6589.548 11270.186 11442.415 5303.800 13693.088 14393.243 20994.647 5585.272 18485.476 15149.605 5894.022 21816.352 16491.051 13740.128 11429.650 9446.378 13088.261 15449.783 15822.211 30346.660 2710.738 3497.481 24258.534 22122.544 17400.271 12721.186 25733.315 21841.849 8950.658 5162.265 16114.184 38997.341 30605.069 27675.019 23524.928 954.281 17733.953 22103.978 14002.502 20183.214 21741.853 5787.650 11942.356 14123.456 9781.474 13953.595 13929.533 14399.944 10854.606 17815.526 18088.353 11967.006 9773.576 4419.425 14475.749 9894.687 19394.205 12294.117 35830.567 3054.042 19674.641 8331.660 19181.590 8726.187 13570.069 23894.304 28076.352 15890.990 14122.423 10089.054 11541.728 29914.723 12706.283 4006.778 3273.135 12923.680
5546.498 8921.758 5942.998 7809.148 6278.650 33415.039 5383.884 11210.064 6629.328 17181.572 13790.093 11597.298 6928.068 1536.334 5851.292 2504.222 8197.929 8509.037 9024.694 7671.921 24498.457 6517.620 6211.739 4893.052 5592.760 6963.802 4715.735 6198.451 17062.763 4233.619 8976.860 8018.168 4978.823 10213.631 8264.880 4099.697 5551.141 4799.404 8392.391 25284.223 6126.058 4564.770 5453.324 5868.201 29182.159 9238.599 3433.086 5051.917 16809.085 5473.548 0.000 33235.134 2908.251 7510.069 1911.466 3996.378 8106.541 4522.741 3445.562 9336.445 24400.085 5333.077 7591.903 5168.630 10002.505 3927.953 23869.800 9126.192 6278.664 7645.123 4122.899 10158.231 6011.571 10764.340 8397.626 16121.016 26465.702 10967.191 13615.779 19433.777 4704.212 25725.545 21532.553 8347.105 16892.103 9124.218 16575.949 19579.112 10911.549 25781.124 3148.502 6396.196 19737.498 16649.641 22523.217 15678.138 24920.148 23162.885 3706.883 10450.605 10665.517 34465.856 27828.560 31490.939 19039.181 6293.494 22313.065 22421.087 14870.289 15133.517 20516.047 327.982 8412.817 8698.490 6282.937 18645.820 19055.434 9604.354 5890.765 22432.768 14629.611 8809.722 4601.824 7145.981 15384.743 7229.972 17727.166 8077.982 37103.430 3481.827 23953.044 3733.105 19548.968 14074.636 18729.626 18421.716 23934.952 10446.707 9156.850 7794.547 8350.104 25977.421 11944.636 9470.307 6643.663 13954.272
33804.483 35511.759 27550.072 34148.563 38693.516 61983.418 27900.383 22026.704 26709.291 25099.924 35987.862 21679.775 28844.434 31738.693 27391.118 31270.634 26696.422 41631.534 28212.016 27054.623 57366.491 28948.025 30632.100 29102.417 30850.479 26458.107 28539.382 27221.229 25317.818 29084.194 28974.585 25280.063 30834.943 23470.706 29147.381 30615.263 28287.802 30929.042 34183.416 57982.246 27274.637 29999.767 36673.368 29754.835 43816.558 28239.419 33726.883 38285.919 16664.278 37288.320 33235.134 0.000 30589.924 26181.839 31630.016 34377.946 28292.230 29296.600 33768.496 24256.937 57294.076 32442.539 32765.533 29879.923 30307.151 29708.837 56973.630 42205.242 26961.038 29562.461 30699.415 27471.456 30210.503 41212.743 25991.178 32319.798 54847.102 40816.406 20226.480 41722.607 31488.183 58897.924 53488.150 26591.423 47120.183 41337.079 37659.302 41194.708 22756.798 8653.014 34700.815 39510.415 13829.746 24848.931 47793.479 35817.439 22385.062 31602.675 32250.851 40065.241 27966.680 5288.363 49986.270 46802.705 14427.806 37585.454 55017.999 27446.157 29988.787 19541.964 21618.865 32946.150 25346.529 26643.402 27523.752 51228.440 50864.408 23811.277 27471.651 44982.427 39420.200 37640.507 32234.176 40335.641 47634.304 37746.336 21360.228 35023.232 36530.037 36615.708 56931.535 29525.433 50786.535 42897.879 50458.545 23756.364 41043.299 25815.651 24450.230 38512.759 37392.296 43364.422 27067.815 40672.432 35573.253 30576.693
5192.113 8585.823 4106.668 7167.953 9164.018 36167.252 3238.196 8642.449 4462.081 14575.989 15186.506 8910.203 6500.938 1901.076 3482.613 2747.358 5346.162 11361.281 6534.550 6493.881 27363.865 3942.624 4254.372 2030.969 3700.885 4889.616 2562.006 4215.055 14473.991 2447.230 6658.640 5310.640 3032.590 7358.000 5943.598 4183.419 4213.634 2893.872 7675.334 28168.276 4123.215 4276.534 6693.936 3492.947 28097.920 6770.392 3743.637 7788.166 14048.075 8244.690 2908.251 30589.924 0.000 5657.128 1056.128 4509.114 5551.909 1633.970 3781.465 6491.436 27261.680 6517.828 6453.893 2721.669 8038.195 1021.804 26396.335 11618.017 3860.915 5397.002 4279.803 9630.697 3853.600 13463.421 5495.491 16683.757 29158.491 13578.788 10765.994 21237.367 5438.089 28503.324 24439.361 5495.480 19667.353 11076.140 18020.841 21292.881 8065.315 22982.579 5671.221 9265.518 16973.340 14014.672 24826.829 16885.546 23877.109 23285.944 2787.961 13004.016 8228.680 31662.492 27781.571 32873.130 16291.219 8989.044 25200.280 22028.033 15049.003 12236.834 19350.974 2581.458 6509.881 5885.977 4736.658 21546.218 21956.259 6820.584 3119.051 24392.489 14438.088 9283.458 3527.574 9970.135 17452.749 8265.382 16406.412 7723.016 37003.427 6370.797 26799.887 1871.680 21301.629 16625.359 21626.974 15732.564 22943.692 7665.719 6306.831 8969.642 8856.263 25125.011 11442.344 12249.483 8764.784 14272.109
10682.851 13893.053 1590.849 12378.417 12511.711 37647.277 2431.044 4581.466 1381.730 15619.843 13548.973 5386.052 3556.786 5980.927 2408.378 5211.444 6708.041 15538.893 9232.620 1919.900 31186.753 7297.224 8693.049 5562.643 8383.273 922.220 3095.122 1443.920 15599.798 3350.636 9801.200 3266.241 7869.503 5530.731 9256.612 4445.229 2110.945 7820.608 12799.163 31822.886 1537.477 3839.682 12319.663 7525.352 32150.377 9475.386 9400.705 12438.078 10453.560 11119.292 7510.069 26181.839 5657.128 0.000 6441.259 10166.210 8335.534 5383.925 9438.429 4869.145 31113.034 6615.181 11364.301 6986.042 11669.248 5311.852 31295.538 16615.481 2249.892 9021.513 4535.874 5255.569 8126.375 15444.412 6044.643 13306.422 30454.761 15221.325 8154.937 20065.534 5479.913 32767.809 27495.987 6791.852 21644.126 16527.157 16240.740 19908.644 5921.282 19339.963 8520.522 13438.350 13271.952 14972.679 24826.619 14700.938 18360.185 18930.800 8330.067 14504.386 10711.104 27942.492 32926.121 30405.100 12523.501 11476.970 28852.617 17066.055 11153.155 10148.995 13797.391 7285.295 902.830 7345.968 1342.114 25072.492 24893.715 4500.220 3659.252 23463.671 19647.124 14880.571 8893.849 14312.802 22855.594 13921.091 10803.074 13062.219 32186.745 10617.817 30750.900 3927.682 26872.354 17818.781 24508.140 16280.938 27208.238 8783.936 4822.206 14619.583 14465.885 29522.861 6834.663 14680.648 9816.298 10677.225
4852.836 8312.092 4856.274 6989.406 8190.106 35292.337 4081.881 9658.571 5337.770 15349.525 14891.679 9951.002 6788.561 1357.923 4412.857 2546.839 6286.606 10311.052 7224.008 7052.866 26314.133 4669.878 4617.997 2983.396 4014.129 5739.403 3386.697 5021.331 15237.590 3108.108 7249.806 6350.386 3353.098 8413.168 6531.424 4195.429 4776.668 3184.629 7535.025 27124.176 4934.670 4436.287 5889.017 4085.155 28185.153 7447.941 3090.239 6732.054 15101.049 7346.780 1911.466 31630.016 1056.128 6441.259 0.000 3839.450 6276.140 2621.528 3122.667 7547.395 26211.140 6219.733 6467.877 3346.784 8453.654 2047.091 25366.631 10585.664 4812.957 5938.663 4269.932 9999.556 4321.159 12612.017 6497.478 16705.978 28317.450 12772.329 11821.180 20796.438 5270.375 27447.314 23432.496 6435.808 18775.750 10141.823 17715.976 20888.400 9121.041 24038.468 4868.391 8220.171 18026.945 14805.284 24176.372 16668.673 24472.730 23483.198 2542.057 12224.805 8894.014 32718.560 27481.203 32613.344 17343.228 8132.153 24157.753 22403.240 15203.423 13278.736 19978.753 1584.396 7320.857 6791.794 5393.949 20512.685 20962.469 7873.814 4165.551 23891.022 14156.919 8738.799 3415.365 8916.667 16507.578 7539.499 17077.841 7444.016 37294.591 5336.332 25746.934 2519.631 20437.319 15852.375 20638.462 16557.583 22987.333 8548.083 7362.594 8213.073 8296.303 25117.732 11817.092 11352.139 8152.361 14373.052
1844.597 4963.445 8609.097 4025.671 8461.973 35570.292 7744.794 12787.577 8951.307 15291.452 17702.349 12869.317 10561.528 4872.185 7940.348 6135.509 7846.535 9216.855 7410.969 10890.515 24804.304 5613.053 4277.278 5355.196 3817.234 9388.740 7071.098 8724.060 15132.678 6901.194 7016.886 9389.026 3621.364 10908.591 6425.253 7835.513 8610.238 3498.613 4617.366 25758.927 8632.028 8174.684 2312.780 4772.412 25331.106 7546.604 765.536 5593.311 17714.360 8312.125 3996.378 34377.946 4509.114 10166.210 3839.450 0.000 6789.612 5253.933 728.232 10142.985 24675.739 9329.439 4235.860 4513.068 7330.773 5026.790 22730.621 8250.288 8285.129 5791.500 7887.128 13795.194 4477.258 13448.639 8438.811 20109.484 28864.748 13853.324 14194.464 23120.310 8651.038 25477.839 22707.286 7973.824 19149.342 6959.134 20456.923 23319.534 11621.377 26412.786 6746.958 7472.980 20583.183 14857.445 25712.196 19629.603 28310.422 27092.907 2131.557 13470.993 8742.990 35015.505 23859.720 35351.004 19956.170 9255.473 22860.924 26177.771 18795.250 15273.624 23809.529 3925.708 11016.428 8083.662 9202.368 19448.449 20428.852 10653.553 7261.782 25984.893 10633.603 4929.320 2287.612 7800.876 13288.764 3759.151 20891.422 4144.690 40986.807 5355.588 24123.009 6309.778 16897.097 16992.236 20167.747 16735.072 20062.769 9501.629 9949.507 4476.498 4478.996 22052.477 15609.808 11965.531 10329.562 17905.364
5686.193 7340.327 7473.580 5891.919 14272.549 41509.263 6564.192 8275.615 7010.530 9077.204 20458.465 7879.114 10894.671 7443.899 6166.840 8214.609 1997.563 15793.775 1007.440 10027.712 31572.322 1612.587 2532.672 3693.408 2980.461 7430.626 6356.640 7269.936 8962.441 6820.185 1467.830 5567.043 3344.093 5498.401 1052.828 9346.006 8232.967 3514.030 6009.196 32503.663 7189.389 9210.939 8853.436 2263.172 23816.134 1257.040 6382.441 12086.677 11790.995 13579.181 8106.541 28292.230 5551.909 8335.534 6276.140 6789.612 0.000 4113.164 6416.944 5108.915 31447.063 11913.102 4515.415 2938.736 3377.237 4703.235 29326.016 15034.091 6152.490 1276.602 9461.536 13485.628 2338.970 18869.461 2902.677 21294.775 34572.210 19047.277 8171.167 26667.963 10734.395 32260.454 29236.217 2019.992 24982.849 13456.704 23287.693 26681.900 6080.175 20030.336 11143.802 13860.495 14485.811 8543.372 30378.590 22015.842 26069.512 27256.316 4991.663 18500.296 2703.235 28511.862 25193.313 38001.465 13945.942 14393.737 29585.669 25340.015 19329.974 8810.106 21496.314 7796.328 8794.300 1728.546 8279.866 26097.163 26857.882 5833.515 4793.644 29875.592 12319.515 9350.466 4510.139 14357.635 19530.030 9595.543 18422.426 6764.914 40468.656 11209.709 30903.617 6555.898 22494.305 22127.606 26563.002 10329.756 18909.448 2722.198 4958.762 10349.877 9101.059 21252.853 15149.228 17568.205 14316.021 18728.315
5382.984 8510.621 4044.880 6994.653 10792.463 37789.458 3055.506 7537.233 4028.257 13029.288 16376.918 7666.442 7106.233 3494.128 2980.693 4117.243 3715.375 12901.912 5118.061 6654.040 28901.218 2561.569 3435.987 426.145 3038.655 4495.582 2580.719 4000.530 12935.486 2868.749 5364.374 4138.380 2488.710 5902.058 4674.077 5258.081 4525.674 2436.761 7422.275 29726.001 3905.063 5178.977 7556.969 2379.947 27311.907 5364.113 4531.240 9275.421 12677.929 9876.506 4522.741 29296.600 1633.970 5383.925 2621.528 5253.933 4113.164 0.000 4572.890 5064.992 28795.213 7800.438 6017.313 1688.870 6949.072 630.999 27682.773 12941.949 3227.243 4214.902 5370.767 10018.104 2909.287 15081.873 3876.287 17490.309 30768.822 15179.798 9297.389 22556.235 6630.093 29963.409 26052.896 3864.552 21295.540 12128.897 19210.094 22575.863 6618.756 21550.781 7284.476 10824.774 15589.779 12455.582 26322.873 17982.920 23741.105 23816.821 3176.165 14592.932 6816.341 30218.197 27573.546 33981.856 14927.085 10612.120 26762.746 22287.036 15686.689 10682.559 19172.992 4194.780 6125.687 4268.515 4816.241 23128.524 23578.076 5487.160 2025.252 25763.380 14271.466 9629.051 3570.759 11494.720 18497.749 8946.390 16159.978 7684.604 37359.096 7954.645 28319.425 2497.627 22144.473 18207.619 23251.343 14147.107 22233.611 6056.623 4874.064 9691.012 9237.621 24480.362 11787.671 13880.046 10267.522 14990.758
2132.998 5478.045 7880.866 4396.334 8390.577 35602.139 7017.925 12110.095 8227.268 15113.122 17220.519 12215.716 9870.249 4199.723 7219.549 5468.196 7332.698 9426.025 7109.444 10169.411 25157.723 5136.912 3963.041 4697.840 3440.848 8663.336 6343.357 7996.512 14962.349 6174.238 6785.152 8711.269 3140.112 10299.022 6154.415 7168.366 7887.605 2997.508 4985.990 26086.946 7904.588 7488.999 2986.160 4300.610 25766.144 7263.864 41.834 5742.863 17109.691 8107.711 3445.562 33768.496 3781.465 9438.429 3122.667 728.232 6416.944 4572.890 0.000 9517.163 25033.699 8762.374 4386.711 3957.711 7289.105 4319.400 23285.927 8704.697 7568.195 5509.098 7224.341 13098.699 4079.374 13321.820 7880.970 19510.610 28838.044 13683.099 13614.174 22743.075 8033.272 25916.470 22910.544 7464.992 19135.551 7581.030 19993.704 22921.588 11014.581 25853.243 6349.363 7585.649 19990.795 14656.501 25491.705 19121.486 27588.673 26450.011 1538.014 13267.580 8527.236 34473.734 24492.847 34901.874 19355.009 9036.435 23171.640 25489.960 18153.489 14750.742 23084.928 3335.981 10289.723 7612.333 8475.691 19708.067 20590.706 10008.723 6568.114 25656.648 11228.097 5623.903 1933.904 7995.128 13935.146 4484.930 20164.330 4632.428 40324.362 5250.815 24496.519 5582.985 17598.240 16825.822 20317.007 16519.530 20509.461 9102.022 9323.627 5197.127 5177.985 22536.029 14914.685 11870.082 9932.881 17276.544
9783.146 12210.438 5035.363 10684.756 15416.736 41788.593 4698.130 3167.078 4104.724 10800.391 18377.537 2854.552 8328.393 7988.524 4055.895 7981.409 3112.085 17839.026 5665.527 6787.033 33834.683 5026.960 6799.343 4848.091 6850.146 4263.937 5085.981 4662.356 10793.417 5740.477 6431.458 1715.379 6697.837 885.426 6161.327 8180.263 6048.747 6766.540 10914.924 34615.900 4641.858 7732.981 12450.971 5730.341 28307.091 5853.875 9475.443 14278.556 7616.026 14283.782 9336.445 24256.937 6491.436 4869.145 7547.395 10142.985 5108.915 5064.992 9517.163 0.000 33735.664 10785.830 9376.719 5699.601 8342.969 5533.044 32739.377 18006.899 3690.446 6258.975 8300.064 9977.313 6280.506 19199.422 2207.704 18082.038 34650.042 19133.745 4279.649 24873.628 9535.219 34991.706 30729.328 3093.508 25475.755 17095.706 21094.539 24740.789 1575.560 16498.772 11576.175 15731.569 10524.876 10148.379 29429.184 19568.976 21145.561 23244.099 8011.502 18467.177 6710.662 25174.769 30268.507 35243.876 9865.325 14872.959 31642.620 20904.049 15827.289 5902.535 16603.706 9019.358 4852.832 3500.470 5612.195 27954.393 28195.744 735.645 3463.470 28250.680 17418.686 13912.861 8085.177 16457.072 23429.659 13652.007 13536.550 11524.549 35975.670 12817.877 33282.916 5952.511 26859.708 21964.567 27844.793 11413.704 23608.101 4327.276 193.549 14416.573 13587.970 26004.164 11361.157 18186.538 13827.707 15442.978
26076.141 26724.685 29778.308 27188.723 18603.202 17523.878 29524.229 35399.783 30657.753 39716.697 25262.232 35907.038 28635.256 25796.263 30085.430 26093.140 32226.805 15900.400 32084.319 30327.062 218.337 30132.610 28952.016 29105.770 28466.760 30873.671 28932.077 30121.402 39535.232 28339.865 31648.186 32381.140 28156.525 34610.822 31089.621 26679.877 29009.699 28002.136 27567.263 1594.073 30074.982 27296.757 22837.335 29309.908 42239.022 32212.818 25069.115 19534.519 41157.947 20012.611 24400.085 57294.076 27261.680 31113.034 26211.140 24675.739 31447.063 28795.213 25033.699 33735.664 0.000 25021.654 28217.168 28854.988 31570.221 28254.259 8606.401 16544.126 30517.241 30462.674 26597.113 30705.416 29112.252 16832.552 32614.920 30336.998 15095.957 17506.890 38015.295 24181.569 25867.212 3451.503 5856.695 32368.838 12827.136 18847.983 25799.053 24956.130 35311.068 50150.451 22598.714 18004.149 44080.127 39351.831 20158.113 26882.316 43756.597 36980.743 26506.947 18222.823 33335.925 58832.703 34720.800 34409.465 43364.996 19777.559 2536.159 38908.962 31286.889 39477.626 40451.006 24716.343 31948.844 32587.692 29771.483 6219.269 7834.322 33993.497 30288.531 23897.074 28145.482 24309.957 26939.320 17300.503 15375.505 22796.769 38602.671 26563.062 49429.540 20920.559 815.719 27962.248 17541.002 16896.392 8273.946 41249.875 37662.063 34134.223 33555.047 22226.323 24211.196 38397.396 31775.460 16927.990 22080.075 30236.720
10820.254 14238.477 5788.777 13059.969 6781.496 31092.464 6130.363 11195.518 6758.043 20674.617 8682.029 11965.847 3618.430 4862.342 6765.411 3771.390 11171.213 10250.498 12918.478 5394.594 25076.271 10348.999 10751.202 8219.798 10172.667 6751.749 5926.660 6172.987 20600.478 5310.022 13131.733 9084.161 9500.875 11614.450 12424.925 2672.379 4789.078 9345.136 13631.114 25606.523 6176.811 3053.893 10581.009 9997.055 34377.248 13164.471 8746.772 8209.057 17066.524 5225.630 5333.077 32442.539 6517.828 6615.181 6219.733 9329.439 11913.102 7800.438 8762.374 10785.830 25021.654 0.000 12668.241 9225.742 14555.287 7225.486 26257.710 12370.140 7101.031 11902.448 2549.546 6073.349 10370.618 8862.033 10939.779 10809.770 23919.892 8607.989 14636.134 14756.332 1258.372 26971.419 21052.429 11308.229 15031.225 13386.962 11512.824 14787.352 12161.903 25912.547 3474.198 8395.187 19864.788 20071.896 18740.227 10453.300 20748.687 17969.165 8709.077 7889.230 14616.317 34468.392 33133.335 26396.476 19112.486 5263.034 22665.014 17582.885 9730.138 16543.867 16623.881 5427.036 7301.708 11811.517 5395.055 18864.555 18432.443 10678.045 7786.472 17973.008 19962.226 14087.120 9607.276 9352.583 19135.260 12362.166 14191.856 13386.730 31970.414 6296.007 24731.244 5412.961 23671.661 11245.829 18032.674 21653.682 29158.265 13580.469 10665.885 12834.072 13626.857 31246.267 7607.723 8229.999 3205.923 8751.487
2409.691 2843.654 10061.551 1383.172 12697.476 39758.545 9072.691 12479.587 9987.958 11499.529 21306.112 12222.331 12927.552 7815.538 8957.959 9004.643 6356.725 13245.277 4577.340 12661.283 28360.653 4409.791 2717.419 5802.791 2983.564 10455.330 8564.576 10011.594 11318.694 8723.785 3869.560 9358.805 3550.003 9898.450 3618.336 10594.513 10473.585 3639.698 1539.252 29394.135 9916.649 10728.569 5429.888 3906.434 21717.447 4585.724 4378.928 9742.291 16305.773 12491.006 7591.903 32765.533 6453.893 11364.301 6467.877 4235.860 4515.415 6017.313 4386.711 9376.719 28217.168 12668.241 0.000 4378.295 3353.241 6252.767 25328.776 11680.317 9140.491 3240.613 10681.383 15975.984 3291.932 17675.060 7218.655 23123.051 33089.967 18059.043 12686.393 27023.982 11736.588 28696.256 26670.008 6422.556 23372.005 9588.747 24115.940 27170.384 10525.650 24426.070 10661.735 11635.831 18981.348 11144.176 29878.395 23121.306 29671.298 29716.062 3961.752 17652.405 5311.564 32811.850 21563.433 39029.983 18452.994 13422.340 26561.365 28297.465 21498.624 13236.809 25090.962 7393.539 12047.555 6230.203 10825.393 23300.423 24472.395 10058.640 7769.180 29992.865 8302.162 4899.731 3060.965 11868.664 15323.785 5562.628 22047.915 2258.118 43350.901 9582.532 27612.443 8219.073 18039.836 21201.086 24231.856 13043.449 16523.701 6978.236 9203.456 6256.671 4704.552 18678.312 17766.150 16199.310 14220.901 20725.794
4124.765 6984.822 5713.603 5445.148 11364.541 38577.917 4723.548 8550.424 5609.926 12015.754 17875.609 8501.206 8781.693 4566.572 4580.391 5462.188 3390.986 13063.371 3877.225 8332.022 28971.961 1358.138 1747.782 1427.086 1401.704 6077.496 4269.483 5643.241 11899.811 4535.804 3941.655 5225.032 1017.078 6426.009 3224.753 6792.891 6214.163 1067.757 5830.976 29858.665 5548.943 6778.874 6794.446 771.877 25637.573 4101.874 3917.507 9360.733 13216.105 10641.959 5168.630 29879.923 2721.669 6986.042 3346.784 4513.068 2938.736 1688.870 3957.711 5699.601 28854.988 9225.742 4378.295 0.000 5356.609 2085.308 27235.898 12648.042 4766.049 2677.505 6899.015 11706.360 1226.054 15930.764 3927.766 19145.719 31633.905 16111.657 9682.291 23957.863 8112.542 29834.528 26432.655 3528.122 22052.324 11464.364 20710.922 24008.884 7132.604 21903.269 8214.390 11069.340 16074.550 11481.100 27501.594 19535.916 25306.620 25505.516 2420.050 15570.113 5551.317 30517.123 25940.676 35533.914 15453.666 11455.095 26918.130 23957.529 17367.822 10794.836 20729.381 4857.664 7676.921 3736.371 6494.726 23366.726 24020.875 6268.997 3414.934 27113.106 12669.717 8342.109 2385.979 11630.021 17759.618 7952.966 17695.831 6190.931 39038.587 8338.482 28340.901 4115.843 21167.551 19197.823 23716.097 13257.273 20548.978 5377.949 5507.762 8717.159 7984.499 22792.127 13473.189 14634.389 11451.350 16661.106
5624.376 5464.352 10700.644 4481.946 15672.060 42884.693 9749.397 11490.806 10321.312 8146.588 23222.618 10980.864 14012.497 9780.128 9420.797 10783.922 5296.054 16503.672 2677.883 13299.287 31713.851 4475.161 3835.665 6580.215 4443.638 10755.253 9439.169 10532.616 7965.458 9808.909 1931.701 8939.881 5100.557 8588.073 2412.874 12149.232 11373.919 5270.007 4254.394 32746.346 10447.202 12118.937 8770.364 4597.145 20495.528 2501.949 7269.513 12921.962 14245.123 15277.883 10002.505 30307.151 8038.195 11669.248 8453.654 7330.773 3377.237 6949.072 7289.105 8342.969 31570.221 14555.287 3353.241 5356.609 0.000 7429.956 28535.386 15033.230 9452.471 2741.856 12255.595 16750.275 4184.712 20553.919 6181.795 24420.276 36124.265 20859.789 10718.881 29241.082 13463.618 32023.618 29966.683 5281.809 26424.513 12899.164 26057.485 29316.199 9071.569 21807.944 13151.002 14803.753 16704.344 7799.554 32524.208 24892.515 29420.130 30553.443 6339.168 20392.715 2341.938 30006.154 21936.851 40890.402 16258.519 16173.525 29909.423 28704.995 22543.714 10830.997 24852.443 9740.534 12159.445 4842.501 11509.076 26625.984 27732.739 9078.167 8059.338 32344.156 9392.879 7892.211 5505.068 15105.184 18440.009 8867.810 21778.091 5254.040 43833.482 12529.290 30964.267 9441.010 20798.801 23995.393 27480.512 9698.395 15544.608 4710.656 8212.138 9530.587 7797.011 17879.227 18448.437 19132.603 16583.471 21893.286
5371.316 8623.088 3869.651 7136.621 10185.430 37160.271 2903.200 7844.864 4004.857 13653.039 15834.768 8042.573 6726.607 2863.435 2963.361 3512.060 4342.640 12355.208 5703.657 6426.199 28358.100 3123.934 3789.904 1050.759 3321.643 4462.596 2328.274 3885.143 13557.648 2485.201 5910.928 4464.046 2705.329 6388.786 5209.619 4726.696 4220.943 2614.577 7597.076 29171.033 3789.274 4694.237 7299.608 2833.156 27707.394 5947.056 4278.616 8755.012 13124.029 9252.646 3927.953 29708.837 1021.804 5311.852 2047.091 5026.790 4703.235 630.999 4319.400 5533.044 28254.259 7225.486 6252.767 2085.308 7429.956 0.000 27264.971 12501.620 3276.556 4716.794 4835.847 9724.486 3304.190 14452.153 4473.707 17066.454 30138.055 14548.801 9794.749 21980.833 6074.862 29461.913 25460.172 4491.660 20668.595 11805.725 18669.505 22010.079 7101.103 22031.808 6654.415 10267.003 16044.132 13081.486 25705.877 17468.577 23659.089 23489.815 3044.610 13962.216 7403.454 30706.794 27761.131 33468.301 15371.164 9983.618 26204.816 22055.977 15317.182 11231.818 19104.114 3600.633 6105.673 4899.337 4599.854 22558.071 22978.032 5904.573 2276.595 25175.015 14433.236 9583.938 3585.306 10956.317 18183.732 8767.132 16114.875 7779.059 37098.498 7381.400 27786.262 2033.607 21917.503 17577.378 22648.761 14776.820 22600.674 6687.617 5345.313 9498.123 9177.197 24825.349 11513.426 13254.792 9647.189 14593.441
23642.578 23167.920 29772.060 24067.413 19488.635 26129.755 29253.271 35021.610 30497.995 36463.006 29153.174 35301.391 29637.471 25400.852 29701.106 26086.570 30572.439 16017.950 29730.034 31021.834 8819.426 28323.752 26810.095 27892.556 26461.734 30820.722 28580.171 30051.144 36255.793 28099.364 29126.535 31705.405 26346.957 33552.461 28711.666 27153.686 29227.295 26228.656 24287.956 10131.371 29982.813 27766.430 20508.947 27486.175 35443.357 29796.392 23326.836 18860.015 40355.213 21051.069 23869.800 56973.630 26396.335 31295.538 25366.631 22730.621 29326.016 27682.773 23285.927 32739.377 8606.401 26257.710 25328.776 27235.898 28535.386 27264.971 0.000 14781.281 30122.024 28155.443 27103.814 32320.029 27126.243 19948.903 31163.499 34028.320 23250.084 20817.265 36896.573 29801.380 26755.198 5995.153 13198.143 30697.035 18405.238 15869.338 30418.353 30509.448 34270.558 49138.545 23119.525 17995.797 43255.947 36220.593 27026.571 31080.117 46602.101 41243.749 24822.073 21377.684 30640.117 57745.294 27051.389 41234.473 42604.397 21212.099 9738.279 42429.684 34380.576 37997.210 42756.813 24136.011 32192.413 30772.695 29996.393 11100.301 13955.718 33163.804 29509.784 30303.567 22879.261 20679.385 24974.998 17068.122 10201.462 19802.541 40444.209 23281.835 54564.342 20694.122 7846.504 27601.257 10266.765 21466.581 14272.923 38092.028 31320.321 32033.660 32546.977 19080.805 20741.493 31669.745 33735.148 19352.439 23932.874 33281.945
9542.653 10427.112 15062.834 10702.599 6364.009 29171.744 14497.794 20240.603 15750.609 23177.719 18043.605 20526.954 15369.854 10662.396 14929.734 11444.909 16033.935 3482.877 15606.391 16538.888 16684.801 13838.072 12508.849 13175.302 12067.310 16089.984 13818.161 15324.380 22998.404 13358.980 15132.892 16928.484 11839.310 18837.273 14599.310 12688.242 14592.116 11700.997 11121.470 17714.848 15252.245 13275.871 6296.150 12999.220 28881.522 15721.121 8743.540 4265.535 25618.298 7697.154 9126.192 42205.242 11618.017 16615.481 10585.664 8250.288 15034.091 12941.949 8704.697 18006.899 16544.126 12370.140 11680.317 12648.042 15033.230 12501.620 14781.281 0.000 15348.178 13984.939 12657.681 18349.545 12727.454 10053.654 16547.168 22076.418 23100.494 10869.045 22213.729 21531.764 12561.722 17227.689 15319.052 16167.590 13734.136 2985.427 20256.738 21991.908 19555.239 34474.312 8938.094 4204.020 28531.728 22808.100 22049.589 20161.018 33117.646 29530.900 10233.379 10956.698 16803.911 43124.198 24330.600 34187.467 27867.006 8309.744 14900.452 29748.518 21673.675 23439.236 28938.481 9379.576 17517.598 16313.949 15349.162 11791.910 13395.153 18406.023 14734.412 23589.344 13429.045 8204.145 10537.752 3332.107 6801.223 6391.980 26359.526 10142.253 43501.673 6208.804 15954.122 12845.134 11484.577 13438.958 13240.196 24705.924 23740.801 17750.359 17815.789 5944.736 7996.093 25154.710 19965.848 8596.239 10969.480 20602.886
8600.899 11719.937 1465.478 10192.158 12003.532 38107.050 1034.854 4934.385 873.322 13955.848 14957.025 5390.738 4974.824 4778.312 432.464 4464.689 4675.032 14702.852 7083.145 3879.506 30605.233 5051.539 6454.464 3355.461 6167.436 1328.207 1587.334 1164.906 13912.534 2187.320 7609.543 2016.059 5683.639 4537.302 7040.539 4490.948 2439.307 5649.551 10594.641 31325.161 1102.740 4047.142 10528.130 5280.923 29945.878 7330.745 7528.214 11330.391 10647.183 10771.038 6278.664 26961.038 3860.915 2249.892 4812.957 8285.129 6152.490 3227.243 7568.195 3690.446 30517.241 7101.031 9140.491 4766.049 9452.471 3276.556 30122.024 15348.178 0.000 6782.436 4610.367 7336.082 5885.168 15559.405 4152.093 15240.564 30962.820 15466.779 7736.309 21393.732 5847.687 31963.280 27261.056 4779.045 21832.151 14934.605 17730.765 21305.029 5129.973 19643.019 8064.467 12578.388 13564.651 13323.653 25787.181 16301.369 20542.761 21108.741 6317.817 14792.478 8628.232 28319.962 30694.447 32176.447 12847.757 11297.741 28347.384 19312.261 13200.719 9532.670 15967.815 5997.045 2912.484 5334.771 2213.227 24612.494 24699.277 3663.940 1410.312 24735.156 17435.763 12837.931 6791.977 13382.550 21308.906 12036.252 12943.184 10902.489 34429.583 9667.579 30104.422 2568.790 25148.064 18276.811 24336.250 14773.040 24979.347 6928.469 3565.745 12761.397 12438.343 27285.845 9000.921 14600.246 10140.901 12641.781
4521.791 6071.689 7984.079 4615.601 13643.627 40919.585 7023.086 9411.494 7655.454 9660.067 20544.526 9072.045 11271.368 7214.609 6721.065 8139.655 3168.882 14934.967 1622.512 10595.551 30592.593 1746.386 1551.095 3840.038 2129.758 8101.072 6698.563 7832.244 9521.638 7068.872 1335.868 6511.848 2675.127 6711.771 648.677 9443.462 8636.330 2855.709 4743.529 31550.414 7744.671 9391.977 7741.855 1905.706 23203.289 1757.306 5478.571 11245.326 13067.230 13069.906 7645.123 29562.461 5397.002 9021.513 5938.663 5791.500 1276.602 4214.902 5509.098 6258.975 30462.674 11902.448 3240.613 2677.505 2741.856 4716.794 28155.443 13984.939 6782.436 0.000 9552.310 14037.857 1633.621 18373.681 4059.752 21678.451 34045.884 18607.797 9447.147 26634.349 10780.853 31194.604 28416.112 3218.435 24401.488 12292.631 23379.775 26686.369 7316.312 21280.488 10764.246 13065.644 15760.122 9177.213 30112.940 22184.715 27023.520 27850.021 4213.234 18095.635 3064.847 29737.930 24170.807 38184.565 15222.178 13924.102 28650.276 26085.854 19811.197 10064.678 22442.142 7355.041 9568.232 2991.426 8791.064 25213.035 26079.519 6968.282 5376.033 29782.198 11170.083 8078.267 3575.370 13503.299 18307.533 8384.885 19373.202 5488.380 41208.225 10530.261 29903.488 6711.224 21224.758 21719.639 25797.939 11024.582 18200.982 3886.720 6097.216 9132.664 7834.979 20503.424 15753.511 17018.433 14086.724 19153.627
9108.777 12571.420 3405.700 11258.872 8011.400 33502.163 3611.271 9015.613 4374.806 18138.374 11006.151 9700.828 2822.036 3026.973 4252.105 1757.223 8633.900 11174.198 10468.976 3918.255 26667.908 7932.327 8522.640 5778.909 7979.532 4454.581 3377.258 3787.939 18067.346 2762.986 10734.310 6617.985 7312.248 9146.176 10039.588 122.896 2480.381 7173.080 11801.480 27291.537 3774.355 699.676 9566.223 7660.812 32368.849 10717.937 7199.414 8393.826 14900.694 6589.548 4122.899 30699.415 4279.803 4535.874 4269.932 7887.128 9461.536 5370.767 7224.341 8300.064 26597.113 2549.546 10681.383 6899.015 12255.595 4835.847 27103.814 12657.681 4610.367 9552.310 0.000 6037.207 8090.467 11029.298 8390.313 12447.028 26353.253 10888.232 12267.150 17227.990 1301.572 28318.406 22973.761 8769.420 17283.313 13101.407 13839.474 17224.730 9722.781 23840.553 4052.949 9120.533 17759.299 17532.396 21288.902 12636.928 20832.510 19237.007 6807.119 10201.551 12159.604 32463.499 31706.540 28635.467 17016.725 6946.599 24323.031 18324.500 10946.658 14122.506 16472.504 4063.285 5352.967 9278.677 3206.343 20539.767 20377.695 8243.699 5237.016 20481.111 18403.587 12806.496 7660.655 10037.183 19217.111 11333.684 13762.062 11704.160 33101.086 6467.190 26247.378 2910.692 23532.767 13667.121 19996.810 19105.666 27199.756 11040.385 8171.484 11913.838 12351.467 29357.468 7821.901 10180.049 5533.141 10104.083
14798.817 18215.922 6053.852 16790.533 12832.158 34756.499 7023.237 8584.846 6491.605 20777.629 9257.867 9588.749 3243.030 8944.524 7331.521 7713.583 11948.591 16321.999 14418.737 3457.919 30743.405 12291.485 13453.984 10309.117 13034.612 6102.903 7437.760 6221.185 20770.070 7256.114 14937.014 8486.017 12429.763 10508.071 14347.244 6058.662 5504.479 12336.306 17282.912 31166.948 6304.936 5636.284 15587.874 12359.330 37240.515 14665.834 13069.194 14117.137 13719.485 11270.186 10158.231 27471.456 9630.697 5255.569 9999.556 13795.194 13485.628 10018.104 13098.699 9977.313 30705.416 6073.349 15975.984 11706.360 16750.275 9724.486 32320.029 18349.545 7336.082 14037.857 6037.207 0.000 12919.787 14016.323 11300.187 8105.733 27560.001 13506.140 12450.921 15718.334 5804.740 32835.656 26320.552 12037.302 19686.814 19070.003 11678.642 15437.454 10741.930 21874.441 9414.704 14457.122 16138.663 20125.305 21100.678 9973.961 14841.240 13815.494 12403.419 12752.862 15941.554 30088.480 37412.266 25304.419 15388.936 11187.539 28278.309 12407.826 5897.608 14520.853 10588.968 10083.605 5124.815 12592.999 5247.788 24494.224 23698.821 9480.159 8700.092 19160.748 24068.782 18721.873 13155.199 15413.122 25052.705 17344.332 8124.208 17352.021 27383.269 12168.721 30472.713 7784.046 29476.178 15427.735 23273.358 21335.770 32219.062 14033.771 9962.414 17940.382 18273.653 34487.473 1817.651 13777.849 8646.089 5466.245
3594.039 6027.844 6906.707 4481.085 12043.342 39313.889 5918.733 9296.999 6745.012 11250.523 19039.328 9132.043 10007.662 5619.174 5734.501 6599.294 3514.567 13461.148 3102.915 9530.500 29236.729 1273.698 575.025 2614.437 665.567 7209.446 5486.896 6817.136 11118.570 5761.857 2966.285 6090.977 1052.822 6907.550 2258.585 7986.794 7434.263 1232.595 4800.746 30165.200 6724.023 7992.077 6618.150 614.544 24411.577 3289.992 4044.524 9756.120 13582.545 11442.415 6011.571 30210.503 3853.600 8126.375 4321.159 4477.258 2338.970 2909.287 4079.374 6280.506 29112.252 10370.618 3291.932 1226.054 4184.712 3304.190 27126.243 12727.454 5885.168 1633.621 8090.467 12919.787 0.000 16746.103 4254.489 20369.381 32425.232 16975.243 9986.457 25069.633 9283.971 29954.788 26916.050 3623.135 22791.563 11270.796 21873.928 25136.797 7584.022 22086.168 9132.103 11544.355 16380.986 10750.294 28487.268 20723.003 26390.335 26724.229 2664.904 16462.031 4675.034 30638.550 24812.256 36717.069 15794.116 12292.750 27246.701 25141.793 18593.174 10887.188 21808.419 5721.579 8779.425 3647.707 7695.543 23761.852 24552.243 6920.149 4495.693 28195.264 11589.376 7633.914 2189.701 12025.408 17455.837 7537.333 18761.175 5286.663 40233.556 8945.583 28572.124 5337.345 20654.024 20086.159 24262.823 12576.492 19324.707 5029.420 6096.559 8303.184 7316.905 21572.236 14680.067 15399.294 12473.487 17887.039
15292.511 17903.393 14434.829 17373.021 5028.437 22709.647 14527.720 20006.677 15402.203 27945.702 9222.669 20725.200 12392.143 11590.389 15163.893 11260.430 18792.679 6571.166 19787.657 14233.649 16852.138 17273.991 16887.178 15491.110 16273.255 15476.166 14115.774 14816.381 27827.061 13460.137 19709.470 17573.472 15698.667 20071.074 19004.688 11139.678 13492.309 15518.073 17948.101 17191.119 14800.171 11685.248 13081.541 16631.476 37982.803 19999.281 13335.606 8401.467 25892.396 5303.800 10764.340 41212.743 13463.421 15444.412 12612.017 13448.639 18869.461 15081.873 13321.820 19199.422 16832.552 8862.033 17675.060 15930.764 20553.919 14452.153 19948.903 10053.654 15559.405 18373.681 11029.298 14016.323 16746.103 0.000 18828.407 14089.759 15705.551 911.028 23280.066 11515.063 9965.430 19260.323 12318.553 18941.343 6276.397 12698.179 10810.262 12017.211 20686.781 34770.852 7798.132 6725.789 28714.090 27410.906 12462.578 11210.090 27074.463 21311.841 14242.280 1444.796 21417.126 43329.487 34296.294 24150.179 27963.762 4480.030 14352.343 22561.750 14641.102 25086.861 23631.046 11073.136 16159.274 19348.115 14172.121 10622.184 9692.591 19222.953 15859.614 13567.052 22502.117 16492.662 15049.974 7123.310 15983.092 14363.358 21785.990 17248.336 34849.888 8093.520 16678.347 13300.483 20763.990 3622.366 9273.276 29169.558 32720.264 21128.940 19052.002 14367.467 16110.233 34412.671 14972.911 1567.844 5666.676 13560.240
7836.049 10060.770 5614.319 8550.609 14658.554 41530.741 4917.674 5373.338 4889.554 9825.881 19081.689 5014.776 9126.858 7273.747 4345.384 7615.964 905.114 16741.256 3518.159 7902.568 32724.931 2980.896 4729.749 3526.847 4874.299 5222.733 5014.568 5311.779 9775.063 5632.998 4255.867 2907.138 4849.451 2683.959 3955.466 8267.525 6552.145 4952.206 8752.015 33569.704 5254.043 7954.759 10706.468 3767.025 26368.050 3725.317 7840.390 13080.408 9341.126 13693.088 8397.626 25991.178 5495.491 6044.643 6497.478 8438.811 2902.677 3876.287 7880.970 2207.704 32614.920 10939.779 7218.655 3927.766 6181.795 4473.707 31163.499 16547.168 4152.093 4059.752 8390.313 11300.187 4254.489 18828.407 0.000 19322.674 34463.212 18867.431 5769.784 25482.051 9688.316 33693.307 29929.099 900.343 25076.700 15380.337 21868.041 25415.628 3337.887 17975.503 11046.558 14680.595 12169.740 9201.331 29675.823 20452.417 23246.516 24890.280 6343.229 18246.788 4757.461 26593.439 28081.604 36321.479 11564.769 14387.721 30611.529 22755.403 17197.718 6899.674 18685.429 8069.776 6316.360 1383.309 6358.967 26993.430 27451.342 2930.855 3155.889 28795.339 15211.739 11861.727 6246.594 15323.501 21645.137 11764.575 15611.816 9403.433 37868.341 11826.031 32123.981 5621.792 24908.439 21828.724 27122.465 10721.148 21578.935 2777.848 2056.125 12531.605 11559.227 23955.631 12845.089 17682.475 13750.314 16703.606
21502.665 24956.809 13840.234 23690.796 15732.970 30134.747 14730.594 16518.761 14444.576 28882.371 5075.747 17535.911 10412.091 15406.719 15156.318 14161.872 19912.817 19113.216 22266.797 11420.827 30317.129 19953.843 20851.357 17844.441 20347.522 14100.068 14984.491 14081.976 28873.260 14621.623 22706.745 16565.104 19692.882 18608.534 22068.012 12530.758 13067.092 19566.208 24240.666 30383.447 14153.902 12412.105 21370.503 19868.820 44766.766 22518.090 19491.606 18372.625 21050.406 14393.243 16121.016 32319.798 16683.757 13306.422 16705.978 20109.484 21294.775 17490.309 19510.610 18082.038 30336.998 10809.770 23123.051 19145.719 24420.276 17066.454 34028.320 22076.418 15240.564 21678.451 12447.028 8105.733 20369.381 14089.759 19322.674 0.000 23246.985 13242.442 20345.772 9438.266 11485.323 33085.997 25027.253 20012.594 17765.157 23713.982 5524.998 8879.566 18818.732 28248.381 13972.812 17873.240 23067.528 28230.390 15661.517 3806.071 13680.644 7458.179 19247.742 12653.703 23857.931 35785.155 43942.040 17238.365 22360.795 13778.908 27801.193 8573.092 2539.306 22403.665 11371.545 16185.245 13230.271 20569.426 13043.977 24306.529 22601.326 17583.288 16521.693 12663.248 30737.416 24896.851 20107.369 18759.463 28810.631 23144.119 10959.853 24094.508 21440.412 16659.130 30318.635 15032.861 33554.698 13466.816 22152.463 29432.405 39627.159 22082.759 18064.465 23581.125 24436.599 41801.334 6938.154 14738.979 11125.009 2639.570
30680.578 32859.454 29704.170 32598.408 20453.163 7211.146 29952.703 35012.498 30675.606 43646.321 18917.917 35840.202 27036.352 27274.698 30595.090 26851.158 34470.524 20255.263 35483.529 28920.450 14920.205 32978.890 32539.955 31181.785 31931.228 30667.515 29618.482 30089.082 43525.202 28964.389 35381.188 32970.779 31374.296 35499.411 34682.235 26472.178 28708.671 31193.865 33142.949 13946.925 30089.311 26945.523 28050.683 32329.003 51946.708 35692.038 28856.582 23399.612 40794.425 20994.647 26465.702 54847.102 29158.491 30454.761 28317.450 28864.748 34572.210 30768.822 28838.044 34650.042 15095.957 23919.892 33089.967 31633.905 36124.265 30138.055 23250.084 23100.494 30962.820 34045.884 26353.253 27560.001 32425.232 15705.551 34463.212 23246.985 0.000 15597.936 38552.858 14214.378 25147.611 18510.566 10155.959 34618.546 9719.058 26084.355 17729.546 14955.702 36069.419 49365.601 23487.391 21514.882 43463.784 43114.912 8027.930 19464.239 36610.178 27819.883 29874.825 16219.653 37100.143 57648.380 46367.038 20639.774 42705.618 20185.298 13512.903 30962.989 25213.799 40460.652 34610.077 26776.476 31032.203 35037.333 29299.952 13255.853 10469.918 34586.934 31422.051 12057.826 36529.458 31015.260 30647.111 21460.580 26109.585 28957.564 33824.680 32325.410 37858.438 23595.897 15696.439 28871.699 29936.998 12686.134 10415.215 44874.800 46836.803 36823.008 34517.010 28735.177 30712.578 48183.047 27787.013 17027.682 20822.360 24455.580
15697.193 18411.996 14287.435 17819.035 5546.645 22676.558 14441.874 19798.958 15259.545 28121.822 8340.017 20548.451 12059.542 11687.177 15082.313 11260.902 18875.365 7392.815 19983.538 13924.379 17518.655 17442.196 17145.011 15595.335 16527.787 15306.375 14066.396 14671.521 28009.560 13410.297 19941.506 17482.727 15935.064 19997.250 19231.063 11002.656 13322.801 15754.767 18399.835 17807.657 14661.117 11522.721 13618.551 16828.946 38582.826 20201.067 13694.412 8987.167 25674.158 5585.272 10967.191 40816.406 13578.788 15221.325 12772.329 13853.324 19047.277 15179.798 13683.099 19133.745 17506.890 8607.989 18059.043 16111.657 20859.789 14548.801 20817.265 10869.045 15466.779 18607.797 10888.232 13506.140 16975.243 911.028 18867.431 13242.442 15597.936 0.000 23155.238 10668.926 9763.832 20009.253 12822.362 19023.150 6423.236 13457.569 9899.236 11153.742 20595.843 34506.206 7912.566 7391.950 28468.940 27575.051 11912.009 10312.649 26319.813 20431.962 14526.558 753.960 21632.264 43029.648 35055.227 23319.078 27715.585 4689.929 15007.809 21740.068 13866.105 24998.653 22944.695 11266.066 15904.155 19447.439 13977.129 11317.047 10207.372 19122.462 15846.366 12818.121 23134.121 17087.855 15356.904 7857.866 16873.603 14961.970 21170.350 17733.128 33945.784 8508.438 17380.725 13289.813 21658.602 3142.737 9776.863 29310.103 33312.317 21236.325 18992.460 15001.144 16695.045 35039.736 14382.599 2283.947 5405.249 12793.187
13580.306 15502.545 8871.018 14062.706 19661.074 45728.594 8771.161 3866.583 7897.855 9710.099 21493.107 2874.654 11690.723 12254.229 8146.255 12167.617 6474.966 22118.466 8271.211 9888.259 38114.184 8721.892 10419.723 9041.319 10624.251 7885.473 9252.631 8486.190 9795.060 9894.042 9077.208 5741.512 10618.909 3408.015 9110.082 12153.224 9852.375 10719.169 14168.518 38892.194 8494.546 11638.373 16472.787 9529.094 28983.556 8355.592 13573.035 18548.675 3620.754 18485.476 13615.779 20226.480 10765.994 8154.937 11821.180 14194.464 8171.167 9297.389 13614.174 4279.649 38015.295 14636.134 12686.393 9682.291 10718.881 9794.749 36896.573 22213.729 7736.309 9447.147 12267.150 12450.921 9986.457 23280.066 5769.784 20345.772 38552.858 23155.238 0.000 28021.876 13421.616 39255.741 34961.353 6374.396 29545.617 21145.409 24067.801 27802.137 2704.250 12260.653 15774.811 20011.176 6400.514 9085.039 32964.026 22408.246 20569.851 24442.388 12081.643 22464.974 8522.752 20921.261 32293.876 37568.484 5808.574 19032.447 35918.120 21505.877 17899.995 2069.936 16289.329 13298.963 7721.791 6470.504 9254.529 32222.826 32413.332 4085.544 7734.458 31449.523 20111.758 17494.880 12016.377 20734.774 27414.134 17520.290 13408.377 14934.992 36197.060 17096.919 37562.007 10168.359 30610.293 25881.792 32055.542 9689.396 24726.747 6008.232 4461.082 18286.872 17222.035 27172.247 13407.964 22336.504 17780.567 17750.623
24874.552 28020.531 19938.501 27128.759 15760.267 20845.002 20564.502 24178.404 20801.879 35302.949 6530.712 25148.993 16546.173 19461.312 21149.325 18497.483 25822.236 18060.481 27673.936 18201.795 24105.593 25104.716 25409.018 22974.618 24809.757 20609.981 20522.085 20283.356 35244.205 19957.656 27881.248 23179.721 24145.158 25587.609 27171.236 17346.730 18956.062 23979.360 27720.663 23818.424 20322.729 17565.156 23489.919 24729.632 48421.203 27920.335 22741.090 19190.524 29427.086 15149.605 19433.777 41722.607 21237.367 20065.534 20796.438 23120.310 26667.963 22556.235 22743.075 24873.628 24181.569 14756.332 27023.982 23957.863 29241.082 21980.833 29801.380 21531.764 21393.732 26634.349 17227.990 15718.334 25069.633 11515.063 25482.051 9438.266 14214.378 10668.926 28021.876 0.000 15940.249 27371.674 18387.966 25952.265 11526.323 24039.460 4128.491 796.257 25982.745 37250.546 16393.714 17848.261 31748.531 34682.479 6319.191 5965.315 22425.108 13701.578 23117.717 10597.474 29370.889 45049.412 45586.273 12661.990 31010.352 14215.075 21732.574 16750.302 11739.252 30078.579 20725.334 19644.624 20340.077 26476.724 19280.186 18905.128 16441.786 24562.728 22350.361 3442.491 33237.098 27114.669 24021.875 18434.043 27426.651 25042.978 20376.334 27242.828 25251.578 18173.140 24379.671 20137.158 32171.414 8613.505 16029.087 36166.675 43141.459 28208.570 24797.731 25211.200 26686.327 45035.816 15302.532 12935.527 12812.103 11240.786
10019.525 13471.570 4557.154 12222.778 7402.053 32311.951 4872.557 10043.693 5529.539 19439.691 9763.764 10784.792 2883.291 3938.464 5508.388 2735.986 9935.176 10745.829 11741.481 4459.971 25929.497 9189.177 9692.023 7043.999 9130.252 5547.693 4673.873 4942.248 19368.273 4064.233 11984.980 7837.419 8458.829 10368.409 11284.444 1423.641 3569.652 8310.897 12781.094 26503.976 4941.700 1802.753 10119.808 8880.338 33451.939 11989.346 8013.053 8316.888 15927.612 5894.022 4704.212 31488.183 5438.089 5479.913 5270.375 8651.038 10734.395 6630.093 8033.272 9535.219 25867.212 1258.372 11736.588 8112.542 13463.618 6074.862 26755.198 12561.722 5847.687 10780.853 1301.572 5804.740 9283.971 9965.430 9688.316 11485.323 25147.611 9763.832 13421.616 15940.249 0.000 27710.173 22056.691 10070.853 16181.317 13300.411 12599.066 15947.565 10924.093 24816.231 3659.874 8776.483 18751.654 18833.943 19996.197 11448.862 20635.645 18459.500 7804.275 9058.588 13435.621 33402.746 32510.373 27435.243 18002.663 6101.190 23547.602 17795.672 10166.082 15313.071 16385.479 4729.729 6217.884 10579.307 4213.904 19751.448 19445.666 9440.764 6533.492 19184.024 19260.830 13512.069 8685.521 9722.002 19248.304 11904.529 13810.524 12609.711 32402.807 6367.111 25548.539 4198.457 23684.116 12465.927 19054.289 20405.606 28257.687 12341.929 9413.323 12431.987 13052.782 30383.287 7492.864 9226.045 4365.305 9256.746
26708.951 26914.907 31355.026 27562.265 20323.168 20493.954 31004.985 36890.975 32188.682 40136.588 28031.299 37320.468 30546.511 27189.941 31531.276 27629.208 33225.513 17267.255 32812.675 32150.521 3608.059 31053.369 29732.755 30239.964 29294.967 32444.155 30377.991 31678.895 39943.542 29819.209 32307.038 33742.894 29056.036 35850.696 31799.842 28390.794 30657.051 28913.618 27881.183 4623.237 31624.326 29013.273 23461.272 30216.623 40998.009 32917.947 25954.490 20715.659 42531.242 21816.352 25725.545 58897.924 28503.324 32767.809 27447.314 25477.839 32260.454 29963.409 25916.470 34991.706 3451.503 26971.419 28696.256 29834.528 32023.618 29461.913 5995.153 17227.689 31963.280 31194.604 28318.406 32835.656 29954.788 19260.323 33693.307 33085.997 18510.566 20009.253 39255.741 27371.674 27710.173 0.000 9216.996 33362.165 15900.074 19128.816 28764.711 28135.828 36562.542 51485.583 24269.672 19389.991 45459.650 39819.981 23552.583 29746.160 46328.302 39909.472 27433.832 20689.883 33939.955 60165.706 32924.608 37821.578 44764.241 21712.222 5665.653 41651.404 33873.353 40592.333 42852.368 26028.296 33631.817 33528.488 31428.793 8783.936 10931.802 35312.310 31594.224 27234.808 27609.722 24437.185 27765.125 18584.427 14642.489 23157.427 40853.743 26864.110 52585.931 22295.701 3030.455 29394.492 15891.504 19762.061 11350.744 41717.034 36655.550 34977.823 34805.363 22516.037 24402.941 37184.648 34023.275 19133.091 24193.785 32802.381
24342.831 25724.384 26319.724 25857.959 15315.660 14473.279 26232.886 31975.541 27256.279 37998.696 19967.890 32602.082 24643.720 22759.770 26839.525 22801.595 29683.858 13491.910 30001.490 26446.673 5757.630 27774.170 26866.092 26412.642 26314.736 27401.579 25714.272 26687.297 37839.677 25080.794 29694.088 29225.721 25892.299 31614.753 29062.982 23071.922 25450.310 25722.321 26324.680 5453.685 26655.568 23662.858 21264.210 26998.467 43309.877 30166.127 22940.004 17170.865 37845.091 16491.051 21532.553 53488.150 24439.361 27495.987 23432.496 22707.286 29236.217 26052.896 22910.544 30729.328 5856.695 21052.429 26670.008 26432.655 29966.683 25460.172 13198.143 15319.052 27261.056 28416.112 22973.761 26320.552 26916.050 12318.553 29929.099 25027.253 10155.959 12822.362 34961.353 18387.966 22056.691 9216.996 0.000 29831.688 7274.359 18122.451 20235.686 19169.440 32283.102 46809.908 19196.752 15376.167 40724.428 37559.009 14337.185 21442.612 38613.946 31416.613 24251.236 13573.408 31433.313 55436.617 36879.697 28613.660 39985.258 16029.479 3620.947 33563.056 26197.854 36608.583 35560.305 21860.183 28269.226 30134.039 26178.197 3662.746 2626.998 30877.887 27273.901 18041.236 28324.987 23519.137 24842.154 14916.993 16644.350 21680.897 33944.079 25379.725 43638.097 18124.995 6189.099 24793.461 20052.021 11587.569 3047.224 39428.401 38402.517 31810.065 30561.790 21263.338 23314.784 39479.558 27190.575 12832.367 17917.853 25187.570
7214.877 9265.693 6216.770 7774.130 14625.637 41650.513 5436.341 6260.420 5570.309 9369.154 19599.356 5863.411 9730.663 7350.985 4912.960 7835.032 149.392 16540.908 2622.200 8609.566 32483.832 2379.044 4045.348 3466.361 4272.978 5936.335 5430.466 5943.273 9300.381 6010.117 3355.529 3748.628 4352.606 3493.622 3070.419 8647.692 7107.406 4478.124 7946.294 33356.990 5877.071 8388.360 10196.763 3212.060 25510.624 2834.224 7425.694 12851.163 9983.418 13740.128 8347.105 26591.423 5495.480 6791.852 6435.808 7973.824 2019.992 3864.552 7464.992 3093.508 32368.838 11308.229 6422.556 3528.122 5281.809 4491.660 30697.035 16167.590 4779.045 3218.435 8769.420 12037.302 3623.135 18941.343 900.343 20012.594 34618.546 19023.150 6374.396 25952.265 10070.853 33362.165 29831.688 0.000 25159.985 14865.848 22402.498 25909.357 4103.883 18473.942 11143.242 14512.753 12761.724 8763.728 30006.819 21026.870 24143.809 25689.883 5934.337 18423.526 3931.758 27049.580 27183.586 36941.091 12182.707 14475.081 30409.281 23607.344 17929.840 7300.784 19580.968 8020.204 7122.345 556.985 6990.276 26828.673 27382.482 3822.356 3616.577 29237.673 14339.122 11144.224 5724.114 15112.630 21077.463 11159.872 16507.036 8636.287 38726.150 11706.714 31860.627 5913.886 24239.138 22027.235 27063.856 10372.987 20699.465 2272.573 2948.767 11925.366 10859.047 23071.329 13618.713 17744.376 14007.568 17405.048
20962.448 23177.488 20687.977 22884.304 10767.688 16526.523 20801.429 26220.720 21658.098 34037.021 12719.292 26963.231 18459.039 17815.968 21438.422 17531.654 25010.858 10656.503 25871.280 20332.326 12775.511 23406.314 22881.660 21698.317 22278.057 21717.215 20392.135 21070.959 33908.677 19736.525 25734.133 23847.039 21738.816 26347.057 25042.552 17395.635 19732.626 21558.976 23431.763 12688.188 21057.467 17928.602 18353.105 22726.609 42591.796 26072.953 19155.001 13685.138 32097.244 11429.650 16892.103 47120.183 19667.353 21644.126 18775.750 19149.342 24982.849 21295.540 19135.551 25475.755 12827.136 15031.225 23372.005 22052.324 26424.513 20668.595 18405.238 13734.136 21832.151 24401.488 17283.313 19686.814 22791.563 6276.397 25076.700 17765.157 9719.058 6423.236 29545.617 11526.323 16181.317 15900.074 7274.359 25159.985 0.000 16704.361 12991.861 12273.895 26960.818 40922.729 14030.715 11804.833 34890.572 33521.163 9071.399 14168.472 31384.698 24179.180 20209.256 7148.370 27463.568 49428.696 37724.259 22939.612 34136.809 10690.254 10320.243 26290.815 19017.551 31361.758 28454.710 17210.231 22326.062 25550.800 20395.218 7390.944 4995.182 25494.874 22130.972 11935.046 27086.656 21408.207 20963.425 11793.215 17901.194 19323.157 26998.181 22625.390 36689.390 13905.675 12947.179 19572.632 22304.581 4408.045 4561.485 35309.572 37414.292 27320.505 25328.395 19145.767 21086.923 38882.992 20361.588 7423.627 11827.829 18033.703
7774.762 7876.705 14937.027 8433.474 8405.087 32111.200 14219.424 19648.491 15478.353 21008.685 20054.831 19790.418 15916.107 10595.845 14545.898 11617.072 14745.806 6239.294 13878.634 16794.887 19005.616 12487.139 10942.385 12275.991 10608.328 15872.214 13523.707 15137.979 20816.646 13178.706 13302.422 16256.908 10534.440 17867.340 12859.021 13104.054 14655.867 10428.137 8763.241 20121.305 15054.867 13630.782 4674.211 11655.132 25898.727 13955.084 7622.832 5342.024 24673.413 9446.378 9124.218 41337.079 11076.140 16527.157 10141.823 6959.134 13456.704 12128.897 7581.030 17095.706 18847.983 13386.962 9588.747 11464.364 12899.164 11805.725 15869.338 2985.427 14934.605 12292.631 13101.407 19070.003 11270.796 12698.179 15380.337 23713.982 26084.355 13457.569 21145.409 24039.460 13300.411 19128.816 18122.451 14865.848 16704.361 0.000 22442.156 24451.584 18580.444 33337.513 9930.171 6226.992 27538.852 20692.147 24901.106 22162.471 33909.316 31112.093 9087.439 13447.837 14875.817 41908.528 21599.406 36697.336 26914.687 10229.934 17414.249 30968.486 23027.977 22156.016 29573.899 9297.897 17421.667 14918.364 15365.849 14531.249 16299.481 17588.732 14081.673 26264.114 10446.507 5486.984 9145.175 5609.051 6379.369 4031.564 26833.453 7748.938 45136.512 7122.276 18198.951 12611.525 10434.889 16193.683 16163.277 22588.669 20755.451 16166.021 16902.159 3395.038 5364.701 22178.822 20791.160 11175.328 12638.725 21995.732
22116.073 25418.465 16265.502 24381.582 14040.974 24613.896 16969.728 20208.401 17079.869 31686.407 2835.326 21193.401 12791.163 16358.909 17523.270 15280.023 22279.431 16917.901 24294.354 14343.540 25754.975 21771.561 22263.102 19616.461 21685.469 16849.081 17005.402 16590.946 31641.140 16484.900 24573.743 19426.350 21013.697 21770.386 23877.722 13952.045 15316.160 20857.680 24966.783 25673.276 16638.951 14083.203 21162.197 21479.264 45756.653 24544.705 19985.724 17267.798 25354.958 13088.261 16575.949 37659.302 18020.841 16240.740 17715.976 20456.923 23287.693 19210.094 19993.704 21094.539 25799.053 11512.824 24115.940 20710.922 26057.485 18669.505 30418.353 20256.738 17730.765 23379.775 13839.474 11678.642 21873.928 10810.262 21868.041 5524.998 17729.546 9899.236 24067.801 4128.491 12599.066 28764.711 20235.686 22402.498 12991.861 22442.156 0.000 3764.228 22126.317 33122.914 13741.937 16237.300 27641.445 31054.299 10172.696 1846.149 19007.988 11187.322 20157.981 9542.015 25976.015 40933.392 43669.358 14916.648 26905.906 12236.935 23276.035 13554.011 7675.634 26132.865 16896.539 16742.908 16445.243 22941.268 15561.889 20025.650 17968.030 20737.307 18785.952 7543.462 30901.975 24812.667 21063.605 16975.112 26636.846 22829.178 16346.108 24599.758 24151.813 15936.007 25874.389 16733.464 31437.694 9041.504 17526.115 32468.873 40503.160 24628.705 21031.893 23104.904 24365.742 42508.798 11185.800 11922.839 10225.624 7123.169
25054.556 28241.271 19844.231 27314.659 16126.361 21528.424 20499.825 23947.896 20689.494 35241.368 6363.254 24927.538 16414.759 19544.578 21074.100 18547.087 25781.651 18531.634 27689.034 18027.602 24881.669 25131.564 25490.573 22991.160 24896.491 20481.454 20484.328 20182.061 35187.666 19933.507 27918.766 23056.673 24229.004 25438.115 27212.275 17341.885 18872.770 24065.646 27905.720 24603.167 20224.818 17533.480 23763.051 24780.664 48642.101 27936.896 22918.184 19532.662 29119.183 15449.783 19579.112 41194.708 21292.881 19908.644 20888.400 23319.534 26681.900 22575.863 22921.588 24740.789 24956.130 14787.352 27170.384 24008.884 29316.199 22010.079 30509.448 21991.908 21305.029 26686.369 17224.730 15437.454 25136.797 12017.211 25415.628 8879.566 14955.702 11153.742 27802.137 796.257 15947.565 28135.828 19169.440 25909.357 12273.895 24451.584 3764.228 0.000 25814.861 36844.892 16577.499 18241.833 31397.408 34616.215 7015.111 5554.487 21716.629 12925.261 23245.357 11037.661 29382.571 44580.343 45962.470 12256.630 30663.394 14525.978 22501.695 16021.429 11238.888 29864.308 20104.039 19779.751 20149.763 26439.268 19167.489 19643.373 17204.397 24408.860 22298.668 3818.078 33521.779 27399.157 24151.357 18855.461 27970.215 25342.230 19837.105 27453.201 24473.998 18451.266 25147.904 20135.265 32728.221 9238.298 16789.256 36073.502 43366.091 28156.707 24670.576 25532.089 26966.337 45286.819 14938.233 13402.164 12991.961 10797.087
11148.883 13369.111 6373.853 11872.037 16974.795 43224.460 6159.398 2735.544 5408.869 10222.657 19460.656 1965.400 9469.160 9555.924 5523.036 9508.977 4169.932 19414.586 6433.864 7787.342 35409.936 6311.052 8067.147 6382.122 8190.562 5478.171 6598.849 5990.533 10247.972 7248.047 7240.027 3114.099 8106.608 718.304 7104.164 9605.394 7380.178 8190.552 12050.137 36189.318 5985.094 9124.189 13919.922 7073.649 28500.982 6579.549 10973.056 15851.142 6095.126 15822.211 10911.549 22756.798 8065.315 5921.282 9121.041 11621.377 6080.175 6618.756 11014.581 1575.560 35311.068 12161.903 10525.650 7132.604 9071.569 7101.103 34270.558 19555.239 5129.973 7316.312 9722.781 10741.930 7584.022 20686.781 3337.887 18818.732 36069.419 20595.843 2704.250 25982.745 10924.093 36562.542 32283.102 4103.883 26960.818 18580.444 22126.317 25814.861 0.000 14933.494 13112.170 17306.938 8985.388 9566.882 30698.219 20542.683 20815.841 23584.937 9494.143 19918.758 7153.426 23605.925 30976.620 36042.890 8340.945 16392.690 33215.634 21008.781 16475.885 4402.853 16341.213 10594.727 5693.315 4360.148 6858.363 29524.037 29743.219 1483.887 5032.894 29384.285 18354.176 15199.585 9504.705 18032.267 24891.700 15057.999 13312.842 12730.138 35980.349 14392.771 34858.451 7492.913 28231.641 23384.518 29389.333 10628.027 23954.480 4584.271 1758.498 15824.648 14895.585 26376.761 11962.287 19703.352 15255.362 16184.208
25657.431 27110.282 20494.406 25803.176 31635.387 56574.846 20649.676 14835.363 19569.050 16477.239 31009.311 14253.804 22476.391 24357.082 20073.571 24094.817 18592.359 34286.843 19849.211 20595.015 50241.346 20852.915 22461.424 21301.366 22742.867 19409.313 21224.218 20130.751 16692.375 21827.739 20583.328 17772.673 22806.553 15649.117 20818.772 23740.622 21361.509 22918.767 25794.082 50968.087 20166.220 23155.846 28665.105 21682.701 35541.715 19853.441 25812.428 30769.928 8995.836 30346.660 25781.124 8653.014 22982.579 19339.963 24038.468 26412.786 20030.336 21550.781 25853.243 16498.772 50150.451 25912.547 24426.070 21903.269 21807.944 22031.808 49138.545 34474.312 19643.019 21280.488 23840.553 21874.441 22086.168 34770.852 17975.503 28248.381 49365.601 34506.206 12260.653 37250.546 24816.231 51485.583 46809.908 18473.942 40922.729 33337.513 33122.914 36844.892 14933.494 0.000 27664.178 32167.378 6088.144 16208.496 42929.935 31296.591 21818.968 29512.728 24316.590 33774.932 19467.123 8684.905 41375.456 44401.175 6824.650 30780.691 47990.304 25577.796 25735.823 11221.229 19337.456 25472.154 18611.785 18453.222 20641.857 44250.348 44217.816 16178.207 19896.102 40656.659 30816.069 29324.400 24192.439 32925.233 39534.494 29599.180 17876.800 26673.540 37620.848 29246.462 49723.305 22189.649 42462.738 36932.048 43837.318 15181.710 32530.505 17447.846 16686.679 30360.105 29105.425 34883.113 21974.639 34015.547 29117.073 26057.402
8481.073 11692.908 7191.854 10738.053 3996.067 30507.375 7037.710 12842.534 8097.590 20213.318 11027.256 13422.018 6528.499 3792.264 7642.832 3607.343 10994.561 7138.405 12091.288 7938.299 22675.196 9535.360 9354.151 7695.332 8735.543 8286.396 6522.284 7544.607 20103.499 5884.858 12089.681 10034.278 8111.728 12459.562 11373.784 4122.174 6413.013 7933.531 11329.493 23337.609 7504.215 4744.906 7507.109 8944.752 32077.989 12313.545 6347.505 4739.489 18676.883 2710.738 3148.502 34700.815 5671.221 8520.522 4868.391 6746.958 11143.802 7284.476 6349.363 11576.175 22598.714 3474.198 10661.735 8214.390 13151.002 6654.415 23119.525 8938.094 8064.467 10764.246 4052.949 9414.704 9132.103 7798.132 11046.558 13972.812 23487.391 7912.566 15774.811 16393.714 3659.874 24269.672 19196.752 11143.242 14030.715 9930.171 13741.937 16577.499 13112.170 27664.178 0.000 5126.358 21576.531 19663.595 19375.684 13016.796 24189.529 21277.406 6843.174 7356.530 13755.306 36323.944 30139.459 28614.160 20846.494 3341.190 20362.454 21041.060 13115.253 17477.132 20003.094 3417.594 9370.683 11552.028 7178.422 16599.075 16639.424 11689.298 8156.093 19331.147 17180.000 11132.331 7727.787 6066.646 15677.057 9244.542 17465.784 10888.818 35301.826 2822.517 22230.843 5623.676 20197.803 10984.015 16280.739 21398.457 26808.435 13335.859 11416.011 9632.528 10678.249 28778.323 11032.460 6644.196 3585.602 12099.885
9232.984 11398.035 11984.559 11084.361 2205.147 28123.081 11615.095 17501.958 12802.155 22697.642 13920.781 17950.833 11652.982 7815.961 12146.049 8254.500 14366.616 2124.467 14637.129 13034.730 18103.331 12403.981 11514.635 11154.897 10951.563 13068.109 10991.731 12300.045 22547.770 10429.222 14361.922 14395.433 10516.929 16607.263 13714.054 9175.586 11336.627 10346.479 11628.184 18904.031 12243.022 9793.341 6557.867 11623.126 31274.263 14807.782 7612.200 1894.132 23184.944 3497.481 6396.196 39510.415 9265.518 13438.350 8220.171 7472.980 13860.495 10824.774 7585.649 15731.569 18004.149 8395.187 11635.831 11069.340 14803.753 10267.003 17995.797 4204.020 12578.388 13065.644 9120.533 14457.122 11544.355 6725.789 14680.595 17873.240 21514.882 7391.950 20011.176 17848.261 8776.483 19389.991 15376.167 14512.753 11804.833 6226.992 16237.300 18241.833 17306.938 32167.378 5126.358 0.000 26111.959 22235.182 19167.992 16037.064 29103.013 25327.071 8879.756 7293.084 16106.298 40852.194 27740.614 30495.230 25406.364 4121.455 15938.515 25586.679 17493.989 21498.821 25018.830 6712.214 14319.780 14788.958 12110.717 12317.641 13013.928 15996.018 12286.114 20194.333 15778.824 9806.598 9503.160 957.748 10978.834 7679.663 22553.217 10823.999 39302.161 2920.916 17558.675 10010.311 15687.796 10334.020 12734.037 24089.955 26020.269 16442.342 15551.170 7646.747 9441.340 27689.577 15994.993 5159.127 6767.219 16417.799
19974.887 21760.579 14406.925 20363.929 25549.855 50674.747 14566.871 8748.894 13480.938 13113.262 25374.834 8173.916 16479.067 18296.720 13995.969 18010.715 12866.743 28234.057 14462.623 14591.396 44169.108 15119.586 16803.291 15365.564 17022.042 13322.923 15148.474 14042.771 13287.679 15747.018 15244.444 11719.795 17018.036 9703.506 15369.643 17658.405 15279.335 17116.406 20427.184 44886.840 14078.089 17076.893 22868.184 15929.268 32932.187 14509.452 19949.424 24749.798 2928.490 24258.534 19737.498 13829.746 16973.340 13271.952 18026.945 20583.183 14485.811 15589.779 19990.795 10524.876 44080.127 19864.788 18981.348 16074.550 16704.344 16044.132 43255.947 28531.728 13564.651 15760.122 17759.299 16138.663 16380.986 28714.090 12169.740 23067.528 43463.784 28468.940 6400.514 31748.531 18751.654 45459.650 40724.428 12761.724 34890.572 27538.852 27641.445 31397.408 8985.388 6088.144 21576.531 26111.959 0.000 12656.959 37238.028 25847.403 19136.499 25393.234 18463.414 27742.678 14390.944 14755.686 37521.902 39782.475 758.208 24695.962 41909.109 21766.770 20528.473 5881.121 15698.157 19432.387 12564.791 12821.028 14564.952 38165.378 38134.497 10153.155 13868.092 35181.996 26011.587 23835.662 18416.091 26883.362 33814.595 23917.413 13547.164 21238.832 35244.141 23191.860 43660.588 16118.255 36973.189 30953.055 37755.524 12279.342 29252.257 12088.901 10716.166 24683.682 23577.902 31682.822 16459.743 27937.549 23070.710 20709.498
13303.730 13052.750 14788.812 12260.723 22789.912 50047.519 14118.847 12200.569 13992.720 656.115 28277.403 11245.790 18277.886 15915.429 13542.539 16545.005 8900.807 24067.331 7654.001 16889.755 39492.897 10137.499 10725.652 12031.379 11304.090 14260.960 14179.996 14465.756 710.057 14771.248 7873.308 11710.064 11801.171 9660.729 8528.737 17410.509 15746.422 11979.460 11970.676 40508.344 14416.131 17135.887 16520.751 10794.817 20337.099 7460.312 14628.379 20398.983 11310.147 22122.544 16649.641 24848.931 14014.672 14972.679 14805.284 14857.445 8543.372 12455.582 14656.501 10148.379 39351.831 20071.896 11144.176 11481.100 7799.554 13081.486 36220.593 22808.100 13323.653 9177.213 17532.396 20125.305 10750.294 27410.906 9201.331 28230.390 43114.912 27575.051 9085.039 34682.479 18833.943 39819.981 37559.009 8763.728 33521.163 20692.147 31054.299 34616.215 9566.882 16208.496 19663.595 22235.182 12656.959 0.000 38752.606 29604.766 29643.601 33142.705 13388.076 27014.233 6129.470 23576.911 25190.275 45377.402 12540.091 22933.337 37649.993 30446.247 25959.672 7676.349 25371.787 16338.442 15000.500 8265.282 15501.493 34297.782 35246.324 10667.085 12336.650 37987.661 15192.706 15543.767 12732.246 22642.799 26058.425 16662.553 22465.038 12987.236 45256.826 19695.336 38753.237 14671.299 27973.089 30638.238 34969.213 1899.276 16617.401 6492.015 10169.358 17312.712 15504.440 19038.780 21468.907 26110.130 22716.601 25591.248
27549.907 30323.882 24394.659 29705.393 17452.822 14526.391 24851.643 29213.804 25329.528 39339.823 11929.650 30131.044 21276.036 22940.898 25477.923 22213.262 29865.995 18661.985 31359.234 23084.452 20039.144 28769.121 28728.030 26748.966 28109.840 25222.237 24666.001 24766.856 39252.432 24042.834 31425.934 27713.881 27479.922 30216.834 30707.383 21411.794 23381.914 27302.857 30289.647 19468.719 24788.116 21766.105 25525.759 28255.171 50440.694 31592.459 25499.576 20862.943 34752.167 17400.271 22523.217 47793.479 24826.829 24826.619 24176.372 25712.196 30378.590 26322.873 25491.705 29429.184 20158.113 18740.227 29878.395 27501.594 32524.208 25705.877 27026.571 22049.589 25787.181 30112.940 21288.902 21100.678 28487.268 12462.578 29675.823 15661.517 8027.930 11912.009 32964.026 6319.191 19996.197 23552.583 14337.185 30006.819 9071.399 24901.106 10172.696 7015.111 30698.219 42929.935 19375.684 19167.992 37238.028 38752.606 0.000 11997.719 28731.714 19800.625 26197.681 12243.235 33048.463 50936.989 46351.788 14287.076 36487.024 16460.265 17933.895 23029.192 17838.946 34974.854 27005.908 22791.934 25251.540 30491.181 23845.084 15947.890 13074.168 29228.933 26525.489 4114.975 34942.867 28954.654 27064.369 19473.767 26871.558 26825.197 26513.538 29640.574 30181.060 20396.780 20526.165 24093.548 31351.321 8840.643 12754.468 40375.582 45181.298 32276.849 29325.424 26814.491 28572.782 46852.061 20987.364 14027.694 16062.990 17216.885
21220.539 24587.791 14838.097 23476.707 13833.114 26400.537 15592.855 18542.696 15612.047 30243.015 2117.599 19537.279 11330.281 15312.936 16120.958 14173.542 20908.830 16937.606 23018.537 12787.864 26850.415 20536.629 21139.917 18378.817 20578.934 15354.112 15682.046 15147.419 30206.236 15195.661 23340.901 17924.929 19907.348 20215.809 22656.544 12743.690 13919.721 19758.346 24054.553 26845.024 15201.339 12812.032 20514.692 20297.297 44824.739 23270.289 19110.121 16887.068 23597.146 12721.186 15678.138 35817.439 16885.546 14700.938 16668.673 19629.603 22015.842 17982.920 19121.486 19568.976 26882.316 10453.300 23121.306 19535.916 24892.515 17468.577 31080.117 20161.018 16301.369 22184.715 12636.928 9973.961 20723.003 11210.090 20452.417 3806.071 19464.239 10312.649 22408.246 5965.315 11448.862 29746.160 21442.612 21026.870 14168.472 22162.471 1846.149 5554.487 20542.683 31296.591 13016.796 16037.064 25847.403 29604.766 11997.719 0.000 17443.511 10198.842 19161.154 9840.370 24684.298 39088.741 43123.359 15999.865 25115.052 11941.394 24348.390 12143.152 5841.387 24476.907 15146.253 15816.336 14849.937 21572.728 14106.229 20968.157 19084.204 19179.765 17418.304 9360.354 30185.714 24148.493 20060.374 16838.170 26708.151 22227.614 14515.819 23751.601 23655.817 15407.644 26910.976 15488.473 31503.925 9993.998 18637.321 30972.954 39595.843 23225.552 19515.857 22557.852 23694.875 41655.368 9387.760 12134.514 9644.756 5278.120
29017.465 32251.724 19806.819 30731.511 27275.188 43233.104 20756.715 18123.769 19714.747 30258.263 18668.915 18866.431 18010.477 23595.847 20760.579 22428.121 24124.637 30820.201 26764.673 17420.015 43752.405 25406.368 26964.704 23897.618 26708.317 19246.742 21369.407 19774.313 30353.325 21435.427 27488.779 20519.214 26220.687 21094.543 27099.778 20840.408 19701.242 26177.433 31137.039 43906.262 19870.251 20355.463 30273.230 25777.505 49313.612 26969.122 27554.582 28921.788 18855.409 25733.315 24920.148 22385.062 23877.109 18360.185 24472.730 28310.422 26069.512 23741.105 27588.673 21145.561 43756.597 20748.687 29671.298 25306.620 29420.130 23659.089 46602.101 33117.646 20542.761 27023.520 20832.510 14841.240 26390.335 27074.463 23246.516 13680.644 36610.178 26319.813 20569.851 22425.108 20635.645 46328.302 38613.946 24143.809 31384.698 33909.316 19007.988 21716.629 20815.841 21818.968 24189.529 29103.013 19136.499 29643.601 28731.714 17443.511 0.000 9742.440 26634.577 25640.054 27842.414 27000.367 51176.124 24678.010 18736.962 25444.902 41231.095 5797.087 12470.357 22068.858 4583.854 24812.188 17630.402 24612.015 19140.564 37616.026 36131.219 20414.942 21902.181 25129.544 37972.849 33160.212 27244.341 30059.376 39864.224 31988.405 7650.554 31422.401 16108.168 26980.337 43675.408 22022.069 44316.805 27026.391 35682.645 30050.384 44734.774 25350.417 21255.380 32627.650 32730.615 47141.306 13158.442 27361.670 22689.197 13529.599
28335.547 31795.056 19867.787 30437.498 23190.945 34095.209 20838.697 20951.800 20246.297 33797.239 12092.091 21929.312 16789.854 22262.319 21133.628 20993.230 25615.926 26563.943 28163.285 17255.615 36938.858 26103.972 27250.977 24118.531 26810.954 19827.393 21237.350 20021.635 33829.370 21005.328 28717.223 21991.354 26189.057 23565.609 28144.946 19301.130 19291.426 26084.664 30957.503 36858.397 20107.843 19057.034 28536.960 26170.215 51048.571 28406.184 26426.659 25777.713 24091.280 21841.849 23162.885 31602.675 23285.944 18930.800 23483.198 27092.907 27256.316 23816.821 26450.011 23244.099 36980.743 17969.165 29716.062 25505.516 30553.443 23489.815 41243.749 29530.900 21108.741 27850.021 19237.007 13815.494 26724.229 21311.841 24890.280 7458.179 27819.883 20431.962 24442.388 13701.578 18459.500 39909.472 31416.613 25689.883 24179.180 31112.093 11187.322 12925.261 23584.937 29512.728 21277.406 25327.071 25393.234 33142.705 19800.625 10198.842 9742.440 0.000 25990.739 19901.633 29621.209 35858.375 50941.609 15203.265 24797.877 21236.817 34454.466 4158.686 8297.662 26365.952 10240.120 23184.832 18574.122 26237.062 19062.823 31142.900 29152.758 22619.186 22494.505 15924.225 37637.641 31971.557 26800.719 26216.485 36268.805 30321.483 11849.131 30926.901 14027.638 24019.708 37042.889 21497.501 41011.340 20148.199 28709.959 34054.490 46034.168 27518.126 23277.070 30803.181 31512.281 48296.378 12107.866 22085.483 18570.097 9221.095
2404.153 5819.502 6830.732 4454.399 9443.521 36719.264 5901.775 10683.116 7045.470 13873.236 17345.678 10743.435 9239.065 3868.568 6007.268 5088.454 5800.574 10802.270 5760.015 9277.656 26627.843 3629.072 2675.320 3239.934 2084.114 7499.655 5267.760 6890.652 13733.891 5229.603 5535.767 7288.645 1654.676 8780.301 4860.741 6729.369 7000.580 1495.684 4994.437 27538.378 6795.694 6933.974 4442.067 2802.969 25669.550 5936.673 1497.645 7095.025 15588.540 8950.658 3706.883 32250.851 2787.961 8330.067 2542.057 2131.557 4991.663 3176.165 1538.014 8011.502 26506.947 8709.077 3961.752 2420.050 6339.168 3044.610 24822.073 10233.379 6317.817 4213.234 6807.119 12403.419 2664.904 14242.280 6343.229 19247.742 29874.825 14526.558 12081.643 23117.717 7804.275 27433.832 24251.236 5934.337 20209.256 9087.439 20157.981 23245.357 9494.143 24316.590 6843.174 8879.756 18463.414 13388.076 26197.681 19161.154 26634.577 25990.739 0.000 14053.800 7276.222 32935.743 25015.137 35070.339 17831.979 9837.885 24611.103 24807.321 17722.667 13214.285 22094.971 3475.913 9142.115 6098.430 7501.432 21106.889 21889.364 8524.525 5200.532 26137.045 11674.829 6550.507 906.898 9366.071 15419.969 5770.686 19126.088 4952.945 39758.669 6320.153 25980.044 4659.193 18978.156 17659.285 21601.793 15226.969 20459.742 7635.110 7818.014 6517.490 6137.799 22579.280 14218.024 12851.576 10346.894 16905.161
15310.720 18108.971 13594.407 17462.448 5319.848 23325.834 13771.192 19084.184 14567.317 27567.588 7823.132 19842.380 11319.535 11106.414 14412.645 10632.370 18276.321 7510.195 19446.340 13187.859 18237.418 16891.405 16650.029 15011.238 16031.558 14605.153 13410.929 13979.023 27459.069 12755.494 19426.576 16807.543 15428.041 19326.987 18713.323 10317.249 12623.308 15248.231 18047.158 18541.394 13970.623 10827.596 13351.746 16296.333 38354.133 19667.217 13277.003 8788.285 24955.022 5162.265 10450.605 40065.241 13004.016 14504.386 12224.805 13470.993 18500.296 14592.932 13267.580 18467.177 18222.823 7889.230 17652.405 15570.113 20392.715 13962.216 21377.684 10956.698 14792.478 18095.635 10201.551 12752.862 16462.031 1444.796 18246.788 12653.703 16219.653 753.960 22464.974 10597.474 9058.588 20689.883 13573.408 18423.526 7148.370 13447.837 9542.015 11037.661 19918.758 33774.932 7356.530 7293.084 27742.678 27014.233 12243.235 9840.370 25640.054 19901.633 14053.800 0.000 21105.271 42290.982 35022.943 23259.337 26988.722 4232.698 15729.889 21117.678 13200.068 24320.800 22229.021 10742.311 15178.622 18856.505 13269.089 12023.442 10956.900 18442.615 15204.465 12915.431 22948.574 16870.897 14898.175 7839.471 17124.703 14752.888 20432.103 17409.882 33494.634 8157.178 18085.234 12652.335 21921.061 3627.726 10527.350 28735.400 33077.454 20648.200 18328.422 14829.545 16468.146 34841.256 13638.253 2401.088 4693.987 12121.022
7261.578 7731.772 10018.517 6597.963 16707.979 43983.284 9154.234 9743.094 9453.554 6598.654 23149.165 9111.576 13494.182 10107.694 8702.178 10912.798 4006.106 17942.818 1699.818 12497.117 33471.589 4290.374 4604.427 6396.558 5194.092 9839.890 9004.594 9779.532 6457.683 9495.113 1744.944 7662.801 5726.733 6773.147 2421.164 12043.412 10835.694 5906.997 6464.440 34459.635 9705.743 11893.677 10509.391 4810.655 21623.135 1458.852 8498.999 14269.957 11988.680 16114.184 10665.517 27966.680 8228.680 10711.104 8894.014 8742.990 2703.235 6816.341 8527.236 6710.662 33335.925 14616.317 5311.564 5551.317 2341.938 7403.454 30640.117 16803.911 8628.232 3064.847 12159.604 15941.554 4675.034 21417.126 4757.461 23857.931 37100.143 21632.264 8522.752 29370.889 13435.621 33939.955 31433.313 3931.758 27463.568 14875.817 25976.015 29382.571 7153.426 19467.123 13755.306 16106.298 14390.944 6129.470 33048.463 24684.298 27842.414 29621.209 7276.222 21105.271 0.000 27689.521 23866.465 40657.597 13961.782 16956.708 31580.732 27510.482 21823.930 8511.414 23310.430 10366.598 11053.563 3388.447 10814.130 28191.321 29116.871 7434.549 7341.854 32577.826 11642.918 10097.544 6603.143 16516.360 20610.947 10862.929 20245.628 7426.195 42618.613 13594.807 32756.519 9251.055 23101.335 24732.378 28840.297 7995.558 16898.556 2588.898 6615.615 11566.406 9960.005 19299.245 17543.770 20074.310 16990.723 21267.781
34180.837 35410.941 29141.828 34174.479 40302.542 64842.194 29322.320 23483.092 28226.354 23695.394 39019.114 22929.291 30971.609 33041.196 28751.087 32765.393 27173.291 42971.746 28246.361 29106.226 58922.756 29425.518 30986.783 29960.562 31300.339 28052.182 29902.996 28782.458 23924.302 30502.704 28944.040 26457.216 31398.368 24319.763 29240.340 32366.274 29989.379 31517.033 34117.644 59642.239 28820.660 31773.765 37244.838 30261.423 41201.400 28226.491 34433.269 39450.552 17674.898 38997.341 34465.856 5288.363 31662.492 27942.492 32718.560 35015.505 28511.862 30218.197 34473.734 25174.769 58832.703 34468.392 32811.850 30517.123 30006.154 30706.794 57745.294 43124.198 28319.962 29737.930 32463.499 30088.480 30638.550 43329.487 26593.439 35785.155 57648.380 43029.648 20921.261 45049.412 33402.746 60165.706 55436.617 27049.580 49428.696 41908.528 40933.392 44580.343 23605.925 8684.905 36323.944 40852.194 14755.686 23576.911 50936.989 39088.741 27000.367 35858.375 32935.743 42290.982 27689.521 0.000 48203.773 51036.826 15479.012 39409.700 56664.544 31735.430 33347.989 19752.695 25678.113 34156.624 27185.381 26992.049 29258.457 52918.212 52836.161 24862.439 28579.941 48396.006 38664.072 37705.449 32773.421 41609.565 48041.693 38106.842 24945.100 35035.295 41618.767 37931.282 58407.599 30870.666 50788.083 45357.847 52450.342 22176.168 38962.275 25862.972 25361.726 38861.732 37514.131 41176.012 29968.364 42621.831 37664.645 33810.625
22634.186 19197.228 31610.676 20633.173 29836.109 51327.655 30624.967 33425.189 31547.838 24898.590 41081.173 32907.497 34251.672 28680.088 30521.009 29949.594 27180.695 27781.378 24612.185 34186.997 34935.338 25769.756 24240.960 27366.112 24546.718 32014.423 30088.866 31572.621 24684.551 30179.085 23837.211 30682.316 25089.334 30520.140 24145.455 31644.780 31952.584 25158.509 20164.401 36308.732 31477.427 31917.488 22634.965 25421.084 10300.969 24438.168 24515.758 26453.169 35547.408 30605.069 27828.560 49986.270 27781.571 32926.121 27481.203 23859.720 25193.313 27573.546 24492.847 30268.507 34720.800 33133.335 21563.433 25940.676 21936.851 27761.131 27051.389 24330.600 30694.447 24170.807 31706.540 37412.266 24812.256 34296.294 28081.604 43942.040 46367.038 35055.227 32293.876 45586.273 32510.373 32924.608 36879.697 27183.586 37724.259 21599.406 43669.358 45962.470 30976.620 41375.456 30139.459 27740.614 37521.902 25190.275 46351.788 43123.359 51176.124 50941.609 25015.137 35022.943 23866.465 48203.773 0.000 58218.885 37254.528 31493.360 34618.984 49802.409 42646.023 31833.194 46592.326 27781.860 33591.365 26772.045 32359.609 33333.582 35930.174 31001.815 29307.694 47863.099 13343.529 19050.981 24258.963 27199.156 20286.365 20899.647 43530.138 20062.538 64771.633 27741.672 33906.424 29634.528 17180.003 37760.250 35956.815 26236.946 9494.410 26454.534 30130.620 20573.063 19510.747 7806.571 39223.203 32774.079 33493.766 41764.900
37027.439 40306.255 30725.873 39293.430 28382.839 24527.711 31527.493 33753.861 31438.700 46024.930 17725.244 34771.385 27210.456 31255.426 32028.568 30147.473 36828.604 30711.573 39001.536 28489.702 34283.217 36533.628 37126.126 34376.323 36558.410 31138.386 31653.692 31012.774 46004.012 31183.358 39337.154 33669.736 35886.331 35808.287 38654.883 28742.801 29845.767 35734.162 39879.638 33643.671 31073.921 28807.816 35939.949 36296.255 60667.848 39253.648 34894.660 31782.083 38038.934 27675.019 31490.939 46802.705 32873.130 30405.100 32613.344 35351.004 38001.465 33981.856 34901.874 35243.876 34409.465 26396.476 39029.983 35533.914 40890.402 33468.301 41234.473 34187.467 32176.447 38184.565 28635.467 25304.419 36717.069 24150.179 36321.479 17238.365 20639.774 23319.078 37568.484 12661.990 27435.243 37821.578 28613.660 36941.091 22939.612 36697.336 14916.648 12256.630 36042.890 44401.175 28614.160 30495.230 39782.475 45377.402 14287.076 15999.865 24678.010 15203.265 35070.339 23259.337 40657.597 51036.826 58218.885 0.000 39120.213 26761.398 32217.776 19356.977 19669.942 39619.265 25365.443 31659.506 30410.045 37492.434 29964.425 30134.237 27316.887 34776.922 33353.289 11031.241 45703.016 39587.074 35975.216 31094.231 39949.340 37552.027 26526.677 39495.684 18722.140 30646.385 34799.720 31486.370 44644.276 21025.610 26977.005 46636.282 55409.233 39099.114 35213.457 37763.994 39148.268 57391.980 24165.737 25592.390 25053.991 19863.191
19387.558 21247.711 13670.996 19833.901 24823.542 49916.573 13845.307 8011.335 12749.318 13023.199 24628.898 7458.799 15721.930 17590.405 13279.583 17286.976 12283.515 27529.390 13961.826 13834.428 43452.836 14527.863 16227.892 14711.944 16429.700 12585.004 14433.211 13308.559 13188.691 15027.303 14751.775 11021.347 16407.151 9057.638 14850.345 16916.461 14537.312 16501.453 19913.215 44164.196 13345.123 16332.987 22247.913 15330.184 32860.044 14018.608 19313.517 24059.839 2249.320 23524.928 19039.181 14427.806 16291.219 12523.501 17343.228 19956.170 13945.942 14927.085 19355.009 9865.325 43364.996 19112.486 18452.994 15453.666 16258.519 15371.164 42604.397 27867.006 12847.757 15222.178 17016.725 15388.936 15794.116 27963.762 11564.769 22360.795 42705.618 27715.585 5808.574 31010.352 18002.663 44764.241 39985.258 12182.707 34136.809 26914.687 26905.906 30663.394 8340.945 6824.650 20846.494 25406.364 758.208 12540.091 36487.024 25115.052 18736.962 24797.877 17831.979 26988.722 13961.782 15479.012 37254.528 39120.213 0.000 23956.059 41186.601 21215.681 19821.491 5485.002 15193.155 18735.968 11811.683 12264.201 13819.925 37439.230 37393.495 9471.417 13180.346 34445.094 25599.846 23288.793 17806.420 26183.911 33206.506 23325.428 12962.884 20708.166 34836.358 22487.252 42949.608 15405.865 36414.657 30195.700 37013.510 12276.236 29089.549 11606.899 10057.562 24092.231 23022.621 31526.459 15727.413 27193.434 22318.371 19988.847
11090.497 13973.163 10295.811 13262.750 1954.201 27178.257 10263.353 15947.385 11240.327 23470.847 9829.418 16590.724 8863.160 7126.768 10886.212 6892.423 14326.139 5432.241 15317.958 10556.253 19836.632 12795.899 12455.879 11018.653 11838.978 11374.064 9794.073 10666.518 23354.013 9144.998 15258.798 13294.189 11249.939 15753.167 14550.206 7043.432 9421.119 11069.501 13850.390 20402.803 10637.878 7638.635 9305.377 12161.506 34311.088 15532.069 9045.460 5043.535 21822.564 954.281 6293.494 37585.454 8989.044 11476.970 8132.153 9255.473 14393.737 10612.120 9036.435 14872.959 19777.559 5263.034 13422.340 11455.095 16173.525 9983.618 21212.099 8309.744 11297.741 13924.102 6946.599 11187.539 12292.750 4480.030 14387.721 13778.908 20185.298 4689.929 19032.447 14215.075 6101.190 21712.222 16029.479 14475.081 10690.254 10229.934 12236.935 14525.978 16392.690 30780.691 3341.190 4121.455 24695.962 22933.337 16460.265 11941.394 25444.902 21236.817 9837.885 4232.698 16956.708 39409.700 31493.360 26761.398 23956.059 0.000 17447.027 21650.254 13529.805 20775.140 21544.875 6598.773 12269.405 14874.983 10152.687 13650.321 13439.587 14950.969 11477.587 16863.353 19027.512 12908.053 10673.351 4983.279 15033.599 10828.294 19291.118 13247.455 35193.387 4007.672 19474.910 8929.523 19777.439 7821.878 13064.552 24689.592 29028.608 16652.961 14717.331 11006.226 12484.992 30862.127 12530.673 3314.510 2776.843 12439.620
24346.427 25254.079 27553.971 25602.705 16370.496 16895.886 27342.255 33197.060 28450.309 38041.089 22726.289 33736.776 26283.049 23669.169 27917.080 23899.668 30265.056 13872.040 30266.062 28002.978 2521.393 28220.286 27120.890 27088.795 26612.488 28648.756 26767.719 27904.195 37866.852 26162.712 29870.275 30243.367 26265.605 32522.785 29286.024 24409.731 26758.155 26105.688 26014.299 2977.783 27861.398 25022.303 21140.693 27409.032 41657.142 30406.690 23205.376 17559.603 38994.501 17733.953 22313.065 55017.999 25200.280 28852.617 24157.753 22860.924 29585.669 26762.746 23171.640 31642.620 2536.159 22665.014 26561.365 26918.130 29909.423 26204.816 9738.279 14900.452 28347.384 28650.276 24323.031 28278.309 27246.701 14352.343 30611.529 27801.193 13512.903 15007.809 35918.120 21732.574 23547.602 5665.653 3620.947 30409.281 10320.243 17414.249 23276.035 22501.695 33215.634 47990.304 20362.454 15938.515 41909.109 37649.993 17933.895 24348.390 41231.095 34454.466 24611.103 15729.889 31580.732 56664.544 34618.984 32217.776 41186.601 17447.027 0.000 36372.996 28762.514 37436.311 37951.363 22634.066 29675.069 30654.277 27513.636 3800.518 5325.483 31870.599 28183.669 21574.818 27137.940 22901.131 25095.487 15296.971 14720.710 21258.609 36135.896 25025.709 46967.795 18832.867 2648.569 25807.766 17521.438 14360.897 5759.682 39542.626 36925.691 32245.595 31465.240 20738.620 22762.771 37811.032 29314.985 14513.180 19675.778 27715.261
27205.234 30612.766 18244.511 29170.090 23574.095 37499.193 19234.752 18292.759 18439.387 31093.121 13646.737 19213.311 15620.234 21309.048 19416.837 20055.432 23553.158 27080.865 26178.256 15636.185 38888.041 24363.022 25696.670 22534.668 25325.433 17987.746 19734.318 18325.134 31147.395 19623.451 26806.690 19858.773 24749.056 21095.919 26298.219 18364.654 17850.908 24668.478 29648.354 38939.755 18417.973 18003.110 27874.198 24554.274 49117.594 26409.820 25461.497 25733.672 20727.609 22103.978 22421.087 27446.157 22028.033 17066.055 22403.240 26177.771 25340.015 22287.036 25489.960 20904.049 38908.962 17582.885 28297.465 23957.529 28704.995 22055.977 42429.684 29748.518 19312.261 26085.854 18324.500 12407.826 25141.793 22561.750 22755.403 8573.092 30962.989 21740.068 21505.877 16750.302 17795.672 41651.404 33563.056 23607.344 26290.815 30968.486 13554.011 16021.429 21008.781 25577.796 21041.060 25586.679 21766.770 30446.247 23029.192 12143.152 5797.087 4158.686 24807.321 21117.678 27510.482 31735.430 49802.409 19356.977 21215.681 21650.254 36372.996 0.000 8122.897 23322.811 6240.366 22384.226 16546.243 24133.839 17472.595 32875.131 31161.002 20225.948 20722.542 19361.374 36460.478 31107.066 25544.932 26521.402 36549.394 29650.095 8312.262 29750.911 15128.713 23859.441 38891.484 20169.169 41184.253 22028.870 30712.431 31193.830 44248.544 25230.929 20966.324 30208.285 30655.684 46579.386 10590.918 23078.429 18881.309 9218.393
20052.637 23514.431 11859.282 22175.380 15458.613 32210.138 12795.762 14100.001 12370.592 26614.147 6431.189 15117.623 8590.576 13969.414 13163.146 12701.224 17838.940 18959.091 20278.816 9326.830 31283.665 18069.310 19102.132 16013.741 18634.383 11993.515 13126.435 12063.010 26614.615 12836.147 20768.737 14375.531 17997.857 16306.250 20157.412 11013.483 11179.291 17884.825 22703.894 31453.405 12141.936 10792.278 20263.259 18061.439 42995.120 20527.691 18130.365 17734.736 18521.064 14002.502 14870.289 29988.787 15049.003 11153.155 15203.423 18795.250 19329.974 15686.689 18153.489 15827.289 31286.889 9730.138 21498.624 17367.822 22543.714 15317.182 34380.576 21673.675 13200.719 19811.197 10946.658 5897.608 18593.174 14641.102 17197.718 2539.306 25213.799 13866.105 17899.995 11739.252 10166.082 33873.353 26197.854 17929.840 19017.551 23027.977 7675.634 11238.888 16475.885 25735.823 13115.253 17493.989 20528.473 25959.672 17838.946 5841.387 12470.357 8297.662 17722.667 13200.068 21823.930 33347.989 42646.023 19669.942 19821.491 13529.805 28762.514 8122.897 0.000 19949.348 9515.788 14888.415 10983.599 18486.069 11051.477 25147.963 23688.433 15292.947 14536.347 15050.656 29350.241 23676.859 18546.578 18421.927 28469.434 22048.860 8674.822 22646.600 22250.694 15906.280 31205.912 13299.685 33137.783 14625.160 23240.621 27103.627 37915.393 19929.126 15823.209 22547.232 23217.856 40140.660 4518.605 15037.385 10764.723 1100.157
14443.589 15969.861 10756.653 14618.465 21292.950 47621.437 10561.071 5936.354 9785.941 8257.680 23548.606 4940.347 13699.475 13849.622 9923.368 13883.930 7427.096 23583.467 8672.112 11919.878 39583.776 9673.910 11246.995 10375.787 11548.220 9816.033 10984.261 10371.864 8376.884 11636.917 9432.718 7516.646 11652.987 5022.191 9620.035 14005.625 11755.355 11775.893 14642.140 40402.850 10371.394 13516.591 17492.629 10511.038 27910.143 8697.477 14710.837 19951.132 3753.260 20183.214 15133.517 19541.964 12236.834 10148.995 13278.736 15273.624 8810.106 10682.559 14750.742 5902.535 39477.626 16543.867 13236.809 10794.836 10830.997 11231.818 37997.210 23439.236 9532.670 10064.678 14122.506 14520.853 10887.188 25086.861 6899.674 22403.665 40460.652 24998.653 2069.936 30078.579 15313.071 40592.333 36608.583 7300.784 31361.758 22156.016 26132.865 29864.308 4402.853 11221.229 17477.132 21498.821 5881.121 7676.349 34974.854 24476.907 22068.858 26365.952 13214.285 24320.800 8511.414 19752.695 31833.194 39619.265 5485.002 20775.140 37436.311 23322.811 19949.348 0.000 17915.573 14809.841 9757.844 7243.171 11195.156 33779.331 34085.133 5878.814 9337.663 33503.569 20131.884 18126.941 13022.500 22177.207 28318.919 18381.760 15127.136 15492.067 37863.537 18607.208 38998.651 11853.729 31274.736 27778.066 33737.539 7989.087 23881.717 6273.815 6061.121 19141.540 17896.897 26328.286 15465.538 24088.372 19653.613 19813.401
24469.602 27682.752 15264.242 26159.190 23300.566 41501.621 16204.616 13626.424 15144.999 25999.207 15946.838 14410.062 13660.734 19151.236 16192.408 18013.822 19558.917 26828.074 22202.958 12932.688 40463.336 20822.578 22382.933 19323.245 22130.958 14677.439 16827.223 15219.299 26081.541 16917.057 22920.761 15940.882 21648.902 16587.010 22523.894 16471.115 15202.088 21608.225 26560.310 40721.940 15315.089 15958.816 25814.979 21195.349 44837.258 22410.173 23050.039 24702.170 14955.702 21741.853 20516.047 21618.865 19350.974 13797.391 19978.753 23809.529 21496.314 19172.992 23084.928 16603.706 40451.006 16623.881 25090.962 20729.381 24852.443 19104.114 42756.813 28938.481 15967.815 22442.142 16472.504 10588.968 21808.419 23631.046 18685.429 11371.545 34610.077 22944.695 16289.329 20725.334 16385.479 42852.368 35560.305 19580.968 28454.710 29573.899 16896.539 20104.039 16341.213 19337.456 20003.094 25018.830 15698.157 25371.787 27005.908 15146.253 4583.854 10240.120 22094.971 22229.021 23310.430 25678.113 46592.326 25365.443 15193.155 21544.875 37951.363 6240.366 9515.788 17915.573 0.000 20391.213 13055.423 20055.506 14616.694 34250.802 33007.507 15876.468 17322.350 23781.102 33392.965 28632.709 22688.917 25976.345 35629.677 27511.387 3074.352 26856.896 19950.362 22752.575 40309.354 17506.358 40003.825 24047.862 32563.042 25898.609 40208.723 20841.596 16708.384 28164.609 28207.175 42607.746 9036.386 23739.462 18844.340 10437.506
5405.815 8811.497 5709.433 7660.498 6605.834 33731.886 5119.315 10924.043 6371.050 16872.817 13947.654 11298.835 6844.787 1306.084 5571.748 2384.540 7871.003 8822.164 8720.025 7514.821 24815.393 6203.667 5936.671 4565.273 5318.174 6715.602 4444.191 5953.829 16755.322 3982.902 8684.600 7714.654 4695.407 9895.486 7971.017 4030.647 5359.239 4516.816 8239.609 25604.641 5879.215 4463.845 5505.371 5563.995 29023.748 8935.755 3319.920 5340.106 16503.897 5787.650 327.982 32946.150 2581.458 7285.295 1584.396 3925.708 7796.328 4194.780 3335.981 9019.358 24716.343 5427.036 7393.539 4857.664 9740.534 3600.633 24136.011 9379.576 5997.045 7355.041 4063.285 10083.605 5721.579 11073.136 8069.776 16185.245 26776.476 11266.066 13298.963 19644.624 4729.729 26028.296 21860.183 8020.204 17210.231 9297.897 16742.908 19779.751 10594.727 25472.154 3417.594 6712.214 19432.387 16338.442 22791.934 15816.336 24812.188 23184.832 3475.913 10742.311 10366.598 34156.624 27781.860 31659.506 18735.968 6598.773 22634.066 22384.226 14888.415 14809.841 20391.213 0.000 8187.254 8373.399 6078.926 18969.721 19383.414 9294.275 5578.400 22662.953 14553.269 8790.235 4377.941 7453.177 15584.484 7270.410 17582.324 7960.825 37107.064 3801.471 24266.744 3466.535 19710.718 14368.054 19057.582 18106.655 23783.573 10123.766 8839.115 7856.789 8331.922 25841.900 11879.041 9787.536 6873.230 13986.452
11471.821 14629.989 2485.547 13104.039 13354.403 38233.719 3271.880 3989.719 2103.553 15652.904 13810.002 4879.932 4010.108 6883.236 3152.347 6106.226 7054.086 16415.740 9647.672 2167.566 32020.318 7873.369 9351.604 6267.834 9078.585 1643.100 3952.956 2301.690 15646.153 4242.988 10261.487 3425.380 8594.417 5401.993 9755.294 5268.990 2983.250 8556.861 13506.722 32642.530 2390.823 4653.369 13189.150 8170.310 32594.517 9883.783 10251.462 13336.633 9791.012 11942.356 8412.817 25346.529 6509.881 902.830 7320.857 11016.428 8794.300 6125.687 10289.723 4852.832 31948.844 7301.708 12047.555 7676.921 12159.445 6105.673 32192.413 17517.598 2912.484 9568.232 5352.967 5124.815 8779.425 16159.274 6316.360 13230.271 31032.203 15904.155 7721.791 20340.077 6217.884 33631.817 28269.226 7122.345 22326.062 17421.667 16445.243 20149.763 5693.315 18611.785 9370.683 14319.780 12564.791 15000.500 25251.540 14849.937 17630.402 18574.122 9142.115 15178.622 11053.563 27185.381 33591.365 30410.045 11811.683 12269.405 29675.069 16546.243 10983.599 9757.844 13055.423 8187.254 0.000 7666.124 2209.132 25889.863 25660.984 4368.066 4283.746 23757.208 20345.911 15688.948 9671.564 15199.172 23754.246 14774.550 10034.589 13809.093 31674.954 11509.780 31594.461 4814.673 27757.012 18433.786 25271.083 16226.967 27702.311 8982.525 4841.535 15479.070 15279.662 30036.995 6552.498 15441.999 10507.283 10590.924
7204.226 9062.980 6769.883 7600.090 14970.835 42053.221 5980.233 6653.463 6127.294 8863.557 20135.252 6193.893 10282.385 7762.635 5463.872 8297.865 664.134 16796.314 2165.245 9166.391 32705.590 2475.907 4008.774 3857.011 4311.307 6492.648 5955.664 6498.689 8789.284 6524.713 2936.736 4277.557 4474.639 3800.714 2744.103 9157.413 7654.503 4614.915 7733.752 33594.996 6431.984 8911.571 10263.793 3315.084 24986.988 2358.907 7574.159 13095.966 10090.984 14123.456 8698.490 26643.402 5885.977 7345.968 6791.794 8083.662 1728.546 4268.515 7612.333 3500.470 32587.692 11811.517 6230.203 3736.371 4842.501 4899.337 30772.695 16313.949 5334.771 2991.426 9278.677 12592.999 3647.707 19348.115 1383.309 20569.426 35037.333 19447.439 6470.504 26476.724 10579.307 33528.488 30134.039 556.985 25550.800 14918.364 22941.268 26439.268 4360.148 18453.222 11552.028 14788.958 12821.028 8265.282 30491.181 21572.728 24612.015 26237.062 6098.430 18856.505 3388.447 26992.049 26772.045 37492.434 12264.201 14874.983 30654.277 24133.839 18486.069 7243.171 20055.506 8373.399 7666.124 0.000 7545.296 27096.160 27700.444 4235.728 4156.879 29754.754 14006.815 11025.790 5807.858 15364.005 21081.293 11147.309 16982.777 8470.165 39249.007 12013.924 32069.362 6406.265 24153.145 22466.779 27387.124 9903.662 20196.693 1794.408 3371.490 11909.552 10758.992 22575.306 14170.494 18130.032 14473.503 17962.032
9896.254 13215.388 808.752 11736.115 11169.764 36480.507 1779.317 5835.174 1522.166 16138.037 12808.408 6573.697 2776.515 4774.307 2115.878 3912.710 6884.141 14206.909 9236.453 1837.826 29845.495 7044.711 8240.337 5081.112 7853.543 1381.243 2271.619 1048.539 16100.071 2301.797 9717.469 3904.885 7278.765 6375.023 9112.224 3112.065 774.118 7202.933 12195.221 30484.576 1113.367 2515.397 11277.994 7124.393 31994.328 9486.596 8440.068 11147.974 11722.457 9781.474 6282.937 27523.752 4736.658 1342.114 5393.949 9202.368 8279.866 4816.241 8475.691 5612.195 29771.483 5395.055 10825.393 6494.726 11509.076 4599.854 29996.393 15349.162 2213.227 8791.064 3206.343 5247.788 7695.543 14172.121 6358.967 13043.977 29299.952 13977.129 9254.529 19280.186 4213.904 31428.793 26178.197 6990.276 20395.218 15365.849 15561.889 19167.489 6858.363 20641.857 7178.422 12110.717 14564.952 15501.493 23845.084 14106.229 19140.564 19062.823 7501.432 13269.089 10814.130 29258.457 32359.609 29964.425 13819.925 10152.687 27513.636 17472.595 11051.477 11195.156 14616.694 6078.926 2209.132 7545.296 0.000 23735.067 23579.787 5384.417 3487.684 22646.142 19033.030 14020.090 8154.307 12991.447 21663.052 12930.554 11689.545 12365.649 32544.090 9307.225 29408.802 2892.719 25751.970 16636.540 23196.919 16910.704 26973.153 9136.729 5525.747 13607.000 13592.104 29248.074 6986.834 13373.733 8575.144 10457.360
21016.881 22218.728 23790.155 22427.495 12615.705 18093.601 23601.194 29440.677 24694.354 34714.831 19248.311 29997.482 22482.648 19968.648 24183.511 20155.592 26682.854 10307.661 26817.508 24205.310 6250.432 24687.670 23670.628 23466.632 23141.118 24883.986 23037.805 24143.652 34548.519 22425.686 26463.540 26526.514 22759.677 28837.091 25855.356 20627.891 22982.515 22595.018 22874.742 6753.844 24102.707 21238.575 17873.022 23889.650 39650.109 26969.719 19739.908 14016.350 35256.162 13953.595 18645.820 51228.440 21546.218 25072.492 20512.685 19448.449 26097.163 23128.524 19708.067 27954.393 6219.269 18864.555 23300.423 23366.726 26625.984 22558.071 11100.301 11791.910 24612.494 25213.035 20539.767 24494.224 23761.852 10622.184 26993.430 24306.529 13255.853 11317.047 32222.826 18905.128 19751.448 8783.936 3662.746 26828.673 7390.944 14531.249 20025.650 19643.373 29524.037 44250.348 16599.075 12317.641 38165.378 34297.782 15947.890 20968.157 37616.026 31142.900 21106.889 12023.442 28191.321 52918.212 33333.582 30134.237 37439.230 13650.321 3800.518 32875.131 25147.963 33779.331 34250.802 18969.721 25889.863 27096.160 23735.067 0.000 2961.387 28161.808 24491.520 19216.624 24674.993 19965.467 21641.014 11743.674 13059.146 18180.210 32383.764 21912.042 43984.985 15176.678 6063.852 22085.256 16686.072 10997.240 3213.454 36180.538 34739.949 28724.455 27779.506 17729.768 19778.915 35821.285 25556.200 10721.121 15881.102 24086.975
22112.846 23694.637 23734.966 23728.010 12803.121 15843.696 23668.709 29386.465 24676.372 35702.524 17528.404 30025.311 22020.244 20245.452 24280.058 20246.696 27234.017 11230.459 27648.877 23827.018 7787.096 25369.883 24528.475 23945.754 23964.578 24813.551 23161.444 24104.646 35549.432 22523.820 27373.249 26673.569 23518.458 29080.892 26727.884 20477.224 22856.312 23345.873 24216.460 7783.294 24074.658 21064.506 19111.104 24608.140 41871.630 27821.167 20618.437 14850.949 35261.828 13929.533 19055.434 50864.408 21956.259 24893.715 20962.469 20428.852 26857.882 23578.076 20590.706 28195.744 7834.322 18432.443 24472.395 24020.875 27732.739 22978.032 13955.718 13395.153 24699.277 26079.519 20377.695 23698.821 24552.243 9692.591 27451.342 22601.326 10469.918 10207.372 32413.332 16441.786 19445.666 10931.802 2626.998 27382.482 4995.182 16299.481 17968.030 17204.397 29743.219 44217.816 16639.424 13013.928 38134.497 35246.324 13074.168 19084.204 36131.219 29152.758 21889.364 10956.900 29116.871 52836.161 35930.174 27316.887 37393.495 13439.587 5325.483 31161.002 23688.433 34085.133 33007.507 19383.414 25660.984 27700.444 23579.787 2961.387 0.000 28328.070 24747.478 16482.157 26663.021 21580.499 22514.406 12630.138 15652.836 19662.121 31350.791 23297.602 41657.370 15688.083 7958.040 22250.397 19500.959 9134.520 449.023 37103.586 36865.695 29397.363 28030.560 19299.884 21344.501 38066.022 24584.396 10219.625 15292.608 22665.149
10379.327 12885.298 4889.986 11353.492 15583.655 41743.848 4697.371 2444.549 3925.686 11321.883 18048.837 2232.215 8027.525 8202.203 4066.585 8082.076 3835.959 18112.619 6400.893 6395.825 34088.538 5682.038 7451.047 5313.184 7469.876 4006.867 5167.087 4506.759 11325.624 5809.203 7165.277 1656.889 7278.545 1036.666 6886.317 8126.823 5896.747 7336.186 11597.805 34846.665 4501.235 7641.427 12965.938 6354.632 29017.410 6589.520 9966.896 14598.633 7227.493 14399.944 9604.354 23811.277 6820.584 4500.220 7873.814 10653.553 5833.515 5487.160 10008.723 735.645 33993.497 10678.045 10058.640 6268.997 9078.167 5904.573 33163.804 18406.023 3663.940 6968.282 8243.699 9480.159 6920.149 19222.953 2930.855 17583.288 34586.934 19122.462 4085.544 24562.728 9440.764 35312.310 30877.887 3822.356 25494.874 17588.732 20737.307 24408.860 1483.887 16178.207 11689.298 15996.018 10153.155 10667.085 29228.933 19179.765 20414.942 22619.186 8524.525 18442.615 7434.549 24862.439 31001.815 34776.922 9471.417 14950.969 31870.599 20225.948 15292.947 5878.814 15876.468 9294.275 4368.066 4235.728 5384.417 28161.808 28328.070 0.000 3718.380 27955.677 18134.512 14540.886 8652.259 16747.128 23940.615 14215.739 12811.083 12186.214 35283.843 13075.831 33554.686 6087.755 27435.545 21902.507 27970.013 11859.422 24333.081 5018.709 874.770 14977.841 14207.069 26731.461 10804.176 18257.795 13775.234 14943.947
7380.753 10397.163 2683.799 8859.566 11958.876 38522.905 1826.519 5568.292 2283.240 12953.654 15983.382 5792.542 6156.702 4525.127 1373.201 4599.399 3494.036 14399.727 5749.327 5243.909 30385.566 3641.920 5068.117 2050.192 4813.763 2737.072 1859.828 2479.193 12893.849 2489.046 6238.026 2196.682 4372.846 4347.525 5650.641 5114.151 3507.557 4358.326 9242.337 31157.865 2396.976 4802.078 9554.030 3886.841 28554.866 5999.776 6526.796 10881.753 10940.635 10854.606 5890.765 27471.651 3119.051 3659.252 4165.551 7261.782 4793.644 2025.252 6568.114 3463.470 30288.531 7786.472 7769.180 3414.934 8059.338 2276.595 29509.784 14734.412 1410.312 5376.033 5237.016 8700.092 4495.693 15859.614 3155.889 16521.693 31422.051 15846.366 7734.458 22350.361 6533.492 31594.224 27273.901 3616.577 22130.972 14081.673 18785.952 22298.668 5032.894 19896.102 8156.093 12286.114 13868.092 12336.650 26525.489 17418.304 21902.181 22494.505 5200.532 15204.465 7341.854 28579.941 29307.694 33353.289 13180.346 11477.587 28183.669 20722.542 14536.347 9337.663 17322.350 5578.400 4283.746 4156.879 3487.684 24491.520 24747.478 3718.380 0.000 25651.217 16070.749 11631.204 5568.820 13029.997 20459.087 10969.452 14283.658 9594.642 35839.298 9367.980 29843.787 2559.431 24158.359 18758.568 24400.216 13876.659 23575.896 5858.861 3291.040 11712.010 11246.473 25878.622 10389.144 14791.221 10646.587 13942.944
27776.539 30814.388 23287.211 30009.694 18223.168 18178.043 23882.623 27610.714 24165.703 38602.245 9957.033 28577.932 19930.564 22576.091 24477.607 21670.984 29104.973 20111.135 30878.235 21611.855 23792.691 28295.689 28508.633 26185.362 27901.559 23987.277 23809.857 23638.044 38537.517 23230.048 31050.476 26550.157 27243.886 28976.849 30336.045 20601.529 22295.852 27074.166 30601.748 23315.232 23674.279 20852.454 26164.410 27883.090 51174.408 31122.059 25657.834 21691.854 32869.087 17815.526 22432.768 44982.427 24392.489 23463.671 23891.022 25984.893 29875.592 25763.380 25656.648 28250.680 23897.074 17973.008 29992.865 27113.106 32344.156 25175.015 30303.567 23589.344 24735.156 29782.198 20481.111 19160.748 28195.264 13567.052 28795.339 12663.248 12057.826 12818.121 31449.523 3442.491 19184.024 27234.808 18041.236 29237.673 11935.046 26264.114 7543.462 3818.078 29384.285 40656.659 19331.147 20194.333 35181.996 37987.661 4114.975 9360.354 25129.544 15924.225 26137.045 12915.431 32577.826 48396.006 47863.099 11031.241 34445.094 16863.353 21574.818 19361.374 15050.656 33503.569 23781.102 22662.953 23757.208 29754.754 22646.142 19216.624 16482.157 27955.677 25651.217 0.000 35841.179 29740.359 27034.546 20674.091 29055.215 27635.190 23622.201 30065.003 26082.475 20868.917 24205.365 23380.321 33702.429 10191.017 16115.924 39500.534 45891.865 31502.173 28170.238 27737.515 29326.596 47711.881 18729.015 15093.396 15790.157 14614.287
9304.327 5855.392 18293.939 7297.351 17628.845 42503.309 17312.442 20578.897 18276.204 15195.907 28207.142 20195.661 20913.623 15383.284 17238.749 16649.895 14309.390 16462.412 11933.070 20855.215 28330.594 12640.005 11014.366 14086.619 11268.531 18744.302 16761.412 18271.086 14966.174 16838.267 11121.678 17604.093 11782.785 17806.736 11272.949 18337.430 18612.838 11842.880 6849.226 29580.034 18175.437 18590.872 9763.501 12203.611 15529.700 11809.415 11247.902 14160.635 23625.778 18088.353 14629.611 39420.200 14438.088 19647.124 14156.919 10633.603 12319.515 14271.466 11228.097 17418.686 28145.482 19962.226 8302.162 12669.717 9392.879 14433.236 22879.261 13429.045 17435.763 11170.083 18403.587 24068.782 11589.376 22502.117 15211.739 30737.416 36529.458 23134.121 20111.758 33237.098 19260.830 27609.722 28324.987 14339.122 27086.656 10446.507 30901.975 33521.779 18354.176 30816.069 17180.000 15778.824 26011.587 15192.706 34942.867 30185.714 37972.849 37637.641 11674.829 22948.574 11642.918 38664.072 13343.529 45703.016 25599.846 19027.512 27137.940 36460.478 29350.241 20131.884 33392.965 14553.269 20345.911 14006.815 19033.030 24674.993 26663.021 18134.512 16070.749 35841.179 0.000 6122.995 10915.853 15493.530 12967.727 8207.346 30349.681 6722.069 51433.497 15070.515 27406.242 16291.647 13391.886 26112.739 26551.871 16829.768 10327.653 14103.528 17261.396 8135.251 6556.302 11910.770 25879.713 20934.379 20679.111 28493.369
4250.554 2495.907 13372.609 3530.973 11555.011 37294.341 12451.789 16879.633 13588.784 15801.130 22143.975 16761.285 15490.319 9799.781 12545.465 11059.769 11057.885 10764.333 9476.867 15757.776 24471.092 8898.529 7133.198 9587.406 7071.441 14045.893 11811.276 13440.709 15597.873 11725.370 8762.043 13565.961 7327.623 14533.838 8508.009 12758.079 13471.880 7307.491 3641.628 25600.719 13345.859 13104.000 3651.319 8186.655 21495.271 9483.373 5654.081 8100.969 21114.102 11967.006 8809.722 37640.507 9283.458 14880.571 8738.799 4929.320 9350.466 9629.051 5623.903 13912.861 24309.957 14087.120 4899.731 8342.109 7892.211 9583.938 20679.385 8204.145 12837.931 8078.267 12806.496 18721.873 7633.914 16492.662 11861.727 24896.851 31015.260 17087.855 17494.880 27114.669 13512.069 24437.185 23519.137 11144.224 21408.207 5486.984 24812.667 27399.157 15199.585 29324.400 11132.331 9806.598 23835.662 15543.767 28954.654 24148.493 33160.212 31971.557 6550.507 16870.897 10097.544 37705.449 19050.981 39587.074 23288.793 12908.053 22901.131 31107.066 23676.859 18126.941 28632.709 8790.235 15688.948 11025.790 14020.090 19965.467 21580.499 14540.886 11631.204 29740.359 6122.995 0.000 6062.601 9640.173 10549.924 2129.533 25674.055 2675.519 45895.018 8947.988 23647.433 11140.228 13148.818 20114.035 21409.315 17420.831 16228.133 11876.855 13727.786 2290.049 460.319 17973.838 20537.331 14926.961 14587.194 22763.797
1812.971 5070.887 7446.974 3641.066 10197.188 37456.767 6487.867 10907.526 7568.080 13196.449 18250.252 10884.184 10024.580 4756.920 6519.333 5959.864 5602.091 11359.597 5176.889 9959.465 27065.563 3348.754 2029.615 3528.505 1531.497 8031.247 5890.963 7470.408 13049.056 5925.987 4858.949 7546.331 1399.567 8802.299 4221.204 7578.844 7701.944 1318.639 4157.715 28005.449 7374.522 7754.595 4473.227 2512.062 24775.608 5329.983 1903.203 7672.190 15575.143 9773.576 4601.824 32234.176 3527.574 8893.849 3415.365 2287.612 4510.139 3570.759 1933.904 8085.177 26939.320 9607.276 3060.965 2385.979 5505.068 3585.306 24974.998 10537.752 6791.977 3575.370 7660.655 13155.199 2189.701 15049.974 6246.594 20107.369 30647.111 15356.904 12016.377 24021.875 8685.521 27765.125 24842.154 5724.114 20963.425 9145.175 21063.605 24151.357 9504.705 24192.439 7727.787 9503.160 18416.091 12732.246 27064.369 20060.374 27244.341 26800.719 906.898 14898.175 6603.143 32773.421 24258.963 35975.216 17806.420 10673.351 25095.487 25544.932 18546.578 13022.500 22688.917 4377.941 9671.564 5807.858 8154.307 21641.014 22514.406 8652.259 5568.820 27034.546 10915.853 6062.601 0.000 9928.094 15400.184 5567.008 19695.041 4214.576 40530.883 7057.913 26393.777 5375.831 18783.286 18494.362 22237.154 14590.895 19572.593 7216.361 7893.492 6331.396 5679.014 21704.455 14964.594 13637.446 11244.951 17744.266
9491.179 11399.158 12839.471 11214.941 3033.309 27951.989 12435.412 18314.328 13638.012 23087.036 14720.571 18736.413 12595.126 8606.406 12950.993 9112.615 14968.251 1436.318 15096.237 13954.528 17406.797 12945.391 11954.780 11807.735 11412.205 13916.964 11799.305 13147.031 22930.534 11252.647 14777.223 15163.724 11017.494 17327.153 14149.270 10088.973 12217.927 10852.091 11737.357 18248.774 13087.308 10704.143 6613.437 12145.977 31018.454 15256.131 8025.094 2272.676 23954.990 4419.425 7145.981 40335.641 9970.135 14312.802 8916.667 7800.876 14357.635 11494.720 7995.128 16457.072 17300.503 9352.583 11868.664 11630.021 15105.184 10956.317 17068.122 3332.107 13382.550 13503.299 10037.183 15413.122 12025.408 7123.310 15323.501 18759.463 21460.580 7857.866 20734.774 18434.043 9722.002 18584.427 14916.993 15112.630 11793.215 5609.051 16975.112 18855.461 18032.267 32925.233 6066.646 957.748 26883.362 22642.799 19473.767 16838.170 30059.376 26216.485 9366.071 7839.471 16516.360 41609.565 27199.156 31094.231 26183.911 4983.279 15296.971 26521.402 18421.927 22177.207 25976.345 7453.177 15199.172 15364.005 12991.447 11743.674 12630.138 16747.128 13029.997 20674.091 15493.530 9640.173 9928.094 0.000 10064.371 7537.624 23506.393 10883.253 40176.478 3720.658 16830.379 10814.338 14795.292 10679.153 12375.344 24511.415 25785.206 16981.178 16274.065 7410.079 9304.425 27391.874 16952.741 5581.076 7676.824 17342.653
13877.068 13018.945 21268.930 14013.034 13079.512 31117.093 20577.241 26024.465 21838.372 26285.072 24600.265 26150.829 21992.961 16890.056 20917.158 17841.097 20965.055 9772.021 19830.096 23014.741 15572.162 18704.392 17073.200 18632.788 16804.768 22224.695 19881.925 21482.905 26075.683 19515.598 19176.031 22630.530 16799.361 24182.995 18822.754 19233.587 20935.868 16706.320 14185.961 16879.337 21401.592 19792.496 10978.743 17887.362 26942.575 19871.996 13976.974 10942.502 30973.462 14475.749 15384.743 47634.304 17452.749 22855.594 16507.578 13288.764 19530.030 18497.749 13935.146 23429.659 15375.505 19135.260 15323.785 17759.618 18440.009 18183.732 10201.462 6801.223 21308.906 18307.533 19217.111 25052.705 17455.837 15983.092 21645.137 28810.631 26109.585 16873.603 27414.134 27426.651 19248.304 14642.489 16644.350 21077.463 17901.194 6379.369 26636.846 27970.215 24891.700 39534.494 15677.057 10978.834 33814.595 26058.425 26871.558 26708.151 39864.224 36268.805 15419.969 17124.703 20610.947 48041.693 20286.365 39949.340 33206.506 15033.599 14720.710 36549.394 28469.434 28318.919 35629.677 15584.484 23754.246 21081.293 21663.052 13059.146 15652.836 23940.615 20459.087 29055.215 12967.727 10549.924 15400.184 10064.371 0.000 9937.677 32977.590 13195.760 50200.647 12886.394 14603.942 18956.462 4801.406 18924.001 15694.498 27920.621 22289.403 22190.748 23236.283 9180.369 10653.726 23096.192 26705.791 14726.654 17740.539 27395.540
3946.062 4043.487 12357.505 4409.733 9434.375 35305.974 11502.694 16436.993 12710.226 16984.835 20197.233 16446.707 14101.672 8413.793 11696.727 9630.763 11051.847 8703.559 9936.526 14579.074 22948.271 8798.407 7138.539 8998.015 6896.055 13147.857 10826.550 12480.159 16794.605 10634.538 9324.028 13050.295 6957.026 14360.477 8920.939 11300.148 12312.635 6885.573 4770.531 24028.363 12388.521 11710.169 1785.707 7997.574 23622.678 9996.391 4523.371 5974.865 21105.659 9894.687 7229.972 37746.336 8265.382 13921.091 7539.499 3759.151 9595.543 8946.390 4484.930 13652.007 22796.769 12362.166 5562.628 7952.966 8867.810 8767.132 19802.541 6391.980 12036.252 8384.885 11333.684 17344.332 7537.333 14363.358 11764.575 23144.119 28957.564 14961.970 17520.290 25042.978 11904.529 23157.427 21680.897 11159.872 19323.157 4031.564 22829.178 25342.230 15057.999 29599.180 9244.542 7679.663 23917.413 16662.553 26825.197 22227.614 31988.405 30321.483 5770.686 14752.888 10862.929 38106.842 20899.647 37552.027 23325.428 10828.294 21258.609 29650.095 22048.860 18381.760 27511.387 7270.410 14774.550 11147.309 12930.554 18180.210 19662.121 14215.739 10969.452 27635.190 8207.346 2129.533 5567.008 7537.624 9937.677 0.000 24617.274 3770.087 44298.270 6908.538 22166.683 10042.861 13224.380 17984.600 19472.785 18559.742 18357.074 12271.595 13460.420 767.051 1767.612 20088.372 19145.506 12797.517 12616.037 21100.418
21485.911 24663.121 12303.678 23133.905 20956.290 40863.368 13225.202 10587.386 12133.335 23099.937 14919.215 11398.633 10993.551 16317.738 13182.601 15224.294 16484.671 24442.346 19129.108 10073.971 38628.548 17761.352 19336.058 16297.138 19096.499 11667.494 13863.287 12236.794 23173.333 13990.234 19846.408 12868.930 18626.800 13537.619 19450.793 13748.938 12310.904 18591.206 23525.795 38971.710 12332.091 13205.471 22946.133 18147.367 41793.611 19336.783 20128.449 22099.747 12416.238 19394.205 17727.166 21360.228 16406.412 10803.074 17077.841 20891.422 18422.426 16159.978 20164.330 13536.550 38602.671 14191.856 22047.915 17695.831 21778.091 16114.875 40444.209 26359.526 12943.184 19373.202 13762.062 8124.208 18761.175 21785.990 15611.816 10959.853 33824.680 21170.350 13408.377 20376.334 13810.524 40853.743 33944.079 16507.036 26998.181 26833.453 16346.108 19837.105 13312.842 17876.800 17465.784 22553.217 13547.164 22465.038 26513.538 14515.819 7650.554 11849.131 19126.088 20432.103 20245.628 24945.100 43530.138 26526.677 12962.884 19291.118 36135.896 8312.262 8674.822 15127.136 3074.352 17582.324 10034.589 16982.777 11689.545 32383.764 31350.791 12811.083 14283.658 23622.201 30349.681 25674.055 19695.041 23506.393 32977.590 24617.274 0.000 23843.668 22792.504 20151.704 38411.650 14581.721 37267.648 22605.459 30912.961 23075.089 37144.118 17788.563 13639.124 25286.116 25254.248 39540.349 6833.472 21729.089 16680.239 9369.771
2595.910 868.188 11648.478 874.994 12220.053 38822.575 10679.509 14580.094 11712.817 13279.561 21839.248 14378.477 14191.555 8696.859 10664.686 9956.826 8562.173 12172.276 6825.531 14173.894 26715.561 6504.227 4739.004 7555.644 4817.476 12179.954 10098.408 11654.638 13083.573 10139.074 6096.382 11362.294 5223.993 12087.374 5875.852 11634.313 11915.207 5252.958 1017.773 27798.407 11558.634 11873.225 4274.938 5881.646 21190.714 6822.081 4645.416 8961.048 18555.364 12294.117 8077.982 35023.232 7723.016 13062.219 7444.016 4144.690 6764.914 7684.604 4632.428 11524.549 26563.062 13386.730 2258.118 6190.931 5254.040 7779.059 23281.835 10142.253 10902.489 5488.380 11704.160 17352.021 5286.663 17248.336 9403.433 24094.508 32325.410 17733.128 14934.992 27242.828 12609.711 26864.110 25379.725 8636.287 22625.390 7748.938 24599.758 27453.201 12730.138 26673.540 10888.818 10823.999 21238.832 12987.236 29640.574 23751.601 31422.401 30926.901 4952.945 17409.882 7426.195 35035.295 20062.538 39495.684 20708.166 13247.455 25025.709 29750.911 22646.600 15492.067 26856.896 7960.825 13809.093 8470.165 12365.649 21912.042 23297.602 12186.214 9594.642 30065.003 6722.069 2675.519 4214.576 10883.253 13195.760 3770.087 23843.668 0.000 44711.528 9255.944 25928.540 9584.043 15789.329 20846.777 23088.757 14877.104 15919.625 9227.838 11345.790 4353.933 2544.088 17912.608 19164.906 15715.542 14468.098 21806.016
42137.682 45578.136 33327.379 44169.845 37144.187 42820.963 34316.465 33246.357 33556.294 45892.350 25711.295 34120.531 30520.276 36124.727 34522.588 34856.271 38674.333 40451.902 41303.828 30706.580 49355.653 39481.101 40782.965 37621.094 40392.822 33107.571 34790.443 33424.123 45964.799 34638.610 41935.221 34977.877 39801.333 36118.525 41426.122 33155.997 32878.670 39712.827 44665.820 49059.942 33515.950 32859.531 42512.571 39652.125 64235.960 41534.371 40298.851 39799.499 34845.996 35830.567 37103.430 36530.037 37003.427 32186.745 37294.591 40986.807 40468.656 37359.096 40324.362 35975.670 49429.540 31970.414 43350.901 39038.587 43833.482 37098.498 54564.342 43501.673 34429.583 41208.225 33101.086 27383.269 40233.556 34849.888 37868.341 21440.412 37858.438 33945.784 36197.060 25251.578 32402.807 52585.931 43638.097 38726.150 36689.390 45136.512 24151.813 24473.998 35980.349 37620.848 35301.826 39302.161 35244.141 45256.826 30181.060 23655.817 16108.168 14027.638 39758.669 33494.634 42618.613 41618.767 64771.633 18722.140 34836.358 35193.387 46967.795 15128.713 22250.694 37863.537 19950.362 37107.064 31674.954 39249.007 32544.090 43984.985 41657.370 35283.843 35839.298 26082.475 51433.497 45895.018 40530.883 40176.478 50200.647 44298.270 22792.504 44711.528 0.000 38047.329 49611.269 35166.203 54965.958 33121.600 41235.559 45841.269 59377.242 40300.841 36046.308 44797.258 45437.581 61706.223 25585.489 35782.666 32564.836 23220.444
7199.921 9969.990 9127.285 9311.950 3142.839 30403.254 8715.325 14596.822 9917.917 20188.974 13346.217 15033.201 9161.055 4897.686 9235.587 5407.858 11558.928 5042.248 12046.633 10372.058 21017.969 9691.955 8995.372 8300.721 8400.716 10200.812 8082.555 9430.327 20051.860 7532.103 11855.750 11474.634 7896.443 13695.421 11176.220 6504.484 8536.181 7719.252 9894.346 21803.182 9369.534 7104.410 5316.957 8948.788 30305.991 12235.378 5267.495 1950.242 20264.600 3054.042 3481.827 36615.708 6370.797 10617.817 5336.332 5355.588 11209.709 7954.645 5250.815 12817.877 20920.559 6296.007 9582.532 8338.482 12529.290 7381.400 20694.122 6208.804 9667.579 10530.261 6467.190 12168.721 8945.583 8093.520 11826.031 16659.130 23595.897 8508.438 17096.919 18173.140 6367.111 22295.701 18124.995 11706.714 13905.675 7122.276 15936.007 18451.266 14392.771 29246.462 2822.517 2920.916 23191.860 19695.336 20396.780 15407.644 26980.337 24019.708 6320.153 8157.178 13594.807 37931.282 27741.672 30646.385 22487.252 4007.672 18832.867 23859.441 15906.280 18607.208 22752.575 3801.471 11509.780 12013.924 9307.225 15176.678 15688.083 13075.831 9367.980 20868.917 15070.515 8947.988 7057.913 3720.658 12886.394 6908.538 20151.704 9255.944 38047.329 0.000 20479.015 7098.791 17378.652 11642.725 15379.269 21519.725 25023.293 13711.371 12638.555 7170.163 8515.518 26871.481 13822.482 6622.222 5762.994 14877.441
25494.965 26073.858 29395.793 26566.053 18240.294 18294.665 29118.583 35001.273 30265.016 39110.423 25249.014 35490.839 28338.029 25366.419 29672.174 25696.921 31719.545 15444.618 31525.852 30007.652 1032.587 29608.311 28400.286 28623.191 27923.311 30490.627 28517.731 29734.554 38927.001 27932.712 31077.013 31950.673 27626.207 34155.216 30527.083 26327.582 28643.817 27473.946 26935.742 2409.496 29686.131 26946.573 22250.268 28782.132 41447.308 31650.289 24532.475 19047.718 40735.638 19674.641 23953.044 56931.535 26799.887 30750.900 25746.934 24123.009 30903.617 28319.425 24496.519 33282.916 815.719 24731.244 27612.443 28340.901 30964.267 27786.262 7846.504 15954.122 30104.422 29903.488 26247.378 30472.713 28572.124 16678.347 32123.981 30318.635 15696.439 17380.725 37562.007 24379.671 25548.539 3030.455 6189.099 31860.627 12947.179 18198.951 25874.389 25147.904 34858.451 49723.305 22230.843 17558.675 43660.588 38753.237 20526.165 26910.976 43675.408 37042.889 25980.044 18085.234 32756.519 58407.599 33906.424 34799.720 42949.608 19474.910 2648.569 38891.484 31205.912 38998.651 40309.354 24266.744 31594.461 32069.362 29408.802 6063.852 7958.040 33554.686 29843.787 24205.365 27406.242 23647.433 26393.777 16830.379 14603.942 22166.683 38411.650 25928.540 49611.269 20479.015 0.000 27543.744 16726.829 16916.998 8386.403 40652.047 36885.311 33598.497 33100.925 21584.584 23557.750 37606.681 31579.561 16699.767 21833.267 30147.451
7063.263 10444.368 2338.953 9007.001 9496.165 35966.205 1652.803 7500.422 2908.125 15269.095 13903.110 7947.110 4713.141 2214.706 2136.845 2041.387 5773.906 12134.764 7563.144 4624.022 28052.112 5048.418 5821.112 2890.406 5336.087 3271.513 986.296 2526.945 15191.877 591.777 7853.058 4442.938 4698.590 6836.102 7168.528 2793.398 2342.025 4588.811 9499.708 28785.193 2445.131 2681.349 8407.909 4852.385 29739.482 7812.859 5547.349 8777.655 13195.782 8331.660 3733.105 29525.433 1871.680 3927.682 2519.631 6309.778 6555.898 2497.627 5582.985 5952.511 27962.248 5412.961 8219.073 4115.843 9441.010 2033.607 27601.257 12845.134 2568.790 6711.224 2910.692 7784.046 5337.345 13300.483 5621.792 15032.861 28871.699 13289.813 10168.359 20137.158 4198.457 29394.492 24793.461 5913.886 19572.632 12611.525 16733.464 20135.265 7492.913 22189.649 5623.676 10010.311 16118.255 14671.299 24093.548 15488.473 22022.069 21497.501 4659.193 12652.335 9251.055 30870.666 29634.528 31486.370 15405.865 8929.523 25807.766 20169.169 13299.685 11853.729 17506.358 3466.535 4814.673 6406.265 2892.719 22085.256 22250.397 6087.755 2559.431 23380.321 16291.647 11140.228 5375.831 10814.338 18956.462 10042.861 14581.721 9584.043 35166.203 7098.791 27543.744 0.000 22944.703 16217.686 21896.552 16282.882 24626.027 8185.387 5792.687 10725.796 10708.840 26841.288 9590.400 12244.027 8128.564 12564.358
17084.711 15377.752 25282.613 16660.500 17824.410 34362.029 24512.252 29658.021 25757.371 28096.458 29394.316 29667.412 26343.449 20999.270 24782.194 22047.252 24143.852 14566.319 22614.570 27220.618 17755.425 21927.544 20196.239 22215.118 20041.080 26171.558 23819.369 25458.612 27874.006 23523.744 21881.322 26266.481 20162.724 27544.415 21654.785 23537.057 25057.331 20099.919 16678.845 19128.732 25371.957 24065.670 14621.718 21158.626 25181.904 22609.806 17639.117 15466.945 34222.554 19181.590 19548.968 50786.535 21301.629 26872.354 20437.319 16897.097 22494.305 22144.473 17598.240 26859.708 17541.002 23671.661 18039.836 21167.551 20798.801 21917.503 10266.765 11484.577 25148.064 21224.758 23532.767 29476.178 20654.024 20763.990 24908.439 33554.698 29936.998 21658.602 30610.293 32171.414 23684.116 15891.504 20052.021 24239.138 22304.581 10434.889 31437.694 32728.221 28231.641 42462.738 20197.803 15687.796 36973.189 27973.089 31351.321 31503.925 44316.805 41011.340 18978.156 21921.061 23101.335 50788.083 17180.003 44644.276 36414.657 19777.439 17521.438 41184.253 33137.783 31274.736 40003.825 19710.718 27757.012 24153.145 25751.970 16686.072 19500.959 27435.545 24158.359 33702.429 13391.886 13148.818 18783.286 14795.292 4801.406 13224.380 37267.648 15789.329 54965.958 17378.652 16726.829 22944.703 0.000 23626.869 19613.925 29752.902 21093.151 25016.728 26669.176 12466.865 13395.454 21403.161 31174.674 19524.509 22454.057 32073.335
18836.507 21512.440 17023.078 20948.763 8632.170 19846.999 17267.851 22393.507 17995.369 31193.314 8394.399 23196.170 14474.446 14726.107 17910.221 14213.812 21880.587 9979.015 23074.061 16362.745 16869.086 20518.360 20267.736 18627.328 19649.713 17997.505 16943.201 17408.175 31085.545 16290.616 23051.407 20284.697 19050.188 22813.287 22338.754 13786.074 16031.356 18870.190 21527.747 16917.058 17406.988 14261.598 16698.303 19923.806 41601.879 23294.847 16837.148 12023.753 28222.688 8726.187 14074.636 42897.879 16625.359 17818.781 15852.375 16992.236 22127.606 18207.619 16825.822 21964.567 16896.392 11245.829 21201.086 19197.823 23995.393 17577.378 21466.581 13438.958 18276.811 21719.639 13667.121 15427.735 20086.159 3622.366 21828.724 13466.816 12686.134 3142.737 25881.792 8613.505 12465.927 19762.061 11587.569 22027.235 4408.045 16193.683 9041.504 9238.298 23384.518 36932.048 10984.015 10334.020 30953.055 30638.238 8840.643 9993.998 27026.391 20148.199 17659.285 3627.726 24732.378 45357.847 37760.250 21025.610 30195.700 7821.878 14360.897 22028.870 14625.160 27778.066 24047.862 14368.054 18433.786 22466.779 16636.540 10997.240 9134.520 21902.507 18758.568 10191.017 26112.739 20114.035 18494.362 10679.153 18924.001 17984.600 22605.459 20846.777 33121.600 11642.725 16916.998 16217.686 23626.869 0.000 8685.648 32353.563 36341.012 24259.839 21832.364 17980.280 19732.447 38023.424 16013.101 5187.084 8137.053 13632.187
21864.660 23498.964 23360.242 23506.278 12467.234 15952.974 23304.711 29008.614 24304.164 35430.129 17079.456 29654.084 21615.594 19904.500 23918.215 19887.950 26915.207 10986.581 27361.806 23427.128 8228.995 25067.101 24247.222 23621.814 23679.691 24436.819 22802.945 23731.034 35278.784 22163.521 27095.959 26314.712 23226.289 28729.680 26446.515 20097.182 22476.316 23052.944 24000.166 8232.308 23702.000 20682.037 18886.786 24310.207 41800.559 27536.397 20344.189 14582.368 34886.722 13570.069 18729.626 50458.545 21626.974 24508.140 20638.462 20167.747 26563.002 23251.343 20317.007 27844.793 8273.946 18032.674 24231.856 23716.097 27480.512 22648.761 14272.923 13240.196 24336.250 25797.939 19996.810 23273.358 24262.823 9273.276 27122.465 22152.463 10415.215 9776.863 32055.542 16029.087 19054.289 11350.744 3047.224 27063.856 4561.485 16163.277 17526.115 16789.256 29389.333 43837.318 16280.739 12734.037 37755.524 34969.213 12754.468 18637.321 35682.645 28709.959 21601.793 10527.350 28840.297 52450.342 35956.815 26977.005 37013.510 13064.552 5759.682 30712.431 23240.621 33737.539 32563.042 19057.582 25271.083 27387.124 23196.919 3213.454 449.023 27970.013 24400.216 16115.924 26551.871 21409.315 22237.154 12375.344 15694.498 19472.785 30912.961 23088.757 41235.559 15379.269 8386.403 21896.552 19613.925 8685.648 0.000 36822.507 36775.945 29090.609 27680.631 19124.940 21165.716 38001.402 24150.339 9829.262 14885.373 22217.989
15196.318 14927.226 16230.531 14156.203 24599.610 51835.128 15620.312 13129.119 15390.418 1656.444 29717.981 12135.102 19677.810 17628.987 15022.966 18201.168 10515.519 25938.334 9473.794 18200.034 41390.641 11904.345 12575.420 13726.499 13145.135 15623.817 15733.737 15891.506 1879.963 16343.661 9734.593 13049.068 13623.592 10828.308 10376.041 18983.070 17210.739 13800.513 13859.936 42403.863 15848.835 18675.215 18417.177 12590.977 20703.209 9290.577 16490.677 22262.172 11362.169 23894.304 18421.716 23756.364 15732.564 16280.938 16557.583 16735.072 10329.756 14147.107 16519.530 11413.704 41249.875 21653.682 13043.449 13257.273 9698.395 14776.820 38092.028 24705.924 14773.040 11024.582 19105.666 21335.770 12576.492 29169.558 10721.148 29432.405 44874.800 29310.103 9689.396 36166.675 20405.606 41717.034 39428.401 10372.987 35309.572 22588.669 32468.873 36073.502 10628.027 15181.710 21398.457 24089.955 12279.342 1899.276 40375.582 30972.954 30050.384 34054.490 15226.969 28735.400 7995.558 22176.168 26236.946 46636.282 12276.236 24689.592 39542.626 31193.830 27103.627 7989.087 25898.609 18106.655 16226.967 9903.662 16910.704 36180.538 37103.586 11859.422 13876.659 39500.534 16829.768 17420.831 14590.895 24511.415 27920.621 18559.742 23075.089 14877.104 45841.269 21519.725 40652.047 16282.882 29752.902 32353.563 36822.507 0.000 17365.286 8110.228 11459.534 19207.372 17388.858 19740.708 22590.221 27891.008 24376.556 26794.500
18389.335 15124.824 26170.087 16125.869 27771.975 52705.954 25195.945 26615.801 25851.269 16216.984 37724.941 25918.309 29325.830 24327.625 24920.768 25527.845 20740.003 26784.635 18094.096 28790.127 37859.932 19942.967 18813.383 21919.998 19291.569 26291.258 24806.454 26030.971 16023.556 25079.371 17443.923 24432.928 19939.469 23642.716 17954.486 27110.559 26755.779 20062.780 15544.238 39168.447 25942.559 27215.907 19735.421 19867.948 5282.803 17870.338 20517.483 24327.588 27632.895 28076.352 23934.952 41043.299 22943.692 27208.238 22987.333 20062.769 18909.448 22233.611 20509.461 23608.101 37662.063 29158.265 16523.701 20548.978 15544.608 22600.674 31320.321 23740.801 24979.347 18200.982 27199.756 32219.062 19324.707 32720.264 21578.935 39627.159 46836.803 33312.317 24726.747 43141.459 28257.687 36655.550 38402.517 20699.465 37414.292 20755.451 40503.160 43366.091 23954.480 32530.505 26808.435 26020.269 29252.257 16617.401 45181.298 39595.843 44734.774 46034.168 20459.742 33077.454 16898.556 38962.275 9494.410 55409.233 29089.549 29028.608 36925.691 44248.544 37915.393 23881.717 40208.723 23783.573 27702.311 20196.693 26973.153 34739.949 36865.695 24333.081 23575.896 45891.865 10327.653 16228.133 19572.593 25785.206 22289.403 18357.074 37144.118 15919.625 59377.242 25023.293 36885.311 24626.027 21093.151 36341.012 36775.945 17365.286 0.000 19389.646 23508.947 18384.504 16617.273 2447.759 33950.622 31154.021 30386.826 37189.519
8391.354 9696.107 8388.566 8356.234 16705.263 43829.662 7661.356 7227.235 7664.017 7100.571 21834.490 6548.500 11903.157 9549.587 7108.213 10090.945 2411.493 18416.900 2402.327 10662.688 34257.059 4038.843 5254.867 5641.520 5685.004 7985.976 7692.317 8089.312 7036.300 8279.536 3160.449 5561.088 5981.354 4256.203 3378.527 10918.512 9314.603 6140.003 8368.489 35173.364 8030.894 10649.995 11574.544 4837.399 24010.608 2424.800 9066.177 14708.655 9550.618 15890.990 10446.707 25815.651 7665.719 8783.936 8548.083 9501.629 2722.198 6056.623 9102.022 4327.276 34134.223 13580.469 6978.236 5377.949 4710.656 6687.617 32033.660 17750.359 6928.469 3886.720 11040.385 14033.771 5029.420 21128.940 2777.848 22082.759 36823.008 21236.325 6008.232 28208.570 12341.929 34977.823 31810.065 2272.573 27320.505 16166.021 24628.705 28156.707 4584.271 17447.846 13335.859 16442.342 12088.901 6492.015 32276.849 23225.552 25350.417 27518.126 7635.110 20648.200 2588.898 25862.972 26454.534 39099.114 11606.899 16652.961 32245.595 25230.929 19929.126 6273.815 20841.596 10123.766 8982.525 1794.408 9136.729 28724.455 29397.363 5018.709 5858.861 31502.173 14103.528 11876.855 7216.361 16981.178 22190.748 12271.595 17788.563 9227.838 40300.841 13711.371 33598.497 8185.387 25016.728 24259.839 29090.609 8110.228 19389.646 0.000 4266.992 13018.713 11664.323 21805.627 15534.407 19897.630 16266.351 19458.379
9593.880 12035.200 4931.096 10507.719 15247.993 41651.785 4564.525 3318.587 4011.647 10819.914 18307.509 3036.012 8255.975 7815.879 3922.176 7825.006 2961.216 17657.504 5536.314 6741.945 33654.470 4845.713 6617.821 4655.314 6663.237 4189.257 4936.441 4561.598 10808.827 5591.877 6295.601 1620.991 6506.908 1057.691 6011.571 8051.218 5943.522 6574.871 10742.093 34438.130 4537.766 7612.128 12257.581 5543.824 28223.798 5728.905 9281.907 14093.053 7808.295 14122.423 9156.850 24450.230 6306.831 4822.206 7362.594 9949.507 4958.762 4874.064 9323.627 193.549 33555.047 10665.885 9203.456 5507.762 8212.138 5345.313 32546.977 17815.789 3565.745 6097.216 8171.484 9962.414 6096.559 19052.002 2056.125 18064.465 34517.010 18992.460 4461.082 24797.731 9413.323 34805.363 30561.790 2948.767 25328.395 16902.159 21031.893 24670.576 1758.498 16686.679 11416.011 15551.170 10716.166 10169.358 29325.424 19515.857 21255.380 23277.070 7818.014 18328.422 6615.615 25361.726 30130.620 35213.457 10057.562 14717.331 31465.240 20966.324 15823.209 6061.121 16708.384 8839.115 4841.535 3371.490 5525.747 27779.506 28030.560 874.770 3291.040 28170.238 17261.396 13727.786 7893.492 16274.065 23236.283 13460.420 13639.124 11345.790 36046.308 12638.555 33100.925 5792.687 26669.176 21832.364 27680.631 11459.534 23508.947 4266.992 0.000 14224.864 13401.598 25901.614 11367.452 18031.382 13695.318 15426.181
4710.817 4515.459 13049.390 5052.624 9514.405 35004.547 12207.767 17191.740 13423.613 17620.967 20508.927 17208.349 14700.678 9034.971 12416.296 10232.408 11817.750 8492.737 10674.498 15232.868 22381.369 9564.982 7900.999 9750.204 7662.707 13857.547 11527.494 13181.196 17427.525 11316.797 10049.924 13802.437 7722.720 15126.796 9661.058 11885.414 12975.887 7650.034 5368.708 23480.576 13090.281 12314.328 2356.117 8764.611 23630.866 10729.174 5236.467 6045.953 21872.677 10089.054 7794.547 38512.759 8969.642 14619.583 8213.073 4476.498 10349.877 9691.012 5197.127 14416.573 22226.323 12834.072 6256.671 8717.159 9530.587 9498.123 19080.805 5944.736 12761.397 9132.664 11913.838 17940.382 8303.184 14367.467 12531.605 23581.125 28735.177 15001.144 18286.872 25211.200 12431.987 22516.037 21263.338 11925.366 19145.767 3395.038 23104.904 25532.089 15824.648 30360.105 9632.528 7646.747 24683.682 17312.712 26814.491 22557.852 32627.650 30803.181 6517.490 14829.545 11566.406 38861.732 20573.063 37763.994 24092.231 11006.226 20738.620 30208.285 22547.232 19141.540 28164.609 7856.789 15479.070 11909.552 13607.000 17729.768 19299.884 14977.841 11712.010 27737.515 8135.251 2290.049 6331.396 7410.079 9180.369 767.051 25286.116 4353.933 44797.258 7170.163 21584.584 10725.796 12466.865 17980.280 19124.940 19207.372 18384.504 13018.713 14224.864 0.000 2051.446 20045.309 19734.510 12799.652 12921.474 21584.077
3872.577 2518.495 12951.051 3363.890 11156.360 37029.205 12035.816 16531.167 13181.489 15779.396 21692.906 16431.733 15040.514 9347.281 12140.224 10605.982 10768.753 10457.341 9270.296 15323.127 24369.584 8586.740 6830.056 9207.299 6738.861 13636.951 11391.000 13024.629 15579.429 11295.200 8574.086 13203.338 6967.996 14223.730 8287.847 12303.695 13037.434 6940.767 3546.465 25484.929 12930.012 12652.989 3208.587 7857.774 21889.191 9287.932 5208.773 7711.635 20838.537 11541.728 8350.104 37392.296 8856.263 14465.885 8296.303 4478.996 9101.059 9237.621 5177.985 13587.970 24211.196 13626.857 4704.552 7984.499 7797.011 9177.197 20741.493 7996.093 12438.343 7834.979 12351.467 18273.653 7316.905 16110.233 11559.227 24436.599 30712.578 16695.045 17222.035 26686.327 13052.782 24402.941 23314.784 10859.047 21086.923 5364.701 24365.742 26966.337 14895.585 29105.425 10678.249 9441.340 23577.902 15504.440 28572.782 23694.875 32730.615 31512.281 6137.799 16468.146 9960.005 37514.131 19510.747 39148.268 23022.621 12484.992 22762.771 30655.684 23217.856 17896.897 28207.175 8331.922 15279.662 10758.992 13592.104 19778.915 21344.501 14207.069 11246.473 29326.596 6556.302 460.319 5679.014 9304.425 10653.726 1767.612 25254.248 2544.088 45437.581 8515.518 23557.750 10708.840 13395.454 19732.447 21165.716 17388.858 16617.273 11664.323 13401.598 2051.446 0.000 18385.311 20088.607 14546.109 14140.119 22304.030
20436.143 17090.340 28448.540 18186.700 29522.353 53872.240 27468.967 29028.655 28158.877 18626.822 39751.843 28341.465 31550.956 26445.655 27213.521 27663.897 23107.824 28317.332 20458.187 31072.696 38600.542 22238.742 21048.690 24178.929 21506.356 28603.442 27059.127 28321.100 18436.511 27309.310 19791.278 26794.601 22144.324 26055.099 20281.962 29271.798 29006.032 22260.778 17615.556 39932.377 28231.539 29401.532 21557.706 22128.153 3846.386 20238.376 22546.650 26058.322 30079.064 29914.723 25977.421 43364.422 25125.011 29522.861 25117.732 22052.477 21252.853 24480.362 22536.029 26004.164 38397.396 31246.267 18678.312 22792.127 17879.227 24825.349 31669.745 25154.710 27285.845 20503.424 29357.468 34487.473 21572.236 34412.671 23955.631 41801.334 48183.047 35039.736 27172.247 45035.816 30383.287 37184.648 39479.558 23071.329 38882.992 22178.822 42508.798 45286.819 26376.761 34883.113 28778.323 27689.577 31682.822 19038.780 46852.061 41655.368 47141.306 48296.378 22579.280 34841.256 19299.245 41176.012 7806.571 57391.980 31526.459 30862.127 37811.032 46579.386 40140.660 26328.286 42607.746 25841.900 30036.995 22575.306 29248.074 35821.285 38066.022 26731.461 25878.622 47711.881 11910.770 17973.838 21704.455 27391.874 23096.192 20088.372 39540.349 17912.608 61706.223 26871.481 37606.681 26841.288 21403.161 38023.424 38001.402 19740.708 2447.759 21805.627 25901.614 20045.309 18385.311 0.000 36233.012 32844.888 32341.044 39392.737
16614.691 20028.156 7784.512 18597.263 14265.866 34944.644 8766.065 9589.332 8138.785 22124.214 9058.294 10607.045 5051.144 10754.216 9032.771 9516.793 13538.581 17791.693 16061.679 5160.890 31803.275 14009.030 15220.674 12065.990 14814.333 7723.163 9211.576 7921.287 22129.717 9055.309 16609.475 9974.378 14217.223 11808.988 16038.593 7849.111 7293.191 14127.519 19085.642 32163.955 8008.931 7444.197 17384.410 14111.186 38943.921 16305.841 14885.341 15763.347 14249.967 12706.283 11944.636 27067.815 11442.344 6834.663 11817.092 15609.808 15149.228 11787.671 14914.685 11361.157 31775.460 7607.723 17766.150 13473.189 18448.437 11513.426 33735.148 19965.848 9000.921 15753.511 7821.901 1817.651 14680.067 14972.911 12845.089 6938.154 27787.013 14382.599 13407.964 15302.532 7492.864 34023.275 27190.575 13618.713 20361.588 20791.160 11185.800 14938.233 11962.287 21974.639 11032.460 15994.993 16459.743 21468.907 20987.364 9387.760 13158.442 12107.866 14218.024 13638.253 17543.770 29968.364 39223.203 24165.737 15727.413 12530.673 29314.985 10590.918 4518.605 15465.538 9036.386 11879.041 6552.498 14170.494 6986.834 25556.200 24584.396 10804.176 10389.144 18729.015 25879.713 20537.331 14964.594 16952.741 26705.791 19145.506 6833.472 19164.906 25585.489 13822.482 31579.561 9590.400 31174.674 16013.101 24150.339 22590.221 33950.622 15534.407 11367.452 19734.510 20088.607 36233.012 0.000 14895.935 9871.184 4366.552
13806.216 16360.196 13562.221 15859.558 3509.658 23944.746 13565.416 19195.661 14516.061 26632.470 10072.919 19864.676 11837.261 10410.975 14191.582 10206.696 17595.124 5129.471 18466.338 13620.335 16967.604 15986.716 15513.273 14280.220 14903.838 14629.990 13105.675 13937.329 26507.694 12455.317 18353.614 16601.452 14347.773 19066.232 17655.455 10282.925 12660.386 14167.423 16431.094 17426.588 13912.657 10860.658 11530.729 15316.037 36415.745 18671.758 11885.717 6840.342 25080.014 4006.778 9470.307 40672.432 12249.483 14680.648 11352.139 11965.531 17568.205 13880.046 11870.082 18186.538 16927.990 8229.999 16199.310 14634.389 19132.603 13254.792 19352.439 8596.239 14600.246 17018.433 10180.049 13777.849 15399.294 1567.844 17682.475 14738.979 17027.682 2283.947 22336.504 12935.527 9226.045 19133.091 12832.367 17744.376 7423.627 11175.328 11922.839 13402.164 19703.352 34015.547 6644.196 5159.127 27937.549 26110.130 14027.694 12134.514 27361.670 22085.483 12851.576 2401.088 20074.310 42621.831 32774.079 25592.390 27193.434 3314.510 14513.180 23078.429 15037.385 24088.372 23739.462 9787.536 15441.999 18130.032 13373.733 10721.121 10219.625 18257.795 14791.221 15093.396 20934.379 14926.961 13637.446 5581.076 14726.654 12797.517 21729.089 15715.542 35782.666 6622.222 16699.767 12244.027 19524.509 5187.084 9829.262 27891.008 31154.021 19897.630 18031.382 12799.652 14546.109 32844.888 14895.935 0.000 5164.166 13940.850
12065.340 15265.475 8910.002 14323.484 4693.896 27969.161 9130.800 14393.754 9883.327 23295.280 7587.484 15148.397 6733.458 6885.179 9773.168 6175.668 13863.635 8207.382 15298.794 8567.244 22123.284 12707.402 12753.970 10693.238 12141.240 9912.802 8816.535 9295.046 23202.874 8166.960 15386.963 12150.904 11492.630 14678.003 14668.328 5651.325 7932.587 11319.437 14914.822 22590.553 9289.387 6142.785 10937.144 12210.861 35658.751 15533.399 9930.331 7306.826 20269.534 3273.135 6643.663 35573.253 8764.784 9816.298 8152.361 10329.562 14316.021 10267.522 9932.881 13827.707 22080.075 3205.923 14220.901 11451.350 16583.471 9647.189 23932.874 10969.480 10140.901 14086.724 5533.141 8646.089 12473.487 5666.676 13750.314 11125.009 20822.360 5405.249 17780.567 12812.103 4365.305 24193.785 17917.853 14007.568 11827.829 12638.725 10225.624 12991.961 15255.362 29117.073 3585.602 6767.219 23070.710 22716.601 16062.990 9644.756 22689.197 18570.097 10346.894 4693.987 16990.723 37664.645 33493.766 25053.991 22318.371 2776.843 19675.778 18881.309 10764.723 19653.613 18844.340 6873.230 10507.283 14473.503 8575.144 15881.102 15292.608 13775.234 10646.587 15790.157 20679.111 14587.194 11244.951 7676.824 17740.539 12616.037 16680.239 14468.098 32564.836 5762.994 21833.267 8128.564 22454.057 8137.053 14885.373 24376.556 30386.826 16266.351 13695.318 12921.474 14140.119 32341.044 9871.184 5164.166 0.000 9678.375
19210.136 22672.641 11259.147 21359.316 14371.906 31499.819 12168.466 13910.494 11834.762 26243.366 5570.293 14926.424 7886.273 13112.308 12572.975 11849.334 17307.792 17867.052 19692.160 8801.506 30235.850 17419.675 18383.341 15332.425 17897.978 11481.451 12455.314 11488.278 26234.805 12125.819 20152.034 13932.053 17252.326 15969.620 19524.342 10177.706 10520.844 17132.950 21896.542 30421.457 11562.623 9998.026 19315.994 17370.463 42298.551 19942.711 17254.747 16690.108 18586.092 12923.680 13954.272 30576.693 14272.109 10677.225 14373.052 17905.364 18728.315 14990.758 17276.544 15442.978 30236.720 8751.487 20725.794 16661.106 21893.286 14593.441 33281.945 20602.886 12641.781 19153.627 10104.083 5466.245 17887.039 13560.240 16703.606 2639.570 24455.580 12793.187 17750.623 11240.786 9256.746 32802.381 25187.570 17405.048 18033.703 21995.732 7123.169 10797.087 16184.208 26057.402 12099.885 16417.799 20709.498 25591.248 17216.885 5278.120 13529.599 9221.095 16905.161 12121.022 21267.781 33810.625 41764.900 19863.191 19988.847 12439.620 27715.261 9218.393 1100.157 19813.401 10437.506 13986.452 10590.924 17962.032 10457.360 24086.975 22665.149 14943.947 13942.944 14614.287 28493.369 22763.797 17744.266 17342.653 27395.540 21100.418 9369.771 21806.016 23220.444 14877.441 30147.451 12564.358 32073.335 13632.187 22217.989 26794.500 37189.519 19458.379 15426.181 21584.077 22304.030 39392.737 4366.552 13940.850 9678.375 0.000
NODE_COORD_SECTION
1 -4699.737983 -5106.382562
2 -7407.737231 -7264.389459
3 -141.069740 2897.287682
4 -6850.331765 -5820.637231
5 5463.487490 -6781.608288
6 30499.787209 -17607.596677
7 -853.252963 2209.265069
8 -3428.383171 7504.675114
9 -928.430164 3469.506829
10 -15558.241294 3252.846866
11 13316.790623 1913.323683
12 -4446.115063 7501.131489
13 3356.306224 3266.196048
14 219.420126 -1496.740850
15 -1406.699232 2535.390834
16 1128.357371 -610.118328
17 -6157.718799 1850.673165
18 4875.395589 -10277.990719
19 -8063.952320 8.528334
20 1932.983790 4507.519670
21 14157.127412 -23314.420209
22 -5490.649606 -310.643484
23 -5700.820414 -2070.569462
24 -3364.843715 61.205190
25 -5089.921953 -2170.433402
26 -667.128277 3858.101191
27 -868.280242 1513.706836
28 -458.238209 3115.867140
29 -15518.513067 3025.524514
30 -324.019333 1147.015695
31 -8255.598035 -781.431243
32 -3232.029434 4111.377113
33 -4437.385953 -2009.415496
34 -5452.423769 5326.295416
35 -7542.024099 -867.484897
36 2269.560031 650.588973
37 800.386198 2521.923273
38 -4265.727599 -2065.517679
39 -7432.462974 -5929.920282
40 15533.998059 -23300.712808
41 -509.749709 3034.851099
42 2077.395714 1242.954362
43 -2571.635515 -7564.796008
44 -5090.172020 -1049.809554
45 -27000.872154 -12951.600428
46 -8309.980270 -47.767690
47 -2639.638397 -4537.977584
48 2139.028622 -7774.446410
49 -7397.143368 11853.735808
50 5449.522015 -5219.153527
51 438.334226 -3017.398428
52 -11458.117914 28015.624924
53 -1598.892034 -941.915161
54 13.272421 4480.631973
55 -1087.361174 -1865.896876
56 -2862.445267 -5270.372228
57 -7058.246539 67.612354
58 -2945.955109 -17.102933
59 -2632.898268 -4579.264666
60 -4851.968351 4675.578687
61 13940.439878 -23341.209466
62 4854.475574 -27.513728
63 -7017.633835 -4447.620235
64 -4319.959784 -999.138582
65 -9533.156650 -2230.331999
66 -2367.005630 -268.056801
67 5846.434111 -26266.480351
68 1865.981801 -12031.232847
69 -1606.386967 2918.992112
70 -6989.373620 -1207.130703
71 2387.401223 615.703937
72 5031.159256 6043.264603
73 -5399.121259 -1581.048456
74 10491.219096 -6865.843261
75 -5750.326600 2658.920280
76 13082.158643 6983.645191
77 24945.804728 -13008.259079
78 10966.686340 -6088.731567
79 -7224.966822 8237.078091
80 19609.532880 166.441981
81 3670.996917 400.129881
82 11838.653751 -26078.976010
83 16028.878765 -17869.527919
84 -6282.556205 1932.731736
85 15526.646220 -10612.526806
86 -1119.352273 -12007.669047
87 16115.751790 2365.971317
88 19608.635896 962.698836
89 -5710.668808 5996.572026
90 -12289.847638 19402.676653
91 3577.587222 -3258.551633
92 3936.320489 -8372.342047
93 -8741.815959 14455.256769
94 -14921.020095 3409.169137
95 22849.747879 -5258.794145
96 14683.496035 3530.835162
97 9514.873789 20191.010019
98 16634.962795 13541.238033
99 -3265.102639 -3177.192783
100 10607.651174 -5425.746831
101 -9761.281599 100.468414
102 -16632.561126 26923.873930
103 -20708.419443 -21107.273343
104 30320.404379 6919.458566
105 -8159.206931 13970.029146
106 6390.667151 -5061.363852
107 13909.246853 -20805.241816
108 12997.088340 15556.314948
109 10669.041604 7774.178461
110 -9263.317446 8597.303315
111 6825.331496 16479.125825
112 190.557132 -2802.506087
113 -50.709432 5381.192064
114 -6818.015688 1779.383810
115 579.792353 3263.945846
116 12408.575619 -17313.548468
117 14789.865406 -15553.072803
118 -4417.336779 5269.101704
119 -2666.413077 1988.763561
120 22792.758356 -1144.214002
121 -11548.429592 -11404.471899
122 -5835.075852 -9202.504290
123 -4149.260932 -3379.003326
124 3804.369600 -9320.957401
125 -608.050220 -18366.515064
126 -3723.092033 -8929.675467
127 4802.221627 14164.246102
128 -6756.226311 -6690.556112
129 24934.512133 24850.177366
130 2461.568690 -5851.060830
131 13124.745000 -23334.959976
132 -523.175064 589.757137
133 -3560.275284 -22153.052804
134 14089.110304 -6445.471640
135 14744.110861 -15106.387299
136 -16265.424663 4750.744997
137 -21872.286824 -11684.469303
138 -8512.953557 2368.522495
139 -4808.929285 4486.875922
140 -3596.700289 -9686.241321
141 -5490.409388 -8897.383914
142 -23231.987070 -13719.840962
143 6160.875584 7467.201986
144 8952.156100 -7164.873235
145 7049.776544 -2363.877541
146 10458.489405 6694.357282
DEMAND_SECTION
1 0
2 1
3 1
4 1
5 1
6 1
7 1
8 1
9 1
10 1
11 1
12 1
13 1
14 1
15 1
16 1
17 1
18 1
19 1
20 1
21 1
22 1
23 1
24 1
25 1
26 1
27 1
28 1
29 1
30 1
31 1
32 1
33 1
34 1
35 1
36 1
37 1
38 1
39 1
40 1
41 1
42 1
43 1
44 1
45 1
46 1
47 1
48 1
49 1
50 1
51 1
52 1
53 1
54 1
55 1
56 1
57 1
58 1
59 1
60 1
61 1
62 1
63 1
64 1
65 1
66 1
67 1
68 1
69 1
70 1
71 1
72 1
73 1
74 1
75 1
76 1
77 1
78 1
79 1
80 1
81 1
82 1
83 1
84 1
85 1
86 1
87 1
88 1
89 1
90 1
91 1
92 1
93 1
94 1
95 1
96 1
97 1
98 1
99 1
100 1
101 1
102 1
103 1
104 1
105 1
106 1
107 1
108 1
109 1
110 1
111 1
112 1
113 1
114 1
115 1
116 1
117 1
118 1
119 1
120 1
121 1
122 1
123 1
124 1
125 1
126 1
127 1
128 1
129 1
130 1
131 1
132 1
133 1
134 1
135 1
136 1
137 1
138 1
139 1
140 1
141 1
142 1
143 1
144 1
145 1
146 1
DEPOT_SECTION
1
-1
EOF
