NAME : mamut-barcelona-n107-k8-poi
COMMENT : Mamut2026 fastest metric; city barcelona; No of trucks: 8 (lower bound, fleet not fixed); 3-decimal seconds/meters; ENU ref in mamut-barcelona-n107-k8-poi.vrp.json
TYPE : CVRP
DIMENSION : 108
EDGE_WEIGHT_TYPE : EXPLICIT
EDGE_WEIGHT_FORMAT : FULL_MATRIX
CAPACITY : 15
EDGE_WEIGHT_SECTION
0.000 1289.986 1315.040 1094.592 1278.585 1169.161 1150.164 1155.520 1128.160 1144.190 1325.178 1119.472 1326.246 1132.168 1885.190 1222.657 918.457 1502.261 1186.172 1203.896 1327.495 1309.229 1203.104 906.220 906.166 1336.674 1553.725 1095.406 577.760 1120.203 1055.696 1360.171 1746.969 1360.988 1355.172 1939.236 1317.009 1584.063 1582.035 368.883 1488.738 1321.910 1287.908 1770.535 1517.592 655.989 1361.399 1669.617 1030.327 1262.555 1545.248 1055.967 1382.503 1883.370 1367.445 898.424 374.304 1823.229 997.268 1829.231 1329.433 1008.004 1344.158 1145.369 1264.202 1256.210 1254.630 1106.566 1142.308 1266.771 1560.698 1235.997 1275.287 1243.152 1295.257 1185.812 1153.995 1287.996 1922.803 908.270 1042.048 1269.821 1311.687 1081.143 1312.080 1098.414 1181.987 1268.942 953.123 1286.209 1769.294 1437.886 1283.092 1165.721 1069.927 1459.281 1290.050 1413.112 1222.049 1337.394 1318.346 1386.368 1168.124 1275.056 1220.676 1269.821 1267.855 1192.445
1311.985 0.000 159.836 371.049 279.431 289.962 229.862 204.200 260.805 312.445 169.974 278.435 171.043 274.397 729.987 390.912 664.028 336.300 305.681 252.536 69.735 310.075 247.150 884.735 884.681 100.303 387.764 338.085 1007.430 359.057 309.724 1114.346 591.766 303.522 265.005 784.033 64.786 440.768 416.074 1090.168 322.777 400.687 301.090 615.332 1022.960 902.035 206.195 969.692 315.336 294.333 401.953 318.237 366.624 728.167 251.946 685.818 1077.392 668.026 365.469 663.269 219.311 552.809 253.990 208.041 342.979 224.120 286.408 418.547 341.475 298.548 394.737 236.010 307.065 374.862 202.531 249.695 355.913 276.668 767.600 643.744 383.192 198.776 53.528 323.672 86.263 401.152 195.170 245.550 643.924 183.277 614.091 372.427 222.744 265.396 451.064 304.077 277.673 257.909 266.095 245.507 193.879 231.165 212.533 276.043 180.253 113.555 112.652 242.926
1262.383 179.056 0.000 321.448 229.829 240.361 180.260 154.598 211.203 262.843 108.977 312.483 69.908 308.445 668.990 341.311 614.427 296.079 256.079 202.934 121.314 260.473 220.228 835.133 835.079 146.830 347.543 288.483 957.828 309.455 260.122 1064.744 530.768 253.920 204.008 723.036 203.372 394.419 375.853 1040.566 282.557 398.413 251.489 554.335 973.358 852.433 145.198 920.090 265.734 279.680 355.605 268.635 414.068 667.170 190.948 636.216 1027.790 607.028 315.867 623.049 158.314 503.207 192.993 181.119 363.122 174.518 271.754 368.946 291.873 283.895 354.516 267.562 292.411 392.890 152.929 200.093 306.311 227.066 706.602 594.142 333.590 149.174 105.505 293.812 191.648 351.550 145.568 195.948 594.322 133.676 553.094 315.509 173.142 215.794 507.525 243.080 228.071 196.912 239.173 184.510 132.881 170.168 162.931 306.621 130.651 179.522 51.655 193.324
1088.005 356.631 381.685 0.000 252.580 142.948 178.179 222.165 194.805 210.835 372.605 185.802 392.891 198.499 901.656 289.302 338.823 568.906 170.613 177.380 394.140 283.224 269.749 660.755 660.701 419.657 620.370 161.736 783.450 51.869 122.341 831.340 763.435 374.533 339.613 955.702 383.654 627.086 648.680 866.187 555.383 404.092 261.902 787.002 807.764 678.054 400.770 754.496 119.396 329.200 588.271 122.297 463.588 899.837 351.886 461.838 853.412 839.695 161.742 895.876 313.874 227.603 328.599 212.014 346.385 260.080 321.275 61.685 135.484 333.416 606.313 317.082 341.932 309.482 279.698 150.561 92.633 291.866 939.269 419.764 178.053 273.691 378.331 147.474 410.019 93.929 231.440 253.383 354.448 304.842 785.760 443.437 267.533 136.560 342.111 448.148 274.491 452.484 288.694 321.835 325.319 425.740 196.139 356.141 250.882 336.465 334.500 165.929
1195.548 240.275 253.778 195.039 0.000 113.778 84.460 87.763 144.368 196.008 220.882 245.648 264.984 241.610 801.641 274.476 487.844 452.551 157.275 76.352 277.785 142.716 153.393 768.298 768.245 303.302 504.014 221.649 890.993 195.360 193.287 938.161 663.420 277.620 239.598 855.687 267.299 527.071 532.325 973.731 439.028 331.579 121.395 686.986 868.338 785.598 293.842 815.070 198.899 212.845 488.256 201.800 347.233 799.821 251.871 569.382 960.955 739.680 249.032 779.520 213.858 376.625 228.583 114.284 296.288 108.357 204.920 247.101 165.291 217.060 506.298 200.727 225.577 326.055 158.295 73.511 203.058 140.143 839.254 527.307 266.755 121.968 261.976 226.977 293.663 258.401 80.194 198.977 467.740 157.375 685.745 346.525 196.842 113.612 440.690 348.132 220.085 345.555 172.339 221.820 189.513 318.811 96.097 239.786 99.158 220.110 200.298 66.741
1161.417 272.736 286.715 120.647 133.794 0.000 72.886 120.223 110.237 161.877 253.819 220.905 297.921 233.601 821.619 240.345 413.452 485.011 117.009 56.124 310.245 164.438 185.854 734.167 734.114 335.762 536.475 187.518 856.862 120.968 159.156 863.769 683.398 294.496 259.576 875.665 299.759 547.049 564.785 939.600 471.488 364.039 143.117 706.965 795.472 751.467 320.733 742.204 164.768 245.305 508.234 167.669 379.694 819.800 271.849 535.251 926.824 759.658 214.901 811.981 233.837 302.233 248.562 133.142 328.748 141.294 237.380 172.709 90.899 249.521 526.276 233.187 258.037 291.924 191.233 45.268 128.666 173.081 859.232 493.176 232.624 154.905 294.436 192.846 326.124 184.009 112.654 173.346 393.348 190.313 705.723 363.400 187.496 39.220 419.478 368.110 194.454 372.447 204.799 241.798 222.451 345.702 90.847 272.246 132.096 252.571 233.236 47.143
1117.412 204.873 229.926 176.477 138.528 102.071 0.000 52.796 66.232 117.872 240.064 176.900 241.132 189.596 800.077 196.340 476.137 417.148 180.220 99.296 242.382 169.172 117.990 690.162 690.108 267.899 468.611 143.512 812.857 164.484 115.151 926.454 661.855 305.320 267.298 854.123 231.896 521.615 496.922 895.595 403.625 296.176 147.851 685.422 867.430 707.462 276.285 814.163 120.763 177.442 482.801 123.664 311.830 798.257 279.571 491.245 882.819 738.115 170.896 744.117 241.558 364.917 256.283 60.256 260.885 136.057 169.517 223.975 153.584 181.657 475.585 165.324 190.174 247.919 185.995 78.387 161.340 167.843 837.689 449.171 188.619 149.668 226.573 148.841 258.260 206.579 61.834 226.677 456.033 185.075 684.181 374.225 224.542 70.823 375.473 374.167 247.785 327.999 136.936 249.520 217.213 301.255 17.961 204.383 104.339 184.707 182.742 89.686
1226.252 228.285 253.339 285.316 214.082 210.911 146.585 0.000 175.072 210.328 263.477 233.658 264.545 229.620 823.490 288.795 584.977 440.561 255.773 174.850 265.795 244.725 141.403 799.002 798.948 291.312 492.024 235.968 921.697 273.323 223.990 1035.294 685.268 344.753 306.731 877.535 255.309 545.028 520.335 1004.434 427.038 319.589 223.404 708.835 966.836 816.302 299.698 913.568 229.602 200.855 506.214 232.504 335.243 821.670 319.003 600.085 991.659 761.528 279.736 767.530 280.991 473.757 295.716 102.294 284.298 191.707 192.929 332.814 262.423 205.070 498.997 188.737 213.586 316.180 241.645 172.009 270.180 223.493 861.102 558.011 297.459 205.318 249.986 256.178 281.673 315.419 117.484 282.327 564.872 224.508 707.593 413.657 263.974 179.663 428.700 397.580 303.435 351.412 160.348 288.953 256.646 324.668 126.800 227.796 158.976 208.120 206.155 165.239
1133.849 215.758 240.812 192.914 204.357 134.395 75.936 81.292 0.000 69.962 250.950 128.990 252.018 141.686 810.962 148.430 504.833 428.033 219.327 138.404 253.268 235.001 128.876 706.599 706.546 278.784 479.497 95.602 829.295 180.921 121.668 955.150 672.741 332.226 294.203 865.008 242.782 532.501 507.807 912.032 414.510 307.061 213.680 696.308 899.755 723.899 287.171 846.487 137.200 188.328 493.686 105.156 322.716 809.143 306.476 507.683 899.256 749.001 187.333 755.003 268.464 393.613 283.189 71.141 260.951 181.982 180.402 240.412 185.908 192.543 486.470 176.210 201.059 200.009 231.234 111.584 177.778 213.768 848.575 465.609 205.056 195.593 237.459 115.813 269.146 223.016 107.760 272.603 484.729 211.981 695.066 401.130 251.447 94.700 389.135 385.053 293.711 338.885 147.821 276.425 244.118 312.140 93.896 215.268 146.448 195.593 193.628 126.952
1111.540 226.189 251.243 176.512 214.789 144.827 86.367 91.723 64.363 0.000 261.381 106.367 262.449 119.064 821.394 128.266 488.431 438.465 229.758 148.835 263.699 245.432 139.307 684.290 684.236 289.216 489.928 72.980 806.985 164.519 99.046 938.748 683.172 342.657 304.635 875.439 253.213 542.932 518.238 889.723 424.942 298.495 224.111 706.739 885.382 701.590 297.602 832.114 114.891 198.759 504.118 82.534 333.147 819.574 316.907 485.373 876.947 759.432 165.024 765.434 278.895 377.211 293.620 81.573 240.788 192.413 190.833 224.009 183.312 202.974 496.901 186.641 211.490 179.846 241.666 122.016 161.375 224.199 859.006 443.299 182.747 206.024 247.890 93.190 279.577 206.614 118.191 283.034 468.326 222.412 705.497 411.561 261.878 101.924 366.513 395.484 304.142 349.316 158.252 286.857 254.550 322.572 104.328 225.700 156.880 206.024 204.059 137.383
1290.326 219.871 149.168 349.391 250.477 268.304 208.203 182.541 239.146 290.787 0.000 340.427 163.241 336.388 686.678 369.254 642.370 360.203 276.727 230.877 185.437 281.121 248.171 863.076 863.023 210.954 411.667 316.427 985.772 337.398 288.065 1092.687 548.457 274.568 221.696 740.724 246.894 412.108 439.977 1068.509 346.680 426.357 279.432 572.023 994.005 880.376 162.887 940.738 293.677 307.623 373.293 296.579 442.011 684.859 208.637 664.160 1055.733 624.717 343.810 687.173 176.002 531.150 210.682 209.062 391.066 195.166 299.698 396.889 319.817 311.838 391.335 295.505 320.355 420.833 173.577 228.037 334.255 247.714 724.291 622.086 361.533 169.822 169.628 321.755 255.772 379.493 173.512 216.596 622.266 154.323 570.782 333.198 193.790 243.737 535.468 260.769 248.719 214.601 267.117 202.199 150.570 187.856 190.875 334.564 158.595 207.465 69.343 221.267
1121.128 264.415 289.469 214.737 253.015 183.053 124.593 129.949 102.589 38.226 299.607 0.000 300.675 77.013 859.619 166.492 526.656 476.691 267.984 187.061 301.925 283.658 177.533 693.878 693.824 327.442 528.154 86.919 816.573 202.744 113.874 976.974 721.398 380.883 342.860 913.665 291.439 581.158 556.464 899.310 463.168 282.606 262.337 744.965 923.607 711.177 335.828 870.340 124.478 236.985 542.344 81.319 343.200 857.800 355.133 494.961 886.534 797.658 174.611 803.660 317.121 415.437 331.846 119.798 224.899 230.639 229.059 256.064 221.538 241.200 535.127 196.693 249.716 187.996 279.892 160.241 199.601 262.425 897.232 452.887 192.334 244.250 286.116 65.534 307.230 219.546 156.417 321.260 506.552 260.638 743.723 449.787 300.104 140.150 324.462 433.710 342.368 387.542 196.478 325.082 292.776 360.798 142.554 235.752 195.105 244.250 242.285 175.609
1343.305 259.977 80.922 402.369 310.751 321.282 261.182 235.520 292.125 343.765 189.899 393.405 0.000 389.367 749.911 422.232 695.348 377.001 337.001 283.856 202.235 341.395 301.150 916.055 916.001 227.752 428.465 369.405 1038.750 390.376 341.043 1145.665 611.690 334.842 284.929 803.957 284.294 475.341 456.775 1121.488 363.478 479.335 332.410 635.257 1054.279 933.355 226.120 1001.012 346.656 360.602 436.526 349.557 494.990 748.092 271.870 717.138 1108.712 687.950 396.789 703.971 239.236 584.129 273.915 262.041 444.044 255.440 352.676 449.867 372.795 364.817 435.438 348.484 373.333 473.812 233.851 281.015 387.233 307.988 787.524 675.064 414.512 230.096 186.427 374.733 272.570 432.472 226.490 276.870 675.244 214.597 634.015 396.431 254.064 296.716 588.447 324.002 308.993 277.834 320.095 265.432 213.803 251.090 243.853 387.542 211.573 260.444 132.577 274.246
1104.869 268.454 293.507 206.376 257.053 187.091 128.631 133.987 106.627 42.264 303.645 4.038 304.714 0.000 863.658 170.530 518.296 480.729 272.023 191.099 305.963 287.697 181.571 677.619 677.565 291.833 532.193 70.660 800.314 194.384 97.615 968.613 725.437 384.921 346.899 917.704 290.875 585.197 560.503 883.051 467.206 246.928 266.375 749.003 915.247 694.919 339.866 861.979 108.219 209.758 546.382 65.060 307.521 861.838 359.172 478.702 870.276 801.697 158.353 807.698 321.159 407.076 335.884 123.837 189.221 234.678 201.833 239.805 213.177 213.973 539.166 161.015 222.490 152.318 283.930 164.280 191.240 266.464 901.270 436.628 176.076 248.289 290.154 49.275 271.552 203.287 160.455 325.298 498.191 264.676 747.762 453.826 304.143 144.188 288.784 437.748 346.406 391.580 200.517 329.121 296.814 364.836 146.592 200.074 199.144 248.288 246.323 179.648
1847.731 770.704 706.573 896.460 785.225 825.709 765.608 739.946 796.551 848.191 666.735 897.831 696.323 893.793 0.000 926.659 1127.244 597.429 759.097 788.282 712.962 815.869 805.576 1394.758 1394.704 738.478 780.466 873.831 1543.176 894.803 845.470 1034.844 505.588 665.538 650.156 300.773 795.020 635.672 688.609 1625.914 713.833 983.762 836.837 494.002 748.520 1437.781 534.338 692.662 851.082 865.028 596.857 853.983 999.416 67.685 609.882 1221.565 1613.138 459.882 901.215 1034.341 590.493 1016.024 628.038 766.467 948.471 729.914 857.102 915.052 847.059 869.243 616.039 852.910 877.759 978.238 672.585 785.441 891.659 782.462 131.800 1179.490 918.938 704.570 697.153 879.160 783.296 917.974 730.917 698.966 1107.139 690.330 420.469 717.221 676.160 801.142 1092.873 632.220 731.090 605.238 824.521 617.957 636.905 578.493 748.280 891.969 715.999 764.870 626.302 778.672
1200.078 265.650 291.153 259.142 254.699 184.737 126.277 131.633 131.533 138.713 301.291 178.770 302.359 174.732 861.304 0.000 558.803 478.375 269.668 188.745 303.609 285.342 175.862 772.828 772.774 329.126 529.838 164.353 895.523 247.149 190.420 1009.120 723.082 382.567 344.545 915.349 292.674 582.842 558.149 978.261 464.852 329.697 264.021 746.649 950.096 790.128 337.512 896.828 203.429 235.313 544.028 173.907 369.701 859.484 356.817 573.911 965.485 799.342 253.562 805.344 318.805 447.583 333.530 121.483 271.990 232.323 227.388 306.640 236.250 239.529 536.812 223.195 248.045 122.128 281.576 161.926 244.006 264.109 898.916 531.837 271.285 245.934 287.800 184.564 319.038 289.245 158.101 322.944 538.698 262.322 745.407 451.471 301.788 153.489 404.901 435.394 344.052 389.226 194.807 326.767 294.460 362.482 144.238 262.254 196.790 245.485 243.969 177.293
878.941 655.669 669.648 359.678 516.727 406.792 455.819 503.156 493.170 521.510 636.753 496.477 680.855 509.174 1159.145 599.977 0.000 789.468 428.102 441.528 693.178 547.371 568.787 372.121 372.068 718.695 919.408 472.412 722.157 362.545 433.016 698.679 1020.924 604.635 597.102 1213.191 682.692 827.710 880.647 709.637 854.421 714.767 526.050 1044.490 851.702 468.991 658.258 928.337 430.071 628.238 788.895 432.973 762.627 1157.325 609.375 445.270 693.927 1097.184 413.809 1194.914 571.362 143.036 586.087 516.075 657.060 524.228 620.313 343.446 379.939 632.454 808.077 616.120 640.970 620.157 537.187 428.201 396.618 556.014 1196.758 403.196 430.121 537.839 677.370 458.149 709.057 313.745 495.587 510.872 81.438 562.330 1043.249 681.533 525.021 422.153 498.271 705.636 531.980 709.972 587.732 579.324 582.807 683.228 473.780 655.179 515.029 635.504 616.169 430.076
1531.125 398.473 398.325 589.970 478.236 509.103 449.003 423.340 479.945 531.586 358.488 528.827 379.407 524.789 672.370 610.053 842.239 0.000 452.607 471.676 340.731 508.880 488.971 1103.876 1103.822 343.262 308.698 557.226 1226.571 578.197 528.864 1228.844 488.462 367.898 343.666 680.622 405.186 303.710 280.637 1309.308 242.065 647.349 520.231 512.029 942.519 1121.175 227.848 886.661 534.476 540.996 264.896 537.378 613.287 634.336 303.393 904.959 1296.532 564.722 584.609 643.861 284.003 731.019 321.548 449.861 589.642 422.925 533.070 608.562 540.569 545.211 254.578 482.673 553.727 621.524 366.095 468.836 575.054 475.473 673.768 862.885 602.332 397.581 324.922 562.554 385.863 611.484 414.311 392.477 822.134 382.083 510.787 419.581 369.670 484.536 701.456 325.730 424.600 264.458 507.916 311.467 328.657 237.714 431.674 522.706 399.394 410.567 318.055 462.066
1145.331 314.468 301.360 137.363 151.746 86.642 129.672 177.009 195.904 247.544 268.464 271.616 312.566 284.313 755.932 326.012 389.631 443.119 0.000 101.311 339.879 182.389 242.640 715.833 715.779 365.396 566.109 247.551 841.510 137.684 208.155 839.948 617.711 228.808 193.889 809.978 341.491 481.361 534.298 924.248 501.122 420.825 199.903 641.277 717.279 735.381 255.045 664.011 205.210 302.091 442.547 208.112 436.480 754.112 206.161 519.898 911.472 693.970 219.802 841.614 168.149 278.412 182.874 189.928 385.534 170.570 294.166 155.955 87.962 306.307 460.589 289.973 314.823 377.591 133.974 102.054 171.476 206.249 793.544 477.824 236.114 162.841 324.070 233.288 367.855 158.877 169.440 107.659 369.527 159.117 640.036 297.713 121.808 125.862 400.171 302.423 128.767 306.759 261.585 176.111 179.594 280.015 147.633 329.032 188.882 294.302 247.881 103.929
1172.592 283.911 297.891 131.822 144.970 50.561 84.061 131.399 121.412 173.053 264.995 232.080 309.097 244.777 840.111 251.520 424.628 496.186 135.501 0.000 321.421 175.613 197.029 745.343 745.289 346.937 547.650 198.693 868.038 132.143 170.331 874.945 701.890 312.987 278.068 894.157 310.935 565.540 575.960 950.775 482.663 375.214 154.292 725.456 813.963 762.642 337.955 760.695 175.943 256.481 526.726 178.845 390.869 838.291 290.340 546.426 937.999 778.150 226.076 823.156 252.328 313.408 267.053 144.317 339.923 152.470 248.555 183.884 102.074 260.696 544.768 244.363 269.212 303.100 202.408 56.443 139.841 184.256 877.724 504.352 243.799 166.081 305.612 204.021 337.299 195.184 123.829 191.838 404.523 201.488 724.215 381.892 205.987 50.395 430.653 386.602 212.946 389.668 215.974 260.290 233.626 362.924 102.022 283.421 143.271 263.746 244.411 58.318
1344.659 58.183 199.482 410.695 319.076 329.608 269.507 243.845 300.450 304.724 209.620 266.498 210.688 262.460 760.914 377.778 703.674 337.543 345.326 292.181 0.000 349.720 275.236 917.410 917.356 75.310 389.007 333.120 1040.105 398.702 349.369 1153.991 622.692 343.167 304.650 814.959 82.500 442.011 417.317 1122.842 324.021 385.020 340.736 646.259 1062.605 934.709 237.122 1009.337 354.981 278.667 403.197 327.519 350.958 759.094 282.872 679.196 1110.066 698.952 405.114 664.513 250.238 592.454 293.636 253.675 327.313 263.765 270.741 458.193 381.120 282.882 395.980 220.344 291.398 359.195 242.176 289.340 395.558 316.313 798.526 637.121 422.837 238.421 54.772 311.735 101.175 440.797 234.815 285.195 683.569 222.923 645.018 407.433 262.389 305.041 439.127 335.004 317.318 288.836 311.730 277.701 233.524 262.092 252.178 260.377 219.898 131.269 152.297 282.571
1260.903 305.630 319.133 260.394 65.355 179.133 149.814 153.118 209.723 261.363 286.237 311.003 330.339 306.965 851.680 339.831 553.199 517.906 175.440 141.707 343.140 0.000 218.748 833.653 833.600 368.657 569.369 287.003 956.348 260.715 258.642 1003.516 713.459 324.556 289.637 905.726 332.654 577.109 597.679 1039.086 504.383 396.934 186.750 737.025 886.503 850.953 350.793 833.235 264.254 278.200 538.295 267.155 412.588 849.860 301.909 634.737 1026.310 789.719 314.387 844.875 263.897 441.979 278.622 179.639 361.643 173.712 270.274 312.456 230.646 282.415 556.337 266.082 290.931 391.410 223.650 138.866 268.413 119.858 889.293 592.662 332.110 187.323 327.331 292.332 359.018 323.756 145.548 203.407 533.095 222.730 735.784 393.461 217.556 178.967 506.045 398.171 224.515 402.507 237.693 271.859 254.868 375.763 161.452 305.141 164.513 285.465 265.653 132.096
1243.018 203.239 260.379 302.082 224.580 222.774 162.673 129.949 178.789 197.785 270.517 173.360 271.585 169.321 830.529 213.974 596.840 447.600 266.271 185.347 272.834 255.223 0.000 815.768 815.714 259.256 499.064 223.425 938.463 290.089 240.756 1047.157 692.308 351.792 313.770 884.575 230.262 552.068 527.374 1021.200 434.077 259.290 233.902 715.874 977.334 833.068 306.737 924.066 246.369 140.556 513.253 232.979 274.944 828.709 326.043 608.470 1008.425 768.568 296.502 774.570 288.031 485.620 302.756 89.751 223.999 202.204 132.631 349.580 274.287 144.771 506.037 128.438 153.288 255.881 250.801 182.507 286.946 233.990 868.142 566.396 314.225 215.815 256.767 218.596 238.975 332.185 127.982 292.825 576.736 231.548 714.633 420.697 271.014 196.429 368.401 404.620 313.933 358.451 132.395 295.992 263.685 331.707 145.345 167.497 166.015 183.074 213.194 175.737
887.578 836.954 862.008 641.560 822.926 712.990 697.132 702.488 675.128 691.158 872.146 666.440 873.214 679.137 1375.101 769.626 371.498 1049.229 733.140 747.726 874.464 853.570 750.072 0.000 27.462 874.528 1100.693 642.374 731.745 667.171 602.664 687.799 1233.098 904.818 902.140 1486.204 863.978 1127.893 1129.003 718.274 1035.707 859.764 832.248 1278.667 880.549 408.355 908.367 1032.574 577.296 809.524 1089.078 602.935 920.357 1354.778 914.413 512.660 702.564 1238.302 544.236 1376.199 876.401 493.483 891.126 692.337 802.056 803.178 801.598 653.535 686.138 813.739 1107.666 773.851 822.255 790.120 842.225 732.780 700.963 834.964 1334.134 480.368 589.016 816.789 858.655 628.112 849.934 642.244 728.956 815.911 406.164 833.177 1316.262 981.716 830.060 712.689 607.781 1006.249 837.018 960.081 769.017 884.362 865.314 933.336 715.092 812.910 767.644 816.789 814.824 736.274
876.595 880.840 905.894 685.446 867.375 757.439 741.018 746.374 719.014 735.044 916.032 710.326 917.100 723.022 1425.067 813.511 415.947 1093.115 777.026 792.175 918.349 898.019 793.958 91.333 0.000 918.977 1144.579 686.260 720.763 711.057 646.550 737.765 1283.063 949.267 946.026 1530.090 907.863 1172.342 1172.889 707.291 1079.592 904.213 876.697 1328.632 930.514 380.893 952.252 1082.539 621.181 853.409 1133.527 646.821 964.806 1404.743 958.299 530.784 691.582 1288.267 588.122 1420.085 920.287 537.933 935.012 736.223 846.505 847.064 845.484 697.420 730.587 857.625 1151.552 818.300 866.141 834.006 886.111 776.666 744.849 878.850 1384.099 500.148 632.902 860.675 902.541 671.997 894.383 686.693 772.841 859.796 450.613 877.063 1360.148 1026.165 873.946 756.575 652.231 1050.135 880.904 1003.966 812.903 928.248 909.200 977.222 758.978 857.359 811.530 860.675 858.709 780.724
1327.755 130.165 251.701 451.932 386.097 391.309 331.209 298.484 347.324 287.819 252.339 249.594 232.044 245.555 755.978 360.874 763.851 332.608 412.346 353.882 83.008 416.740 258.332 900.505 900.451 0.000 384.072 316.216 1023.200 439.939 343.170 1214.168 617.757 350.815 309.917 810.024 110.979 437.076 412.382 1105.938 319.085 368.116 402.437 641.324 1071.814 917.805 232.187 1015.956 353.775 261.762 398.261 310.615 334.053 754.159 277.937 662.291 1093.162 694.017 403.908 659.578 245.302 652.631 294.379 258.286 310.408 330.785 253.837 485.360 442.822 265.978 391.045 203.439 274.494 342.291 309.197 351.042 436.795 383.334 793.591 620.217 421.631 305.442 132.223 294.830 91.656 448.842 296.517 352.215 735.700 289.943 640.082 402.498 329.409 364.964 422.223 330.069 384.339 283.901 300.930 272.766 239.929 257.156 313.880 243.473 286.919 167.428 195.017 344.272
1561.209 428.556 429.148 620.273 532.406 539.186 479.086 453.424 510.029 561.669 429.786 562.148 409.491 558.109 804.330 640.136 913.252 298.423 559.472 501.760 370.814 563.050 519.054 1133.959 1133.905 376.583 0.000 587.309 1256.654 608.281 558.948 1363.570 624.497 528.262 487.364 816.657 438.507 305.207 287.514 1339.392 135.027 680.670 550.314 648.063 1078.554 1151.259 409.080 1022.696 564.560 574.316 368.753 567.461 646.607 770.371 455.384 935.042 1326.616 700.757 614.693 335.163 422.749 802.033 471.826 479.945 622.962 477.911 566.391 667.771 590.699 578.532 262.651 515.993 587.048 654.845 456.322 498.919 605.137 529.643 809.803 892.968 632.416 452.567 355.005 592.637 419.183 650.376 444.394 499.341 893.148 437.069 646.822 579.945 476.535 514.620 734.777 506.962 531.464 445.690 537.999 450.213 417.376 418.946 461.757 556.027 429.477 440.651 372.464 492.150
1075.886 268.488 293.542 165.105 257.087 169.959 128.666 134.022 106.662 96.847 303.680 58.621 304.748 71.317 863.692 191.798 477.024 480.763 236.825 191.134 305.998 287.731 181.606 648.636 648.582 321.815 532.227 0.000 771.331 153.112 66.315 927.341 725.471 384.956 346.933 917.738 295.512 585.231 560.537 854.069 467.240 276.911 266.410 749.038 873.975 665.936 339.901 820.707 79.237 239.741 546.416 36.077 337.504 861.873 359.206 449.719 841.293 801.731 129.370 807.733 321.194 365.804 335.919 123.871 219.203 234.712 231.815 210.822 171.906 243.956 539.200 190.998 252.472 182.301 283.964 164.314 149.968 266.498 901.305 407.645 147.093 248.323 290.189 20.292 301.535 174.304 160.489 319.595 456.920 264.711 747.796 453.860 304.177 144.223 318.766 437.783 340.703 391.615 200.551 329.155 296.848 364.870 146.626 230.057 199.178 248.323 246.357 179.682
554.541 990.295 1015.349 794.901 978.894 884.313 850.472 855.829 828.469 844.499 1025.487 819.781 1026.555 832.477 1585.499 922.966 708.274 1202.570 886.481 912.940 1027.804 1009.538 903.413 696.037 695.983 1036.982 1254.034 795.715 0.000 820.512 756.005 1149.988 1447.278 1090.400 1055.481 1639.545 1017.318 1307.038 1282.344 213.844 1189.047 1022.219 988.216 1470.844 1307.409 445.806 1061.707 1432.267 730.636 962.864 1268.223 756.276 1082.812 1583.679 1067.754 535.224 201.068 1523.538 697.577 1529.540 1029.742 755.581 1044.467 845.678 964.511 956.519 954.939 806.875 857.460 967.080 1261.007 936.306 975.596 943.461 995.566 886.121 854.304 988.305 1623.112 545.070 742.356 970.130 1011.995 781.452 1012.389 809.797 882.296 969.251 742.593 986.518 1469.603 1159.305 983.401 866.030 770.236 1159.590 990.359 1113.421 922.358 1037.703 1018.655 1086.677 868.433 975.364 920.985 970.129 968.164 901.489
1064.176 304.761 329.815 112.960 243.214 133.582 157.716 170.295 142.935 158.966 339.953 133.933 341.021 146.629 899.965 237.433 422.831 517.037 200.447 168.015 342.271 273.858 217.879 636.926 636.872 367.788 568.500 109.867 759.621 0.000 70.472 890.964 761.744 404.367 369.447 954.011 331.785 621.504 596.810 842.359 503.514 352.223 252.537 785.311 837.598 654.226 376.174 784.330 67.527 277.331 582.690 70.428 411.719 898.146 381.720 438.009 829.583 838.004 117.660 844.006 343.708 311.612 358.433 160.144 294.515 250.714 269.405 112.818 135.528 281.546 575.473 265.213 290.062 257.613 300.653 141.195 105.263 282.501 937.578 395.935 135.383 264.326 326.462 95.604 358.149 113.765 196.763 283.218 420.542 299.733 784.069 473.271 297.367 127.194 322.237 474.056 304.325 427.888 236.824 351.669 331.871 401.144 175.676 304.272 235.452 284.596 282.631 156.563
1059.914 253.166 278.219 149.783 241.765 154.637 113.343 118.700 91.339 107.370 288.357 93.196 289.426 105.892 848.370 185.837 461.702 465.441 221.502 175.811 290.675 272.409 166.284 632.664 632.610 316.192 516.905 58.470 755.359 137.790 0.000 912.019 710.149 369.633 331.611 902.416 280.189 569.909 545.215 838.097 451.918 311.486 251.087 733.715 858.653 649.964 324.578 805.385 63.265 225.735 531.094 30.908 360.123 846.550 343.884 433.747 825.321 786.409 113.398 792.410 305.872 350.482 320.596 108.549 253.778 219.390 217.810 194.850 156.583 229.951 523.878 213.617 238.467 216.876 268.642 148.992 134.646 251.176 885.983 391.673 131.121 233.001 274.866 54.867 306.553 158.332 145.167 304.273 441.597 249.388 732.474 438.538 288.855 128.901 317.975 422.460 325.380 376.292 185.229 313.833 281.526 349.548 131.304 252.676 183.856 233.000 231.035 164.360
1308.577 1105.573 1119.553 812.673 966.632 856.696 905.724 953.061 943.075 971.960 1086.657 946.927 1130.759 959.623 1044.199 1050.427 693.818 1197.993 878.006 891.432 1143.083 997.276 1018.691 682.598 682.545 1168.600 1369.312 922.861 1152.744 812.994 883.466 0.000 902.196 1064.609 1047.006 1232.891 1132.597 1239.102 1289.173 1139.273 1304.326 1165.217 975.954 947.765 549.647 898.627 1108.163 701.672 880.521 1078.143 1200.288 883.422 1212.531 1023.876 1059.279 905.913 1123.563 907.400 895.025 1637.772 1021.267 684.047 1035.992 965.979 1107.509 974.132 1070.217 828.169 829.844 1082.358 1228.818 1066.025 1090.874 1070.607 987.091 878.106 846.786 1005.918 1003.232 863.839 911.336 987.743 1127.274 908.598 1158.961 831.091 945.491 960.776 762.489 1012.235 993.992 1141.507 974.926 872.058 958.914 1155.541 981.884 1159.877 1037.636 1029.228 1032.712 1133.133 923.684 1105.084 964.934 1085.408 1066.074 879.981
1691.714 614.687 550.556 740.443 629.208 669.692 609.591 583.929 640.534 692.174 510.718 741.814 540.306 737.776 481.489 770.642 966.613 391.584 603.080 632.265 556.945 659.852 649.559 1264.464 1264.410 582.461 574.621 717.814 1387.159 738.786 689.453 922.563 0.000 509.521 494.139 646.533 639.003 432.693 482.764 1469.897 507.988 827.745 680.820 86.229 631.686 1281.764 378.321 580.380 695.065 709.011 393.879 697.966 843.399 461.165 453.865 1065.547 1457.121 284.828 745.198 831.363 434.476 855.394 472.021 610.450 792.453 573.897 701.085 759.035 691.042 713.226 422.409 696.893 721.742 822.221 516.568 629.424 735.642 626.445 440.521 1023.473 762.921 548.553 541.136 723.143 627.279 761.957 574.899 542.949 946.509 534.313 227.885 561.204 520.143 645.125 936.856 476.203 575.073 449.221 668.504 461.940 480.888 422.476 592.262 735.952 559.982 608.853 470.285 622.655
1330.920 326.810 296.816 370.191 258.956 312.945 294.524 281.720 338.325 389.966 256.979 439.606 286.567 435.567 684.806 468.433 575.220 327.409 232.828 286.416 303.205 289.599 347.351 901.421 901.368 328.722 510.446 415.606 1070.789 370.511 387.244 1040.655 546.585 0.000 183.365 738.852 353.833 365.651 418.588 1153.527 443.813 525.536 331.459 570.151 878.547 920.970 183.920 825.279 392.856 406.802 326.837 395.758 541.190 682.986 146.552 752.726 1140.751 622.845 442.989 764.321 127.163 464.000 161.247 308.241 490.245 203.644 398.877 388.783 320.789 411.018 346.019 394.684 419.534 520.013 146.316 283.575 404.304 256.193 722.419 710.652 460.712 178.301 287.396 420.934 373.540 391.704 260.629 172.697 555.115 170.248 568.910 76.898 149.891 323.676 632.999 186.530 204.820 235.634 366.296 154.627 183.087 208.889 290.054 433.743 243.083 306.644 216.546 276.806
1312.261 260.911 247.804 304.292 193.058 247.046 228.625 215.822 272.427 324.067 196.985 373.707 249.035 369.669 659.410 402.535 556.561 346.597 166.929 220.518 265.674 223.701 281.452 882.762 882.709 291.190 491.903 349.708 1008.440 304.613 321.346 1006.878 521.189 164.771 0.000 713.456 287.935 384.840 437.777 1091.177 426.916 459.638 265.561 544.756 884.208 902.311 158.524 830.941 326.958 340.904 346.025 329.859 475.292 657.591 75.349 686.828 1078.401 597.449 377.091 767.409 71.628 445.341 22.118 242.343 424.347 137.746 332.979 322.884 254.891 345.119 364.067 328.786 353.636 454.114 80.417 217.677 338.405 190.295 697.023 644.754 394.814 112.403 249.865 355.036 314.299 325.806 194.731 80.520 536.456 104.350 543.514 233.675 83.992 257.778 567.101 205.901 138.922 210.238 300.398 66.394 93.971 183.493 224.156 367.845 177.185 240.746 179.014 210.907
1910.765 833.737 769.606 959.494 848.259 888.742 828.642 802.980 859.585 911.225 729.769 960.865 759.357 956.827 269.512 989.692 1189.558 614.529 822.131 851.316 775.995 878.903 868.610 1483.515 1483.461 801.512 797.566 936.865 1606.210 957.836 908.503 1179.184 594.156 728.572 713.189 0.000 858.054 655.638 705.709 1688.948 730.933 1046.795 899.870 617.722 892.860 1500.815 597.371 837.002 914.116 928.062 616.824 917.017 1062.450 201.817 672.916 1284.598 1676.172 604.222 964.249 1054.308 653.527 1078.339 691.071 829.501 1011.504 792.947 920.136 978.086 910.092 932.277 645.354 915.944 940.793 1041.272 735.619 848.475 954.693 845.496 241.250 1242.524 981.972 767.604 760.186 942.193 846.330 981.007 793.950 762.000 1169.454 753.364 509.037 780.254 739.194 864.176 1155.907 695.254 794.123 668.271 887.555 680.990 699.938 641.527 811.313 955.002 779.033 827.904 689.336 841.705
1331.171 19.186 179.023 390.236 298.617 309.149 249.048 223.386 279.991 295.256 189.161 257.030 190.229 252.992 749.173 372.039 683.215 355.486 324.867 271.722 50.939 329.261 253.787 903.921 903.867 103.446 406.950 323.652 1026.616 378.243 328.910 1133.532 610.952 322.708 284.191 803.219 0.000 459.954 435.260 1109.354 341.963 379.281 320.277 634.518 1042.146 921.221 225.381 988.878 334.522 272.928 421.139 318.051 345.219 747.353 271.132 669.728 1096.578 687.212 384.655 682.456 238.497 571.995 273.177 214.678 321.574 243.306 265.003 437.734 360.661 277.143 413.923 214.605 285.660 353.457 221.717 268.881 375.099 295.854 786.786 627.654 402.378 217.962 72.714 302.267 64.858 420.338 214.356 264.736 663.110 202.464 633.277 391.613 241.930 284.582 429.659 323.264 296.859 277.095 272.732 264.693 213.065 250.351 231.719 254.638 199.439 92.271 131.838 262.112
1559.821 459.135 418.662 608.549 497.315 537.798 477.698 452.035 508.640 560.281 378.824 589.489 408.412 585.451 631.309 638.748 810.061 194.079 471.187 500.371 401.393 527.958 517.666 1132.571 1132.517 403.925 286.887 585.921 1255.266 606.892 557.559 1189.849 449.467 377.627 362.245 641.627 465.848 0.000 140.051 1338.003 229.820 695.851 548.926 473.034 903.524 1149.870 246.427 847.666 563.171 577.117 121.918 566.073 673.949 595.341 321.972 933.654 1325.227 525.727 613.304 581.143 302.582 698.841 340.127 478.556 650.304 442.003 569.192 627.141 559.148 581.333 41.442 543.335 589.849 682.187 384.674 497.531 603.749 494.552 634.773 891.580 631.027 416.660 385.585 591.249 446.525 630.063 443.006 411.056 789.957 402.420 471.792 429.310 388.250 513.231 762.118 344.309 443.179 317.327 536.611 330.046 348.994 290.583 460.369 583.368 428.089 471.230 338.392 490.761
1636.340 503.688 504.280 695.405 607.538 614.318 554.217 528.555 585.160 636.801 493.128 634.042 484.622 630.003 733.722 715.268 912.474 238.631 585.490 576.891 445.946 638.181 594.185 1209.090 1209.037 448.477 308.531 662.441 1331.786 683.412 634.079 1294.270 553.888 483.587 476.548 746.049 510.401 160.435 0.000 1414.523 231.356 752.564 625.446 577.455 1007.946 1226.390 360.730 952.088 639.691 646.211 236.221 642.593 718.501 699.762 436.275 1010.174 1401.747 630.148 689.824 620.950 416.886 801.254 454.430 555.076 694.856 553.042 638.285 741.445 665.831 650.426 109.245 587.888 658.942 726.739 498.978 574.051 680.269 604.775 739.195 968.100 707.547 527.699 430.137 667.769 491.077 725.507 519.526 525.359 892.369 512.200 576.214 543.613 502.553 589.751 806.671 458.613 557.482 431.630 613.131 444.349 463.297 404.886 536.889 627.921 504.609 515.782 447.595 567.281
395.037 1037.459 1062.512 842.064 1026.058 916.633 897.636 902.992 875.632 891.663 1072.650 866.944 1073.718 879.641 1632.663 970.130 665.929 1249.734 933.645 951.369 1074.968 1056.701 950.576 653.692 653.639 1084.146 1301.197 842.879 348.047 867.676 803.169 1107.643 1494.441 1108.461 1102.645 1686.708 1064.482 1331.536 1329.508 0.000 1236.211 1069.382 1035.380 1518.008 1265.064 403.462 1108.871 1417.089 777.800 1010.028 1292.721 803.440 1129.976 1630.843 1114.918 658.876 22.394 1570.701 744.741 1576.703 1076.905 755.477 1091.630 892.842 1011.675 1003.682 1002.103 854.039 889.781 1014.243 1308.171 983.469 1022.760 990.624 1042.730 933.285 901.468 1035.469 1670.275 656.766 789.520 1017.294 1059.159 828.616 1059.552 845.887 929.460 1016.415 700.595 1033.681 1516.767 1185.359 1030.564 913.193 817.400 1206.753 1037.523 1160.585 969.522 1084.867 1065.819 1133.841 915.597 1022.528 968.149 1017.293 1015.328 939.917
1475.032 342.379 342.971 534.096 446.229 453.009 392.909 367.246 423.851 475.492 343.609 472.733 323.313 468.695 710.603 553.959 827.075 204.696 473.294 415.582 284.637 476.873 432.877 1047.782 1047.728 287.168 114.811 501.132 1170.477 522.103 472.770 1271.152 530.770 442.085 401.187 722.930 349.092 262.782 203.497 1253.214 0.000 591.255 464.137 554.337 984.827 1065.081 315.353 928.969 478.382 484.902 280.092 481.284 557.193 676.644 369.207 848.865 1240.439 607.030 528.515 449.974 336.572 715.855 385.649 393.767 533.548 391.734 476.976 581.594 504.522 489.117 220.226 426.579 497.633 565.430 370.145 412.742 518.960 443.466 716.076 806.791 546.238 366.390 268.828 506.460 329.769 564.198 358.217 413.163 806.971 350.891 553.095 493.768 390.357 428.443 645.362 413.236 445.287 351.963 451.822 364.036 331.199 325.219 375.580 466.612 343.300 354.473 286.286 405.972
1249.233 310.282 398.301 350.996 362.502 331.691 273.231 267.871 251.247 186.884 408.439 148.658 409.507 144.620 968.451 215.722 662.916 570.805 404.193 323.270 332.578 393.145 227.719 821.983 821.929 313.401 621.872 215.280 944.678 339.004 242.235 1113.233 830.230 489.714 451.692 1022.497 312.443 675.272 650.579 1027.415 556.886 0.000 371.824 853.796 1059.867 839.282 444.660 1006.599 252.840 84.457 636.458 209.680 329.090 966.631 463.965 583.769 1014.639 906.490 302.973 897.378 425.953 551.696 440.678 227.673 199.298 340.127 59.755 384.425 357.797 66.760 629.242 182.583 45.239 119.752 388.723 308.880 335.860 371.913 1006.064 541.694 320.696 353.738 362.910 193.895 293.120 347.907 265.904 430.747 642.811 369.470 852.555 558.619 408.936 288.809 343.700 542.542 451.855 496.373 270.317 433.914 401.607 469.629 283.267 221.642 303.937 272.849 351.116 313.659
1300.764 345.491 358.993 293.145 105.215 196.645 189.675 192.978 249.583 301.224 326.097 350.864 370.199 346.825 862.204 379.691 569.379 549.391 185.964 173.037 383.000 39.860 258.609 873.514 873.460 408.517 609.230 326.864 996.209 293.466 298.502 1019.696 723.983 335.080 300.161 916.250 372.514 587.634 637.540 1078.946 544.243 436.794 0.000 747.549 897.027 890.813 361.318 843.759 304.114 318.060 548.819 307.016 452.448 860.384 312.434 674.597 1066.170 800.243 354.247 884.736 274.422 458.159 289.146 219.499 401.503 213.572 310.135 335.703 263.397 322.276 566.861 305.942 330.792 431.271 240.246 171.617 301.164 159.718 899.817 632.523 371.970 227.183 367.191 332.192 398.879 338.624 185.409 213.931 549.275 262.591 746.308 403.985 228.080 211.718 545.905 408.695 235.039 413.031 277.554 282.383 285.867 386.287 201.312 345.001 204.374 325.325 305.514 164.848
1714.603 637.576 573.445 763.332 652.097 692.581 632.480 606.818 663.423 715.063 533.607 764.703 563.195 760.665 437.860 793.531 989.502 414.473 625.969 655.154 579.834 682.741 672.448 1268.163 1268.109 605.350 597.510 740.703 1410.048 761.675 712.342 908.249 77.462 532.410 517.028 626.552 661.892 455.582 505.653 1492.786 530.877 850.634 703.709 0.000 621.925 1304.653 401.210 566.067 717.954 731.900 416.768 720.855 866.288 417.536 476.754 1088.436 1480.010 241.200 768.087 854.252 457.365 878.283 494.910 633.339 815.343 596.786 723.974 781.924 713.931 736.115 445.298 719.782 744.631 845.110 539.457 652.313 758.531 649.334 396.892 1046.362 785.810 571.442 564.025 746.032 650.168 784.846 597.788 565.838 969.398 557.202 184.256 584.093 543.032 668.014 959.745 499.092 597.962 472.110 691.393 484.829 503.777 445.365 615.152 758.841 582.871 631.742 493.174 645.544
1480.584 988.238 975.131 746.430 825.516 733.564 797.414 844.752 843.638 895.278 942.235 880.683 986.337 893.380 748.434 973.746 864.258 894.511 698.659 769.053 1013.650 856.160 910.382 881.716 881.662 1039.167 1077.548 856.617 1324.751 746.750 817.222 521.802 595.404 857.966 867.659 937.126 1015.262 935.620 985.691 1311.279 1010.915 1088.567 867.645 644.283 0.000 1070.634 881.248 213.003 814.277 969.834 896.806 817.178 1104.222 728.111 879.932 1077.920 1295.570 603.918 837.236 1334.290 841.920 791.231 856.645 857.670 1041.266 844.341 961.908 773.388 705.395 974.049 925.336 957.716 982.565 1004.363 807.744 769.796 780.543 880.019 707.467 1035.846 853.547 836.611 997.841 842.355 1041.626 776.310 837.182 781.430 882.346 832.888 690.510 934.864 795.579 772.621 1017.605 976.194 802.537 952.148 929.327 849.881 853.365 925.403 815.375 996.774 856.624 968.073 921.652 771.671
634.953 873.370 898.424 677.976 861.969 752.545 733.548 738.904 711.544 727.574 908.562 702.856 909.630 715.552 1468.574 806.042 501.841 1085.645 769.556 787.281 910.880 892.613 786.488 418.095 416.005 920.058 1137.109 678.790 479.120 703.587 639.080 943.555 1330.353 944.373 938.556 1522.620 900.394 1167.447 1165.419 465.648 1072.122 905.294 871.292 1353.920 1100.976 0.000 944.783 1253.001 613.712 845.940 1128.633 639.351 965.887 1466.755 950.829 487.300 449.939 1406.613 580.652 1412.615 912.817 591.388 927.542 728.753 847.586 839.594 838.014 689.951 725.692 850.155 1144.082 819.381 858.671 826.536 878.641 769.196 737.379 871.380 1506.187 492.678 625.432 853.205 895.071 664.528 895.464 681.798 765.372 852.327 536.507 869.593 1352.678 1021.271 866.476 749.105 653.311 1042.665 873.434 996.497 805.433 920.778 901.730 969.752 751.508 858.440 804.060 853.205 851.240 775.829
1341.180 264.153 200.022 400.245 279.933 319.157 259.057 233.395 290.000 341.640 160.184 391.280 189.772 387.242 570.764 420.108 661.363 257.951 271.732 281.731 206.411 310.576 299.025 913.930 913.876 231.927 422.180 367.280 1036.625 388.252 338.919 1111.680 432.543 187.022 162.790 624.810 288.469 296.194 349.131 1119.363 355.547 477.210 330.286 456.109 886.600 931.230 0.000 830.742 344.531 358.477 257.379 347.432 492.865 568.945 122.517 715.013 1106.587 508.803 394.664 694.863 103.128 550.143 140.673 259.916 441.919 224.621 350.551 427.687 359.693 362.692 275.421 346.359 371.208 471.687 185.220 278.890 385.108 277.170 608.377 672.939 412.387 199.278 190.602 372.608 276.745 430.347 224.365 211.601 641.259 183.779 454.868 238.705 188.795 294.591 586.322 144.855 243.724 98.687 317.970 130.591 130.353 71.942 241.728 385.418 209.448 258.319 119.751 272.121
1572.476 953.089 939.982 711.280 790.367 698.415 762.265 809.602 808.489 860.129 907.086 845.534 951.188 858.230 682.834 938.596 867.301 828.911 663.510 733.904 978.501 821.011 875.233 973.608 973.554 1004.017 1011.948 821.468 1362.871 711.601 782.073 613.694 533.113 822.816 832.510 871.526 980.112 870.020 920.091 1403.172 945.315 1053.418 832.496 578.682 223.333 1162.526 815.648 0.000 779.128 934.684 831.206 782.029 1069.072 662.511 844.783 1085.984 1387.462 538.318 802.086 1268.690 806.771 756.081 821.495 822.520 1006.116 809.191 926.759 738.239 670.246 938.900 859.736 922.566 947.416 969.214 772.595 734.647 745.393 844.870 641.867 1043.909 818.398 801.462 962.692 807.205 1006.477 741.161 802.033 746.280 847.197 797.739 624.909 899.715 760.429 737.472 982.455 913.530 767.388 886.547 894.178 814.732 818.216 859.803 780.225 961.625 821.475 932.924 886.503 736.522
1012.641 297.491 322.544 177.016 286.090 198.962 157.668 163.024 135.664 151.695 332.682 126.976 333.750 139.673 892.695 230.162 436.806 509.766 265.827 220.136 335.000 316.733 210.608 585.391 585.337 360.517 561.229 102.911 708.086 182.114 63.201 922.779 754.473 413.958 375.936 946.740 324.514 614.233 589.540 790.824 496.243 345.266 295.412 778.040 902.977 602.691 368.903 849.710 0.000 270.060 575.419 63.472 404.448 890.875 388.209 386.474 778.048 830.733 66.125 836.735 350.196 325.587 364.921 152.874 287.559 263.715 262.135 185.813 200.908 274.275 568.203 257.942 282.792 250.656 312.967 193.317 178.971 295.501 930.307 344.400 77.860 277.326 319.191 88.648 350.878 149.295 189.492 348.597 426.464 293.713 776.799 482.862 333.179 173.225 270.702 466.785 369.705 420.617 229.554 358.158 325.851 393.873 175.629 297.001 228.181 277.325 275.360 208.684
1248.915 308.897 366.037 350.679 330.238 328.432 268.332 235.607 250.930 186.567 376.175 148.341 377.243 144.303 936.187 249.446 662.598 553.258 371.929 291.006 332.261 360.882 195.455 821.665 821.612 313.084 604.722 214.963 944.361 338.686 241.918 1112.915 797.966 457.451 419.428 990.233 312.126 657.726 633.032 1027.098 539.736 195.737 339.560 821.533 1059.549 838.965 412.396 1006.282 252.522 0.000 618.911 209.362 328.772 934.368 431.701 583.451 1014.322 874.226 302.655 880.228 393.689 551.379 408.414 195.410 198.980 307.863 20.034 384.108 357.480 34.496 611.695 182.266 40.691 223.192 356.460 288.165 335.543 339.649 973.800 541.377 320.378 321.474 362.425 193.578 292.803 347.590 233.640 398.483 642.494 337.206 820.291 526.355 376.672 288.491 343.383 510.278 419.591 464.110 238.054 401.650 369.343 437.365 251.003 221.325 271.673 272.532 318.853 281.396
1523.764 445.378 407.697 597.584 486.349 526.833 466.732 441.070 497.675 549.316 367.859 575.732 397.447 571.693 589.312 627.783 768.064 183.262 460.221 489.406 387.636 516.993 506.700 1094.265 1094.212 390.167 335.352 574.956 1244.301 595.927 546.594 1147.851 407.470 339.177 351.280 599.630 452.090 118.735 192.534 1327.038 282.303 684.886 537.961 431.036 861.527 1113.814 235.462 805.669 552.206 566.152 0.000 555.108 660.191 553.343 311.007 922.689 1314.262 483.730 602.339 539.146 291.617 656.844 329.162 467.591 636.546 431.038 558.227 616.176 548.183 570.367 93.924 529.577 578.884 668.429 373.709 486.566 592.784 483.587 592.776 880.615 620.062 405.695 371.827 580.284 432.767 619.098 432.041 400.090 747.959 391.454 429.795 406.194 377.284 502.266 748.360 333.344 432.214 306.362 525.646 319.081 338.029 279.618 449.404 569.611 417.124 457.472 327.426 479.796
1039.809 266.845 291.899 163.462 255.444 168.316 127.023 132.379 105.019 121.049 302.037 103.088 303.105 115.784 862.049 199.517 460.425 479.120 235.181 189.490 304.354 286.088 179.963 612.559 612.505 329.871 530.584 68.362 735.254 151.469 32.555 925.698 723.828 383.312 345.290 916.095 293.868 583.588 558.894 817.992 465.597 321.378 264.767 747.394 872.332 629.859 338.258 819.064 43.160 239.415 544.773 0.000 373.803 860.230 357.563 413.642 805.216 800.088 93.293 806.090 319.551 349.205 334.276 122.228 263.670 233.069 231.489 174.745 170.263 243.630 537.557 227.297 252.146 226.768 282.321 162.671 148.325 264.855 899.662 371.568 111.016 246.680 288.546 64.759 320.233 138.227 158.846 317.952 453.632 263.068 746.153 452.217 302.534 142.580 297.870 436.140 339.060 389.972 198.908 327.512 295.205 363.227 144.983 266.355 197.535 246.680 244.714 178.039
1379.816 338.525 448.386 481.580 412.588 410.782 350.681 317.957 366.797 317.468 458.525 279.242 459.593 275.204 1018.537 380.347 784.848 578.263 454.279 373.355 340.036 443.231 277.805 952.566 952.513 320.859 629.331 345.864 1075.261 469.587 372.819 1235.165 880.316 539.800 501.778 1072.583 319.902 682.731 658.037 1157.999 564.344 387.589 421.910 903.882 1165.342 969.866 494.745 1112.074 383.423 281.235 643.917 340.263 0.000 1016.717 514.051 714.352 1145.223 956.576 433.556 904.837 476.039 673.628 490.763 277.759 329.881 390.212 273.310 515.009 462.295 285.451 636.700 222.912 293.967 361.764 438.809 370.515 466.444 421.998 1056.150 672.278 451.279 403.823 370.369 324.479 300.579 478.490 315.990 480.833 764.743 419.556 902.641 608.705 459.022 384.437 474.284 592.627 501.941 546.459 320.403 484.000 451.693 519.715 333.353 262.945 354.023 280.307 401.202 363.745
1844.876 767.848 703.717 893.605 782.370 822.853 762.753 737.090 793.695 845.336 663.880 894.976 693.467 890.937 67.694 923.803 1124.388 573.733 756.242 785.427 710.106 813.013 802.721 1370.289 1370.235 735.623 756.769 870.976 1540.321 891.947 842.614 1010.375 502.732 662.682 647.300 233.088 792.164 614.842 664.912 1623.058 690.136 980.906 833.981 469.534 724.051 1434.925 531.482 668.193 848.226 862.172 576.027 851.128 996.561 0.000 607.027 1218.709 1610.283 435.413 898.359 1013.511 587.638 1013.168 625.182 763.611 945.615 727.058 854.247 912.196 844.203 866.388 604.557 850.054 874.904 975.383 669.730 782.586 888.804 779.607 68.081 1176.635 916.082 701.715 694.297 876.304 780.441 915.118 728.061 696.111 1104.284 687.475 417.614 714.365 673.305 798.287 1090.017 629.365 728.234 602.382 821.666 615.101 634.049 575.638 745.424 889.113 713.144 762.014 623.447 775.816
1344.348 272.224 208.093 336.380 225.145 279.134 260.713 241.467 298.072 349.712 168.256 399.352 197.844 395.314 604.520 428.179 588.648 291.707 199.017 252.605 214.482 255.789 307.097 914.850 914.796 239.999 440.712 375.352 1040.527 336.701 346.990 1038.966 466.298 121.318 72.350 658.565 296.541 329.949 382.886 1123.265 375.725 485.282 297.649 489.865 916.296 934.398 103.633 863.028 352.603 366.549 291.135 355.504 500.937 602.700 0.000 718.915 1110.489 542.558 402.736 716.218 30.413 477.429 50.233 267.988 449.991 169.834 358.623 354.972 286.979 370.764 309.177 354.431 379.280 479.759 112.505 249.765 370.493 222.382 642.132 676.841 420.459 144.490 198.673 380.680 284.817 357.894 226.818 138.886 568.544 136.437 488.624 173.000 116.080 289.866 594.394 151.011 171.010 155.347 326.042 57.876 94.364 128.603 249.800 393.489 209.273 266.391 127.823 242.995
902.778 636.616 661.669 441.221 625.215 530.634 496.793 502.149 474.789 490.820 671.807 466.101 672.875 478.798 1231.820 569.287 485.516 848.891 532.802 559.261 674.125 655.858 549.733 473.280 473.226 699.642 900.354 442.036 539.333 466.833 402.326 927.230 1093.598 736.721 701.802 1285.865 663.639 953.358 928.665 622.070 835.368 684.391 634.537 1117.165 1084.651 492.828 708.028 1116.684 376.957 609.185 914.544 402.597 743.573 1230.000 714.075 0.000 609.295 1169.858 343.898 1175.860 676.062 467.728 690.787 491.999 626.684 602.840 601.260 453.196 503.781 613.400 907.328 597.067 621.917 589.781 641.887 532.442 500.625 634.626 1269.432 43.550 388.677 616.451 658.316 427.773 676.077 456.118 528.617 615.572 454.740 632.838 1115.924 805.626 629.721 512.350 433.925 805.910 636.680 759.742 568.679 684.024 664.976 732.998 514.754 636.126 567.306 616.450 614.485 547.809
385.642 1026.523 1051.577 831.129 1015.123 905.698 886.701 892.057 864.697 880.727 1061.715 856.009 1062.783 868.706 1621.727 959.195 654.994 1238.799 922.709 940.434 1064.033 1045.766 939.641 642.757 642.704 1073.211 1290.262 831.943 325.652 856.740 792.233 1096.708 1483.506 1097.526 1091.710 1675.773 1053.547 1320.600 1318.572 24.301 1225.276 1058.447 1024.445 1507.073 1254.129 392.526 1097.936 1406.154 766.865 999.093 1281.786 792.504 1119.040 1619.908 1103.982 646.315 0.000 1559.766 733.805 1565.768 1065.970 744.541 1080.695 881.906 1000.740 992.747 991.167 843.104 878.845 1003.308 1297.235 972.534 1011.824 979.689 1031.795 922.349 890.533 1024.533 1659.340 645.831 778.585 1006.358 1048.224 817.681 1048.617 834.951 918.525 1005.480 689.660 1022.746 1505.831 1174.424 1019.629 902.258 806.465 1195.818 1026.588 1149.650 958.586 1073.932 1054.884 1122.906 904.662 1011.593 957.213 1006.358 1004.393 928.982
1859.575 812.229 748.098 937.985 826.750 867.233 807.133 781.471 838.076 889.716 708.260 939.356 737.848 935.318 426.182 968.184 1164.155 589.126 800.622 829.807 754.486 857.394 847.101 1260.707 1260.653 780.003 772.163 915.356 1584.701 936.328 886.995 900.793 375.582 707.063 691.680 614.873 836.545 630.235 680.306 1667.439 705.530 1025.286 878.362 329.299 614.468 1449.625 575.863 558.610 892.607 906.553 591.421 895.508 1040.941 405.858 651.407 1263.089 1654.663 0.000 942.740 1028.905 632.018 1052.935 669.563 807.992 989.995 771.439 898.627 956.577 888.584 910.768 619.951 894.435 919.284 1019.763 714.110 826.966 933.184 823.987 385.214 1221.015 960.463 746.095 738.678 920.684 824.821 959.499 772.441 740.491 1144.051 731.855 375.526 758.746 717.685 842.667 1134.398 673.745 772.614 646.762 866.046 659.481 678.429 620.018 789.804 933.494 757.524 806.395 667.827 820.197
983.136 333.103 358.157 143.738 321.703 233.151 193.281 198.637 171.277 187.308 368.295 162.589 369.363 175.286 928.307 265.775 403.529 545.379 235.319 255.749 370.613 352.346 246.221 555.886 555.832 396.130 596.842 138.523 678.581 169.349 98.814 893.274 790.086 439.238 404.319 982.353 360.127 649.846 625.152 761.319 531.856 380.879 331.025 813.653 872.469 573.186 404.516 819.201 73.445 305.673 611.032 99.085 440.061 926.488 416.591 356.969 748.543 866.346 0.000 872.348 378.579 292.309 393.304 188.486 323.172 299.327 297.747 155.713 206.298 309.888 603.815 293.555 318.404 286.269 344.404 228.930 203.142 331.113 965.920 314.895 85.165 312.938 354.804 124.261 386.491 158.635 225.105 318.089 396.959 329.326 812.411 508.143 332.238 208.838 217.990 502.398 339.197 456.230 265.166 386.541 361.464 429.486 211.242 332.614 263.794 312.938 310.973 244.297
1852.215 719.563 720.155 911.280 823.413 830.193 770.092 744.430 801.035 852.675 720.792 853.154 700.497 849.116 1047.379 931.143 1204.259 614.739 850.478 792.766 661.821 854.056 810.060 1424.965 1424.912 667.589 357.667 878.316 1547.660 899.287 849.954 1605.918 865.537 797.244 778.371 1057.697 729.513 560.828 615.175 1630.398 451.343 971.676 841.321 889.103 1319.594 1442.265 693.529 1263.736 855.566 865.323 568.153 858.467 937.614 1011.411 746.390 1226.049 1617.622 941.797 905.699 0.000 713.756 1093.039 762.832 770.951 913.969 768.917 857.397 958.778 881.705 869.538 580.976 807.000 878.054 945.851 747.328 789.926 896.143 820.650 1050.843 1183.974 923.422 743.574 646.012 883.644 710.190 941.382 735.401 790.347 1184.154 728.075 887.862 864.261 767.541 805.626 1025.783 791.412 822.471 752.354 829.006 741.219 708.383 725.610 752.764 847.033 720.483 731.657 663.470 783.156
1313.935 252.159 188.028 305.967 194.732 248.721 230.300 217.497 274.102 325.742 148.190 375.382 177.778 371.344 587.782 404.209 558.235 274.970 168.604 222.192 194.417 225.376 283.127 884.437 884.383 219.934 420.646 351.382 1010.114 306.288 323.021 1008.552 449.561 127.163 64.615 641.828 276.475 313.212 366.149 1092.852 355.660 461.312 267.236 473.128 885.883 903.985 86.896 832.615 328.633 342.579 274.398 331.534 476.967 585.963 38.012 688.502 1080.076 525.821 378.766 696.152 0.000 447.016 49.077 244.018 426.021 139.421 334.653 324.559 256.566 346.794 292.439 330.461 355.310 455.789 82.092 219.352 340.080 191.969 625.395 646.428 396.489 114.077 178.608 356.710 264.751 327.481 196.405 108.473 538.131 106.024 471.886 178.846 85.667 259.453 568.775 134.274 140.597 138.610 302.072 27.463 66.387 111.866 225.830 369.519 178.860 242.421 107.757 212.582
977.167 544.660 558.640 248.669 405.719 295.783 344.810 392.148 382.162 410.501 525.744 385.469 569.846 398.165 1048.136 488.969 111.220 678.459 317.093 330.519 582.170 436.363 457.778 483.341 483.287 607.687 808.399 361.403 717.037 251.536 322.007 678.103 909.915 493.627 486.093 1102.182 571.684 716.701 769.638 799.774 743.413 603.759 415.041 933.482 826.952 567.217 547.250 817.329 319.063 517.230 677.887 321.964 651.618 1046.317 498.366 440.150 786.999 986.175 302.800 1083.905 460.354 0.000 475.079 405.066 546.051 413.219 509.304 232.438 268.931 521.445 697.069 505.112 529.961 509.149 426.178 317.192 285.609 445.005 1085.749 398.075 319.112 426.830 566.361 347.140 598.048 202.737 384.578 399.863 179.891 451.322 932.240 570.525 414.013 311.144 483.170 594.627 420.971 598.964 476.723 468.315 471.799 572.219 362.771 544.171 404.021 524.495 505.161 319.067
1321.426 270.076 237.538 313.457 202.223 256.211 237.790 224.987 281.592 333.233 185.138 382.872 227.288 378.834 637.292 411.700 565.726 324.480 176.095 229.683 243.927 232.866 290.617 891.927 891.874 269.444 470.156 358.873 1017.605 313.778 330.511 1016.043 499.071 160.300 22.118 691.338 297.100 362.722 415.659 1100.342 405.170 468.803 274.726 522.638 893.373 911.476 136.406 840.106 336.123 350.069 323.907 339.025 484.457 635.473 53.231 695.993 1087.567 575.331 386.256 745.662 49.510 454.506 0.000 251.508 433.512 146.911 342.144 332.049 264.056 354.284 341.949 337.951 362.801 463.279 89.582 226.842 347.570 199.460 674.905 653.919 403.979 121.568 228.118 364.201 314.261 334.971 203.896 89.685 545.621 113.515 521.396 211.983 93.158 266.943 576.266 183.784 148.087 188.120 309.563 47.866 82.125 161.376 233.321 377.010 186.350 249.911 157.267 220.072
1153.266 187.509 212.563 212.331 176.108 137.925 79.466 53.651 89.038 108.034 222.701 167.061 223.769 179.758 782.713 186.501 511.992 399.784 217.799 136.876 225.018 206.752 100.627 726.016 725.963 250.535 451.248 133.674 848.712 200.338 151.005 962.309 644.492 303.976 265.954 836.759 214.532 504.252 479.558 931.449 386.261 278.812 185.431 668.058 903.285 743.316 258.922 850.017 156.617 160.078 465.437 143.228 294.467 780.893 278.227 527.100 918.673 720.752 206.750 726.754 240.215 400.772 254.940 0.000 243.521 153.733 152.153 259.829 189.438 164.294 458.221 147.960 172.810 238.081 202.985 115.114 197.195 185.519 820.326 485.026 224.473 167.344 209.210 153.884 240.897 242.433 79.510 244.354 491.887 183.732 666.817 372.881 223.198 106.677 387.924 356.804 265.461 310.635 119.572 248.176 215.869 283.891 76.484 187.019 118.199 167.344 165.378 127.266
1235.240 296.289 384.484 337.004 348.685 317.718 259.258 254.055 237.255 172.891 394.622 134.665 395.691 130.627 954.635 208.652 648.923 556.812 390.377 309.453 318.585 379.329 213.903 807.990 807.936 299.408 607.879 201.288 930.685 325.011 228.242 1099.240 816.414 475.898 437.876 1008.681 298.450 661.280 636.586 1013.422 542.893 67.676 358.008 839.980 1045.874 825.289 430.843 992.606 238.847 83.835 622.465 195.687 315.097 952.815 450.149 569.776 1000.647 892.674 288.980 883.385 412.137 537.703 426.861 213.857 0.000 326.310 59.133 370.432 343.804 66.139 615.249 168.590 44.618 152.896 374.907 294.907 321.867 358.096 992.248 527.702 306.703 339.921 348.917 179.902 279.127 333.914 252.088 416.931 628.818 355.653 838.739 544.803 395.120 274.816 329.707 528.725 438.039 482.557 256.501 420.098 387.791 455.813 269.451 207.649 290.121 258.856 337.300 299.843
1230.740 237.677 224.570 230.231 61.501 148.970 119.652 122.955 179.560 231.200 191.674 280.840 235.776 276.802 726.424 309.668 523.036 413.611 139.736 111.544 263.088 92.144 188.585 803.490 803.437 288.605 489.318 256.841 926.185 230.552 228.479 973.353 588.203 199.301 164.381 780.470 264.700 451.854 504.791 1008.923 424.331 366.771 156.587 611.770 857.015 820.790 225.538 803.747 234.091 248.037 413.039 236.993 382.425 724.605 176.654 604.574 996.147 664.463 284.224 764.824 138.642 411.817 153.367 149.476 331.480 0.000 240.112 282.293 200.483 252.252 431.081 235.919 260.769 361.247 102.049 108.703 238.250 79.910 764.037 562.499 301.947 65.721 247.280 262.169 291.065 293.593 93.657 90.621 502.932 101.144 610.528 268.205 96.829 148.804 475.882 272.915 111.728 277.252 207.531 146.603 133.281 250.507 131.289 274.978 76.261 217.512 171.090 101.933
1241.884 302.933 363.840 343.648 328.041 324.362 265.903 233.411 243.899 179.536 373.978 141.310 375.046 137.271 933.990 242.414 655.567 551.061 369.732 288.809 325.229 358.685 193.258 814.634 814.580 306.052 602.525 207.932 937.329 331.655 234.886 1105.884 795.769 455.254 417.231 988.036 305.095 655.529 630.835 1020.067 537.539 193.540 337.363 819.336 1052.518 831.934 410.199 999.250 245.491 49.996 616.715 202.331 321.741 932.171 429.504 576.420 1007.291 872.029 295.624 878.031 391.492 544.347 406.217 193.213 191.949 305.666 0.000 377.076 350.449 32.299 609.498 175.235 20.657 220.995 354.263 285.968 328.511 337.452 971.603 534.346 313.347 319.277 355.561 186.546 285.771 340.558 231.443 396.287 635.462 335.009 818.094 524.158 374.475 281.460 336.351 508.081 417.394 461.913 235.857 399.453 367.147 435.169 248.806 214.294 269.476 265.500 316.656 279.199
1110.350 380.885 405.939 122.505 305.705 196.073 231.304 246.419 219.059 235.089 416.077 210.057 417.145 222.753 951.113 313.557 388.280 593.160 220.070 230.505 418.395 336.349 294.003 683.100 683.047 443.911 644.624 185.991 805.796 104.994 146.595 880.796 812.892 423.989 389.070 1005.159 407.909 676.542 672.934 888.533 579.638 428.347 315.027 836.458 857.220 700.400 450.226 803.952 143.650 353.455 637.728 146.552 487.843 949.293 401.343 484.184 875.757 889.152 179.308 920.130 363.330 277.060 378.055 236.268 370.639 313.205 345.529 0.000 191.049 357.670 651.597 341.337 366.186 333.736 329.155 203.686 149.854 344.991 988.726 442.110 138.446 326.816 402.586 171.728 434.273 75.714 272.887 302.840 403.904 354.298 835.217 492.894 316.989 189.684 364.457 497.604 323.948 501.940 312.948 371.292 374.775 475.196 249.264 380.396 304.007 360.720 358.755 219.054
1158.540 329.424 343.403 116.670 190.482 80.547 129.574 176.911 166.925 218.565 310.507 234.893 354.609 247.589 836.166 297.033 402.840 523.353 105.122 115.282 366.933 221.126 242.541 729.042 728.988 392.450 593.163 210.827 860.581 116.991 171.432 853.157 697.945 309.042 274.123 890.212 356.447 561.595 614.532 943.319 528.176 420.727 199.805 721.511 746.232 748.590 335.279 692.964 168.487 301.993 522.781 171.388 436.381 834.346 286.395 538.969 930.543 774.204 218.620 868.668 248.383 291.620 263.108 189.829 385.436 197.982 294.068 168.732 0.000 306.208 540.823 289.875 314.725 348.612 214.208 101.956 130.468 229.768 873.778 496.895 236.343 211.593 351.124 196.564 382.811 173.397 169.342 187.893 382.736 239.351 720.270 377.946 202.042 95.908 421.579 382.657 209.001 386.993 261.487 256.345 259.828 360.249 147.534 328.934 188.784 309.258 289.924 103.831
1233.837 294.886 383.082 335.601 347.283 316.315 257.856 252.652 235.852 171.489 393.220 133.263 394.288 129.224 953.232 234.367 647.520 555.409 388.974 308.050 317.182 377.926 212.500 806.587 806.533 298.005 606.477 199.885 929.282 323.608 226.839 1097.837 815.011 474.495 436.473 1007.278 297.048 659.877 635.183 1012.020 541.490 225.884 356.605 838.577 1044.471 823.887 429.440 991.203 237.444 82.340 621.062 194.284 313.694 951.412 448.746 568.373 999.244 891.271 287.577 881.983 410.734 536.300 425.459 212.454 183.902 324.907 65.053 369.029 342.401 0.000 613.846 167.188 68.337 215.785 373.504 293.504 320.464 356.694 990.845 526.299 305.300 338.519 347.514 178.499 277.724 332.511 250.685 415.528 627.415 354.251 837.336 543.400 393.717 273.413 328.304 527.323 436.636 481.154 255.098 418.695 386.388 454.410 268.048 206.246 288.718 257.453 335.897 298.440
1564.879 435.971 423.721 613.608 502.373 542.857 482.756 457.094 513.699 565.339 383.883 566.325 413.471 562.287 636.368 643.807 815.120 170.915 476.245 505.430 378.229 533.017 522.724 1137.629 1137.575 380.761 256.363 590.979 1260.324 611.951 562.618 1194.907 454.526 382.686 367.304 646.686 442.684 62.110 109.528 1343.062 199.297 684.848 553.985 478.092 908.583 1154.929 251.486 852.725 568.230 578.494 126.976 571.131 650.785 600.399 327.030 938.712 1330.286 530.786 618.363 568.783 307.641 703.900 345.186 483.615 627.140 447.062 570.569 632.200 564.207 582.709 0.000 520.171 591.226 659.023 389.733 502.589 608.807 499.610 639.832 896.638 636.086 421.718 362.421 596.308 423.361 635.122 448.064 416.114 795.015 407.478 476.851 434.369 393.308 518.290 738.954 349.368 448.238 322.386 541.669 335.105 354.053 295.641 465.428 560.204 433.147 448.066 343.450 495.820
1231.226 177.963 299.796 332.990 263.997 262.192 202.091 169.367 218.207 168.878 309.934 130.652 311.002 126.613 869.946 231.756 636.258 449.746 305.689 224.765 211.519 294.641 129.214 803.976 803.922 192.342 500.813 197.274 926.671 320.997 224.228 1086.575 731.725 391.210 353.188 923.992 191.384 554.213 529.520 1009.409 435.827 238.998 273.320 755.292 1016.751 821.276 346.155 963.484 234.833 132.645 515.399 191.673 208.031 868.127 365.460 565.762 996.633 807.985 284.966 776.319 327.448 525.038 342.173 129.169 181.291 241.622 124.720 366.418 313.704 136.860 508.183 0.000 145.376 213.174 290.219 221.924 317.853 273.408 907.559 523.688 302.689 255.233 231.492 175.888 172.061 329.900 167.399 332.243 616.153 270.965 754.050 460.114 310.431 235.846 325.693 444.037 353.350 397.869 171.813 335.410 303.103 371.125 184.762 117.450 205.433 147.222 252.612 215.155
1221.227 282.276 370.472 322.991 334.673 303.705 245.246 240.042 223.242 158.879 380.610 120.653 381.678 116.614 940.622 221.757 634.910 542.799 376.364 295.441 304.572 365.316 199.890 793.977 793.923 285.395 593.867 187.275 916.672 310.998 214.229 1085.227 802.401 461.885 423.863 994.668 284.438 647.267 622.573 999.410 528.880 203.224 343.995 825.967 1031.861 811.277 416.831 978.593 224.834 59.680 608.452 181.674 301.084 938.803 436.136 555.763 986.634 878.661 274.967 869.373 398.124 523.690 412.849 199.844 171.292 312.298 34.977 356.419 329.792 41.983 601.236 154.578 0.000 203.175 360.894 280.894 307.854 344.084 978.235 513.689 292.690 325.909 334.905 165.889 265.114 319.901 238.075 402.918 614.805 341.641 824.726 530.790 381.107 260.803 315.694 514.713 424.026 468.544 242.488 406.085 373.778 441.800 255.438 193.637 276.108 244.843 323.287 285.830
1223.767 292.853 318.355 286.345 281.901 211.939 153.479 158.836 158.735 161.163 328.494 122.937 329.562 118.899 888.506 95.970 586.005 505.577 296.871 215.947 330.811 312.545 203.064 796.518 796.464 318.769 557.041 189.559 919.213 274.352 216.514 1036.322 750.285 409.769 371.747 942.552 317.811 610.045 585.351 1001.950 492.054 273.864 291.223 773.851 977.298 813.817 364.714 924.030 227.118 236.694 571.230 183.958 334.457 886.686 384.020 589.136 989.174 826.545 277.251 832.547 346.008 474.785 360.732 148.685 216.156 259.526 228.768 333.842 263.452 240.909 564.014 187.951 249.425 0.000 308.778 189.128 271.208 291.312 926.119 547.062 294.974 273.137 315.002 168.174 298.488 316.447 185.303 350.146 565.901 289.525 772.610 478.674 328.991 180.691 349.068 462.596 371.254 416.428 222.009 353.969 321.662 389.684 171.440 227.010 223.992 272.687 271.171 204.496
1276.979 215.695 202.588 269.011 132.471 197.357 168.039 170.605 227.211 278.851 169.692 328.491 213.794 324.453 675.024 357.318 521.279 362.211 131.648 159.931 241.106 163.114 236.236 847.480 847.427 266.623 467.336 304.491 973.158 269.331 276.129 971.596 536.803 147.900 112.981 729.070 242.718 400.453 453.391 1055.896 402.349 414.421 204.974 560.369 848.927 867.029 174.137 795.659 281.741 295.687 361.639 284.643 430.076 673.204 125.253 651.546 1043.120 613.063 331.875 742.842 87.241 410.059 101.966 197.127 379.130 77.159 287.762 287.603 219.609 299.903 379.681 283.569 308.419 408.898 0.000 157.090 286.637 129.708 712.637 609.472 349.598 51.816 225.297 309.819 269.083 290.524 142.044 71.996 501.175 62.544 559.128 216.805 49.190 197.191 523.532 221.515 103.640 225.851 255.181 95.203 98.686 199.107 178.939 322.628 124.648 195.529 149.108 150.321
1145.030 232.491 257.544 155.413 117.270 74.153 27.618 80.414 93.850 145.490 231.911 204.518 268.750 217.214 812.670 223.958 448.219 444.766 158.962 78.038 270.000 147.914 145.608 717.780 717.726 295.517 496.229 171.130 840.475 155.734 142.769 898.536 674.449 288.649 250.627 866.716 259.514 538.099 524.540 923.213 431.243 323.794 126.593 698.015 839.512 735.080 303.903 786.244 148.381 205.060 499.285 151.282 339.448 810.850 262.899 518.863 910.437 750.709 198.514 771.735 224.887 336.999 239.612 87.874 288.503 119.386 197.135 207.475 125.665 209.275 503.203 192.942 217.792 275.537 169.324 0.000 163.433 151.172 850.283 476.789 216.237 132.997 254.191 176.459 285.878 218.775 89.392 210.006 428.114 168.404 696.774 357.553 207.870 42.905 403.091 359.161 231.114 355.617 164.554 232.849 200.542 328.873 45.578 232.001 109.795 212.325 210.360 66.709
1096.502 340.167 365.220 35.085 223.392 113.457 161.715 205.701 178.341 194.371 343.417 169.338 376.427 182.035 880.612 272.838 347.320 552.442 149.569 148.192 377.676 254.036 253.285 669.252 669.198 403.193 603.906 145.272 791.947 35.405 105.877 839.837 742.391 353.488 318.569 934.658 367.190 606.041 632.216 874.684 538.919 387.628 232.715 765.957 786.719 686.551 379.725 733.451 102.932 312.736 567.227 105.833 447.124 878.792 330.841 470.335 861.909 818.651 153.065 879.412 292.829 236.100 307.554 195.550 329.921 230.892 304.811 87.147 87.131 316.952 585.269 300.618 325.468 293.018 258.654 134.097 0.000 262.678 918.225 428.261 170.788 244.503 361.867 131.010 393.555 102.426 202.252 232.339 362.945 279.911 764.716 422.393 246.488 120.096 350.608 427.103 253.447 431.439 272.230 300.791 304.274 404.695 179.675 339.677 221.694 320.001 318.036 136.741
1251.753 296.480 309.982 251.244 56.205 169.983 140.664 143.968 200.573 252.213 277.086 301.853 321.188 297.815 857.846 330.680 544.049 508.755 213.480 132.556 333.990 112.915 209.598 824.503 824.449 359.506 560.219 277.853 947.198 251.564 249.492 994.366 719.624 333.825 295.802 911.891 323.504 583.275 588.529 1029.936 495.232 387.783 177.600 743.191 924.543 841.803 350.046 871.275 255.104 269.050 544.461 258.005 403.438 856.026 308.075 625.586 1017.160 795.884 305.237 835.725 270.063 432.829 284.788 170.489 352.492 164.561 261.124 303.306 221.496 273.265 562.502 256.932 281.781 382.260 214.500 129.716 259.263 0.000 895.458 583.512 322.960 178.172 318.181 283.181 349.868 314.606 136.398 255.182 523.944 213.580 741.949 402.729 253.046 169.817 496.895 404.337 276.290 401.760 228.543 278.024 245.718 375.016 152.301 295.990 155.363 276.315 256.503 122.946
1885.504 808.477 744.346 934.233 822.998 863.482 803.381 777.719 834.324 885.964 704.508 935.604 734.096 931.566 128.952 964.432 1165.017 614.361 796.870 826.055 750.735 853.642 843.349 1353.788 1353.734 776.251 797.398 911.604 1580.949 932.576 883.243 993.874 499.315 703.311 687.929 273.717 832.793 655.470 705.541 1663.687 730.765 1021.535 874.610 453.032 707.549 1475.554 572.111 651.692 888.855 902.801 616.656 891.756 1037.189 61.257 647.655 1259.338 1650.911 418.912 938.988 1054.140 628.266 1053.797 665.811 804.240 986.244 767.687 894.875 952.825 884.832 907.016 645.186 890.683 915.532 1016.011 710.358 823.214 929.432 820.235 0.000 1217.263 956.711 742.343 734.926 916.933 821.069 955.747 768.690 736.739 1144.912 728.103 458.242 754.994 713.933 838.915 1130.646 669.993 768.863 643.011 862.294 655.730 674.678 616.266 786.053 929.742 753.772 802.643 664.075 816.445
915.177 595.730 620.784 400.336 584.329 489.748 455.908 461.264 433.904 449.934 630.922 425.216 631.990 437.912 1190.934 528.402 464.489 808.005 491.916 518.376 633.240 614.973 508.848 485.679 485.625 658.756 859.469 401.150 551.732 425.947 361.440 938.324 1052.713 695.836 660.916 1244.980 622.753 912.473 887.779 634.470 794.482 643.506 593.652 1076.280 1091.348 505.227 667.143 1075.799 336.071 568.300 873.658 361.711 702.688 1189.115 673.189 42.074 621.694 1128.973 303.012 1134.975 635.177 444.020 649.902 451.113 585.798 561.954 560.374 412.311 462.896 572.515 866.442 556.182 581.031 548.896 601.001 491.556 459.739 593.740 1228.547 0.000 347.792 575.565 617.431 386.887 635.192 415.232 487.731 574.687 431.032 591.953 1075.038 764.740 588.836 471.465 393.039 765.025 595.794 718.857 527.793 643.138 624.090 692.112 473.868 595.240 526.420 575.565 573.599 506.924
1064.756 349.852 374.906 193.439 338.452 251.324 210.030 215.386 188.026 204.057 385.044 179.338 386.112 192.035 945.057 282.524 453.230 562.128 285.020 272.498 387.362 369.095 262.970 637.506 637.452 412.879 613.591 155.273 760.201 181.295 115.563 945.746 806.835 466.320 428.298 999.102 376.876 666.595 641.902 842.939 548.605 397.628 347.774 830.402 922.170 654.806 421.265 868.902 90.194 322.422 627.781 115.834 456.810 943.237 440.570 438.589 830.163 883.095 118.240 889.097 402.558 342.010 417.283 205.236 339.921 316.076 314.497 167.550 253.270 326.637 620.565 310.304 335.154 303.018 365.329 245.679 226.155 347.863 982.669 396.515 0.000 329.687 371.553 141.010 403.240 131.032 241.854 367.790 468.854 346.075 829.161 535.224 381.939 225.587 322.817 519.147 388.898 472.979 281.916 410.520 378.213 446.235 227.991 349.363 280.543 329.687 327.722 261.046
1227.311 209.865 196.758 226.802 80.655 145.541 116.223 119.526 176.131 227.772 163.862 277.412 207.964 273.373 717.598 306.239 519.608 404.785 165.080 108.115 235.277 111.299 185.157 800.062 800.008 260.794 461.506 253.412 922.757 227.123 225.050 969.925 579.377 193.577 155.555 771.644 236.889 443.028 489.817 1005.494 396.520 363.342 153.158 602.943 882.358 817.361 216.711 829.091 230.662 244.608 404.213 233.564 378.996 715.778 167.828 601.145 992.718 655.637 280.795 737.012 129.815 408.388 144.540 146.047 328.051 25.344 236.683 278.864 197.054 248.824 422.255 232.490 257.340 357.819 74.237 105.274 234.821 77.892 755.211 559.071 298.518 0.000 219.468 258.740 263.253 290.164 90.228 115.964 499.503 73.332 601.702 262.482 112.799 145.375 472.453 264.089 137.072 268.425 204.102 137.777 105.470 241.681 127.860 271.549 72.832 189.700 143.279 98.505
1321.042 108.267 168.894 380.107 288.488 299.020 238.919 213.257 269.862 321.502 179.032 321.552 180.100 317.514 739.044 399.970 673.086 332.001 314.738 261.593 93.280 319.132 267.186 893.792 893.738 118.796 383.465 347.142 1016.487 368.114 318.781 1123.403 600.823 312.579 274.062 793.090 135.290 436.469 411.775 1099.225 318.478 440.074 310.148 624.389 1032.017 911.092 215.252 978.749 324.393 322.621 397.654 327.294 406.012 737.224 261.003 694.875 1086.449 677.083 374.526 658.971 228.368 561.866 263.047 228.077 382.367 233.177 314.696 427.604 350.532 326.836 390.438 267.545 335.353 414.250 211.588 258.752 364.970 285.725 776.657 652.801 392.249 207.833 0.000 352.471 161.655 410.209 204.227 254.607 652.981 192.335 623.148 381.484 231.801 274.453 494.181 313.135 286.730 266.966 286.131 254.564 202.936 240.222 221.590 315.431 189.310 148.888 121.709 251.983
1077.904 282.795 307.848 179.411 271.394 184.266 142.972 148.328 120.968 76.554 317.986 38.328 319.055 51.025 877.999 180.591 491.331 495.070 251.131 205.440 320.304 302.038 195.912 650.654 650.600 301.523 546.534 43.695 773.349 167.419 70.650 941.648 739.778 399.262 361.240 932.045 300.565 599.537 574.844 856.086 481.547 256.618 280.716 763.344 888.282 667.954 354.207 835.014 81.255 219.448 560.723 38.095 317.212 876.179 373.513 451.737 843.311 816.038 131.388 822.039 335.500 380.111 350.225 138.178 198.911 249.019 211.523 212.840 186.212 223.664 553.507 170.705 232.180 162.008 298.271 178.621 164.275 280.805 915.611 409.663 149.111 262.630 304.495 0.000 281.242 176.322 174.796 333.901 471.226 279.017 762.103 468.167 318.484 158.529 298.474 452.089 355.009 405.921 214.858 343.462 311.155 379.177 160.933 209.764 213.485 260.971 260.664 193.989
1313.547 38.509 198.346 409.559 317.940 328.472 268.371 242.709 299.314 273.612 208.484 235.386 209.552 231.347 768.496 350.395 702.538 374.809 344.190 291.045 70.262 348.584 247.853 886.297 886.244 106.565 426.273 302.008 1008.992 397.566 328.962 1152.855 630.275 342.032 303.514 822.542 19.323 479.277 454.583 1091.730 361.286 357.637 339.600 653.842 1061.469 903.597 244.705 1008.201 339.567 251.284 440.462 296.407 323.574 766.677 290.455 648.083 1078.954 706.535 389.700 701.779 257.820 591.318 292.500 234.001 299.929 262.629 243.358 457.057 379.985 255.499 433.246 192.961 264.015 331.812 241.040 288.205 394.422 315.178 806.109 606.009 407.423 237.286 92.038 280.622 0.000 434.634 233.680 284.059 682.433 221.787 652.600 410.936 261.253 303.905 408.015 342.587 316.183 296.419 290.451 284.017 232.388 269.674 251.043 232.994 218.763 93.953 151.162 281.435
1077.526 375.547 400.601 80.294 279.642 169.707 218.734 241.081 213.721 229.752 399.667 204.719 411.807 217.415 902.918 308.219 331.672 587.823 171.874 204.442 413.057 310.286 288.665 650.276 650.223 438.574 639.286 180.653 772.972 93.606 141.258 832.601 764.697 375.794 340.875 956.964 402.571 628.347 667.596 855.709 574.300 423.009 288.965 788.263 809.025 667.576 402.031 755.757 138.313 348.117 589.533 141.214 482.505 901.098 353.147 451.360 842.933 840.957 151.264 914.792 315.135 220.452 329.860 230.931 365.301 287.142 340.191 67.092 142.854 352.332 607.575 335.999 360.848 328.399 280.960 191.116 138.466 318.928 940.530 409.286 133.109 300.753 397.248 166.390 428.935 0.000 258.502 254.645 347.296 306.103 787.022 444.699 268.794 178.296 331.633 449.409 275.753 453.745 307.610 323.097 326.580 427.001 236.694 375.058 277.944 355.382 353.417 192.991
1165.061 209.788 219.017 176.053 96.598 94.792 53.972 57.276 113.881 165.521 186.748 215.161 230.223 211.123 767.507 243.988 468.858 422.063 138.289 57.366 247.298 127.242 122.906 737.811 737.757 272.814 473.527 191.161 860.506 176.374 162.800 919.175 629.286 243.486 205.464 821.553 236.812 492.936 501.837 943.244 408.540 301.091 105.920 652.852 849.352 755.111 259.081 796.084 168.412 182.358 454.122 171.313 316.746 765.687 217.736 538.894 930.468 705.546 218.545 749.033 179.724 357.638 194.449 83.797 265.800 74.223 174.432 228.115 146.305 186.573 472.164 170.240 195.089 295.568 124.161 54.525 184.072 106.009 805.119 496.820 236.268 87.834 231.489 196.489 263.176 239.415 0.000 164.843 448.754 123.241 651.611 312.390 162.707 94.626 410.203 313.998 185.951 310.795 141.851 187.686 155.379 284.051 65.609 209.298 60.223 189.623 165.538 47.755
1248.174 235.284 222.177 240.206 154.044 182.960 190.106 190.195 246.800 298.440 189.281 348.080 233.383 344.042 676.748 376.908 492.474 363.936 102.843 163.908 260.696 184.688 255.825 818.675 818.622 286.213 486.925 324.080 944.353 240.526 295.719 942.791 538.527 149.625 114.705 730.794 262.308 402.178 455.115 1027.091 421.939 434.011 239.934 562.094 820.122 838.224 175.862 766.854 301.331 315.277 363.363 304.232 449.665 674.929 126.978 622.741 1014.315 614.787 322.645 762.431 88.966 381.254 103.691 216.716 398.720 95.910 307.351 258.798 190.804 319.492 381.405 303.159 328.008 428.487 54.790 162.488 274.319 164.668 714.361 580.667 338.956 86.776 244.887 329.409 288.672 261.719 169.103 0.000 472.369 79.934 560.852 218.529 27.051 202.589 503.014 223.240 74.051 227.576 274.770 96.927 100.411 200.832 198.529 342.218 151.558 215.119 168.698 155.719
945.200 629.645 643.624 336.481 490.704 380.768 429.795 477.132 467.146 495.767 610.729 470.734 654.831 483.431 1133.121 574.235 121.443 757.428 402.078 415.504 667.154 521.347 542.763 447.774 447.720 692.671 893.384 446.669 685.069 336.802 407.273 768.482 994.900 572.596 571.078 1187.167 656.668 795.670 848.607 767.807 828.397 689.024 500.026 1018.466 923.422 535.250 632.234 896.298 404.328 602.215 756.856 407.230 736.603 1131.301 583.351 408.182 755.031 1071.160 397.638 1168.890 545.338 190.729 560.063 490.051 631.317 498.204 594.289 339.722 353.915 606.430 776.038 590.096 614.946 594.414 511.163 402.177 370.594 529.990 1170.734 366.108 426.396 511.815 651.346 432.406 683.033 310.021 469.563 484.848 0.000 536.306 1017.225 649.494 498.997 396.129 461.183 679.612 505.956 683.948 561.708 553.300 556.783 657.204 447.756 629.155 489.005 609.480 590.145 404.052
1293.999 231.303 218.195 304.732 163.449 228.336 199.017 186.213 242.819 294.459 172.027 344.099 229.402 340.060 666.817 372.926 557.001 354.005 167.369 190.909 256.714 194.093 251.844 866.749 866.695 282.231 482.944 320.099 989.444 305.053 291.737 1007.318 528.596 165.211 104.774 720.863 258.326 392.247 445.184 1072.181 417.957 430.029 235.952 552.163 884.648 884.048 165.931 831.380 297.349 311.295 353.432 300.251 445.684 664.998 117.047 667.832 1059.406 604.856 347.482 758.450 79.035 445.781 93.760 212.735 394.738 108.138 303.370 323.324 255.331 315.511 371.474 299.177 324.027 424.506 69.540 188.068 317.615 160.686 704.430 625.758 365.206 82.794 240.905 325.427 284.691 326.246 165.122 107.238 536.896 0.000 550.921 234.115 84.432 228.169 539.140 213.309 139.362 217.645 270.789 86.996 90.480 190.901 194.547 338.236 147.577 211.137 164.716 181.299
1771.047 694.019 629.888 819.775 708.541 749.024 688.924 663.261 719.866 771.507 590.051 821.147 619.638 817.108 457.345 849.974 1045.946 470.917 682.413 711.597 636.277 739.184 728.892 1322.869 1322.815 661.794 653.954 797.147 1466.492 818.118 768.785 962.955 236.732 588.853 573.471 559.146 718.335 512.026 562.096 1549.229 587.320 907.077 760.152 192.734 676.630 1361.096 457.653 620.773 774.397 788.343 473.211 777.299 922.732 455.526 533.198 1144.880 1536.454 295.905 824.530 910.695 513.809 934.726 551.353 689.782 871.786 653.229 780.418 838.367 770.374 792.559 501.742 776.225 801.075 901.554 595.901 708.757 814.975 705.778 451.598 1102.806 842.253 627.886 620.468 802.475 706.612 841.289 654.232 622.282 1025.841 613.646 0.000 640.536 599.476 724.458 1016.188 555.536 654.405 528.553 747.837 541.272 560.220 501.809 671.595 815.284 639.315 688.185 549.618 701.987
1408.982 399.230 365.223 442.611 331.376 385.365 366.944 354.141 410.746 462.386 325.385 512.026 354.973 507.988 731.588 540.854 653.282 387.259 305.248 358.836 371.611 362.020 419.771 979.484 979.430 397.128 570.296 488.026 1146.758 442.932 459.665 1118.718 593.367 78.063 251.771 785.634 426.254 425.501 478.438 1229.496 503.662 597.956 403.880 616.934 956.610 999.032 242.503 903.342 465.277 479.223 386.687 468.178 613.611 729.769 214.959 825.147 1216.720 669.627 515.410 824.171 195.569 542.063 229.654 380.662 562.665 276.065 471.297 461.203 393.210 483.438 405.869 467.105 491.954 592.433 218.736 355.996 476.724 328.613 769.201 783.073 533.133 250.721 355.803 493.354 441.946 464.125 333.049 245.117 633.178 242.668 615.692 0.000 222.311 396.097 705.420 239.657 277.241 294.217 438.716 223.033 251.493 267.473 362.474 506.164 315.504 379.065 284.952 349.226
1310.419 276.534 263.427 302.450 208.680 245.204 244.248 231.445 288.050 339.690 212.608 389.330 267.098 385.292 685.932 418.158 554.719 373.119 165.087 226.153 283.737 239.324 297.075 880.920 880.866 309.254 509.966 365.330 1006.598 302.771 336.969 1005.036 547.711 180.394 123.889 739.978 303.558 411.361 464.299 1089.335 444.980 475.261 281.184 571.277 882.366 900.469 185.045 829.098 342.581 356.527 372.547 345.482 490.915 684.112 136.161 684.986 1076.559 623.971 384.890 785.472 98.149 443.499 112.874 257.966 439.970 149.401 348.601 321.042 253.049 360.742 390.589 344.409 369.258 469.737 96.040 224.733 336.563 205.917 723.545 642.912 401.201 128.026 267.928 370.659 329.922 323.964 210.353 62.245 534.614 119.972 570.036 249.298 0.000 264.834 565.259 232.423 136.296 236.759 316.020 106.111 109.594 210.015 239.779 383.468 192.808 256.369 197.077 217.963
1122.197 241.762 266.815 147.862 139.142 66.601 49.489 102.285 71.017 122.657 253.782 181.685 278.021 194.381 834.541 201.125 440.667 454.037 151.533 70.609 279.271 169.785 154.879 694.947 694.894 304.788 505.500 148.297 817.642 148.182 119.936 890.984 696.320 310.520 272.498 888.587 268.785 558.504 533.811 900.380 440.514 333.065 148.464 719.886 831.960 712.247 313.174 778.692 125.548 214.331 519.690 128.449 348.719 832.722 284.771 496.030 887.604 772.580 175.681 781.006 246.759 329.447 261.483 97.145 297.774 141.257 206.406 199.924 118.114 218.546 512.474 202.213 227.063 252.704 191.195 43.790 155.881 173.043 872.154 453.956 193.404 154.868 263.462 153.626 295.149 206.274 111.263 206.078 420.563 190.276 718.645 379.425 220.228 0.000 380.258 381.032 227.186 364.888 173.825 254.720 222.413 338.144 67.450 241.272 131.666 221.596 219.631 59.158
1285.791 589.776 691.159 527.256 655.360 611.233 552.773 558.129 530.769 466.406 701.297 428.180 702.365 424.142 1261.309 553.708 727.193 833.345 618.836 615.241 595.118 686.003 520.577 858.541 858.488 575.941 884.413 494.802 981.237 552.867 489.127 1189.900 1123.088 782.572 744.550 1315.355 570.671 937.813 913.119 1063.974 819.426 561.177 664.682 1146.654 1255.987 875.841 737.517 1202.719 463.758 524.007 898.998 489.201 621.771 1259.489 756.823 620.327 1051.198 1199.348 430.558 1159.919 718.811 675.827 733.535 520.531 503.470 632.984 516.082 539.231 589.816 528.223 891.782 475.265 536.739 535.125 681.581 588.421 586.659 664.770 1298.922 578.253 475.479 646.595 625.451 473.417 551.348 542.152 558.762 701.607 693.736 662.328 1145.413 851.477 701.794 568.330 0.000 835.400 722.714 789.231 563.175 726.772 694.465 762.487 570.734 514.323 596.795 531.076 643.974 603.789
1475.380 398.353 334.222 470.535 359.301 413.289 393.257 367.595 424.200 475.840 294.384 525.480 323.972 521.442 664.899 554.308 722.804 352.086 333.172 386.761 340.610 389.944 433.225 1048.130 1048.076 366.127 535.123 501.480 1170.825 470.856 473.119 1173.121 526.678 228.083 224.231 718.945 422.669 390.328 443.266 1253.563 468.490 611.410 431.804 550.244 980.735 1065.430 198.718 924.877 478.731 492.677 351.514 481.632 627.065 663.079 183.958 849.213 1240.787 602.938 528.864 788.998 164.568 611.584 202.113 394.116 576.119 303.989 484.751 489.127 421.134 496.892 369.556 480.559 505.408 605.887 246.660 383.920 504.648 356.538 702.512 807.139 546.587 278.646 324.802 506.808 410.945 492.049 358.565 273.042 702.699 270.593 549.003 279.765 250.235 424.021 720.522 0.000 305.165 256.106 452.170 192.032 220.492 229.362 375.928 519.618 343.428 392.519 253.951 377.150
1258.106 283.122 270.014 250.138 163.976 192.892 200.038 238.032 266.270 317.911 237.118 376.938 281.220 389.635 724.586 396.378 502.406 411.773 112.775 173.841 308.533 194.620 303.662 828.608 828.554 334.050 534.762 343.551 954.285 250.459 315.189 952.723 586.364 197.462 162.542 778.631 310.145 450.015 502.952 1037.023 469.776 481.848 261.625 609.931 830.054 848.156 223.699 776.786 317.985 363.114 411.201 320.887 497.502 722.766 174.815 632.673 1024.247 662.624 332.577 810.268 136.803 391.187 151.528 260.294 446.557 139.224 355.189 268.730 200.737 367.329 429.243 350.996 375.846 447.958 102.628 172.420 284.251 197.453 762.198 590.599 348.889 131.495 292.724 346.063 336.509 271.652 216.941 76.313 482.302 127.771 608.690 266.366 90.462 212.521 512.946 271.077 0.000 275.413 322.608 144.764 148.248 248.669 217.999 390.055 199.395 262.956 216.535 165.651
1415.101 338.074 273.943 465.588 353.854 393.079 332.978 307.316 363.921 415.561 234.105 465.201 263.693 461.163 627.257 494.029 717.856 225.781 328.225 355.652 280.332 384.498 372.946 987.851 987.798 305.849 389.751 441.202 1110.546 462.173 412.840 1168.173 489.036 243.516 219.283 681.303 362.390 339.200 347.365 1193.284 323.118 551.132 404.207 512.603 943.093 1005.151 103.466 887.235 418.452 432.398 313.872 421.353 566.786 625.438 179.010 788.935 1180.508 565.296 468.585 724.914 159.621 606.637 197.166 333.837 515.841 298.543 424.472 484.180 416.187 436.613 288.009 420.280 445.129 545.608 241.713 352.812 459.029 351.091 664.870 746.860 486.308 273.199 264.523 446.530 350.666 487.102 298.287 268.094 697.752 257.700 511.361 295.199 245.288 368.512 660.243 201.348 300.217 0.000 391.891 187.084 204.275 113.332 315.650 459.339 283.369 332.240 193.672 346.042
1278.402 200.358 287.469 337.466 259.964 258.158 198.058 165.333 214.173 233.169 297.607 220.300 298.675 216.262 857.619 311.637 632.224 474.690 301.655 220.731 270.094 290.607 131.653 851.152 851.098 300.661 526.154 258.809 973.847 325.473 276.141 1082.541 719.398 378.882 340.860 911.665 227.382 579.158 554.464 1056.585 461.167 306.230 269.286 742.964 1012.718 868.452 333.827 959.450 281.753 187.496 540.343 268.363 321.885 855.799 353.133 652.235 1043.809 795.658 331.886 801.660 315.121 521.004 329.845 125.135 270.939 237.588 179.571 384.964 309.671 191.712 533.127 175.378 200.228 302.822 277.891 217.891 322.330 269.375 895.232 610.161 349.609 251.199 253.886 265.537 253.746 367.569 163.366 320.910 612.120 258.638 741.723 447.787 298.104 231.813 415.341 431.710 349.317 385.541 0.000 323.082 290.775 358.797 180.729 214.437 195.415 180.193 240.284 211.121
1346.729 284.953 220.822 338.761 227.526 281.515 263.094 250.290 306.895 358.536 180.984 408.176 210.572 404.137 620.576 437.003 591.029 307.764 201.398 254.986 227.211 258.170 315.921 917.231 917.177 252.727 453.440 384.176 1042.908 339.082 355.814 1041.346 482.355 151.115 54.783 674.622 309.269 346.006 398.943 1125.646 388.453 494.106 300.029 505.922 918.677 936.779 119.690 865.409 361.426 375.372 307.191 364.328 509.761 618.757 44.047 721.296 1112.870 558.615 411.559 728.946 32.794 479.809 32.665 276.811 458.815 172.215 367.447 357.353 289.359 379.588 325.233 363.254 388.104 488.583 114.886 252.145 372.874 224.763 658.189 679.222 429.282 146.871 211.402 389.504 297.545 360.274 229.199 122.350 570.925 138.818 504.680 202.798 118.461 292.246 601.569 167.068 173.390 171.404 334.866 0.000 99.181 144.659 258.624 402.313 211.653 275.214 140.551 245.376
1280.129 217.433 185.325 295.727 149.579 214.466 185.147 172.344 228.949 280.589 103.014 330.229 175.351 326.191 658.579 359.057 565.460 345.766 175.829 177.039 191.990 180.223 237.974 852.879 852.825 217.507 418.219 306.229 975.574 296.047 277.868 1015.777 520.358 173.670 119.833 712.625 244.457 384.009 436.946 1058.312 353.233 416.159 222.083 543.924 893.108 870.179 153.134 839.840 283.480 297.426 345.194 286.381 431.814 656.759 125.082 653.962 1045.536 596.618 333.613 693.725 92.375 454.240 108.819 198.865 380.868 94.268 289.500 331.784 263.790 301.641 363.236 285.308 310.157 410.636 72.679 174.199 303.746 146.816 696.192 611.888 351.336 68.924 176.181 311.557 262.325 334.705 151.252 115.698 545.356 53.426 542.683 242.575 92.892 214.300 525.271 205.070 147.821 204.848 256.919 100.336 0.000 178.103 180.677 324.367 133.707 197.268 105.330 167.429
1390.758 313.730 249.599 441.244 329.510 368.735 308.635 282.972 339.578 391.218 209.762 440.858 239.350 436.820 602.914 469.685 693.513 252.526 303.882 331.309 255.988 360.154 348.603 963.508 963.454 281.505 416.496 416.858 1086.203 437.829 388.496 1143.830 464.693 219.172 194.940 656.960 338.047 328.343 374.110 1168.940 349.863 526.788 379.863 488.259 918.750 980.808 79.122 862.892 394.109 408.054 289.529 397.010 542.443 601.094 154.667 764.591 1156.165 540.953 444.242 727.013 135.277 582.293 172.822 309.494 491.497 274.199 400.129 459.836 391.843 412.270 307.571 395.936 420.786 521.265 217.369 328.468 434.686 326.747 640.527 722.517 461.965 248.856 240.179 422.186 326.323 462.758 273.943 243.751 673.408 233.357 487.018 270.855 220.945 344.169 635.900 177.004 275.874 26.744 367.548 162.741 179.931 0.000 291.306 434.995 259.026 307.897 169.329 321.698
1140.411 186.912 211.966 199.476 175.511 125.071 66.611 52.446 76.183 109.182 222.104 168.209 223.172 180.906 782.116 187.649 499.137 399.187 210.002 129.079 224.422 206.155 100.030 713.162 713.108 249.938 450.651 134.822 835.857 187.483 138.150 949.454 643.895 303.380 265.357 836.162 213.935 503.655 478.961 918.594 385.664 278.215 184.834 667.462 890.430 730.461 258.325 837.162 143.762 159.482 464.840 144.376 293.870 780.297 277.630 514.245 905.818 720.155 193.895 726.157 239.618 387.917 254.343 42.295 242.924 153.136 151.556 246.974 176.583 163.697 457.624 147.364 172.213 239.228 202.388 102.259 184.340 184.922 819.729 472.171 211.618 166.747 208.613 155.032 240.300 229.578 78.913 243.757 479.032 183.135 666.220 372.284 222.601 93.822 387.327 356.207 264.864 310.039 118.975 247.579 215.272 283.294 0.000 186.422 117.602 166.747 164.781 117.627
1266.096 246.470 334.666 367.860 298.867 297.061 236.961 204.237 253.077 203.748 344.804 165.522 345.872 161.483 904.816 266.626 671.128 498.388 340.558 259.635 260.161 329.511 164.084 838.846 838.792 240.984 549.455 232.144 961.541 355.867 259.098 1121.445 766.595 426.080 388.057 958.862 240.026 602.855 578.162 1044.279 484.469 273.868 308.190 790.162 1051.621 856.146 381.025 998.354 269.703 167.515 564.041 226.543 256.672 902.997 400.330 600.632 1031.503 842.855 319.836 824.961 362.318 559.908 377.043 164.039 216.161 276.492 159.589 401.288 348.574 171.730 556.825 118.772 180.246 248.044 325.089 256.794 352.723 308.278 942.429 558.558 337.559 290.103 290.493 210.758 220.703 364.770 202.269 367.113 651.023 305.835 788.920 494.984 345.301 270.716 360.563 478.907 388.220 432.739 206.683 370.279 337.973 405.995 219.632 0.000 240.302 200.432 287.482 250.025
1192.100 171.003 162.083 224.735 124.105 143.474 83.374 84.315 140.920 192.561 156.542 242.200 173.289 238.162 725.938 271.028 517.540 375.367 186.971 106.048 200.602 154.749 149.945 764.850 764.797 226.118 426.831 218.201 887.545 225.056 189.839 967.857 587.717 227.206 189.183 779.984 198.026 451.368 455.141 970.283 361.845 328.131 154.602 611.284 898.034 782.150 202.147 844.766 195.451 209.397 412.553 198.353 343.785 724.119 201.456 565.934 957.507 663.977 245.584 702.337 163.444 406.320 178.169 110.836 292.840 71.333 201.472 276.797 194.987 213.612 430.595 197.279 222.129 322.607 121.271 103.207 232.754 121.342 763.551 523.860 263.307 84.944 184.793 223.529 224.390 281.267 48.682 161.954 497.436 106.961 610.042 296.110 146.427 129.535 437.242 297.718 183.061 253.861 168.891 171.405 139.098 227.116 92.649 236.338 0.000 150.837 108.604 96.437
1279.491 58.700 202.355 338.556 250.689 257.469 197.368 171.706 228.311 250.487 212.493 212.261 213.561 208.222 772.505 327.270 631.535 389.576 295.927 220.042 128.435 281.332 181.975 852.241 852.188 159.002 441.040 276.540 974.937 326.563 277.230 1081.852 634.284 293.769 255.746 826.551 78.839 494.044 469.350 1057.674 376.053 334.512 268.597 657.851 1012.029 869.541 248.714 958.761 282.842 228.159 455.229 273.282 300.449 770.686 268.019 624.958 1044.898 710.544 332.975 716.546 230.007 520.315 244.732 142.866 276.804 197.917 220.233 386.054 308.982 232.374 448.013 169.836 240.890 308.687 192.777 217.202 323.420 247.926 810.118 582.884 350.698 189.023 112.228 257.497 105.204 368.658 162.677 235.796 611.430 173.524 656.609 362.673 212.990 232.902 384.890 346.596 267.920 300.428 200.920 237.968 205.661 273.683 180.040 209.869 147.760 0.000 155.170 210.432
1254.225 183.770 113.067 313.290 215.691 232.203 172.102 146.440 203.045 254.685 73.229 304.325 111.153 300.287 617.335 333.153 606.269 302.558 241.940 194.776 127.792 246.334 212.070 826.975 826.921 153.309 354.021 280.325 949.670 301.297 251.964 1056.586 479.113 212.171 152.353 671.381 209.850 342.764 382.332 1032.408 289.035 390.256 243.331 502.680 933.171 844.275 93.543 877.313 257.576 271.522 303.950 260.477 405.910 615.515 139.293 628.058 1019.632 555.373 307.709 629.527 106.659 495.049 141.338 172.961 354.964 160.379 263.596 360.788 283.715 275.737 321.992 259.404 284.253 384.732 138.791 191.935 298.153 212.928 654.947 585.984 325.432 135.036 111.983 285.654 198.127 343.392 137.410 181.809 586.164 119.537 501.439 263.854 159.003 207.636 499.367 191.425 213.933 145.257 231.015 132.855 81.227 118.513 154.773 298.463 122.493 171.364 0.000 185.166
1175.667 238.555 253.100 179.634 100.179 98.374 58.255 86.026 124.487 176.127 220.204 235.154 264.306 239.889 800.963 254.595 472.440 450.830 141.870 60.947 276.064 130.823 151.673 748.417 748.363 301.581 502.294 201.767 871.112 179.955 173.406 922.757 662.742 276.943 238.920 855.009 265.578 526.393 530.604 953.850 437.307 329.858 109.502 686.309 852.933 765.717 293.164 799.666 179.018 211.124 487.578 181.919 345.512 799.144 251.193 549.500 941.074 739.002 229.151 777.800 213.181 361.220 227.906 112.563 294.567 107.679 203.199 231.696 149.886 215.340 505.620 199.006 223.856 306.174 157.618 30.637 187.653 139.465 838.576 507.426 246.874 121.290 260.255 207.095 291.943 242.996 78.473 192.974 452.335 156.698 685.067 345.847 196.164 73.541 433.728 347.455 214.082 344.878 170.618 221.142 188.835 318.134 76.215 238.065 98.481 218.389 199.621 0.000
NODE_COORD_SECTION
1 -17431.804053 -14366.409233
2 4558.547983 727.099002
3 4057.040161 1899.190864
4 -562.600788 -892.345597
5 1603.805156 852.786095
6 641.271571 300.383169
7 1698.654285 -192.314909
8 2151.179545 -115.906586
9 1594.841579 -975.765627
10 1760.493192 -1390.274680
11 3679.684647 1876.532682
12 2285.246031 -1916.547288
13 4042.419735 1713.409570
14 2353.900881 -1936.671816
15 3450.168513 14512.782395
16 2500.535089 -1018.246156
17 -5499.868196 -3225.230744
18 5584.042606 5170.908904
19 -215.507610 1152.211790
20 1062.429310 286.239009
21 5036.322567 998.128150
22 1471.001967 850.092439
23 2834.737819 -728.919381
24 -9321.881037 -4961.836505
25 -9373.035469 -5203.383062
26 5720.338156 893.204981
27 9088.050129 6576.101347
28 1433.013058 -1823.330093
29 -9404.972367 -13396.048855
30 -39.882894 -1115.978194
31 927.310292 -1766.537991
32 -14185.371463 6141.941701
33 168.238521 10059.972517
34 1627.444012 4134.138285
35 2498.407237 2774.164461
36 6080.407197 16222.500405
37 4746.720804 538.437254
38 5830.866271 6638.983425
39 6432.479832 6338.768656
40 -13414.245482 -13507.670951
41 7181.922800 5276.815904
42 2894.899953 -1394.341735
43 1486.948740 770.475601
44 339.933342 10798.304297
45 -9141.836464 10558.554377
46 -10063.411936 -8483.769257
47 3372.967037 4105.920180
48 -7746.302350 12849.874660
49 420.315294 -2226.333847
50 3042.433113 -1213.173680
51 5432.854251 6787.086847
52 1088.930614 -1932.329849
53 4076.485472 -2839.678556
54 3897.515542 15207.313911
55 2851.676050 3496.475846
56 -3516.148836 -7862.573799
57 -13371.253229 -13357.365130
58 -322.894513 12917.137298
59 -176.207399 -3042.287086
60 14654.767972 9992.610337
61 3066.038407 3213.421739
62 -4592.077877 -1999.504113
63 2662.390614 2939.205466
64 2421.786290 -528.903172
65 2967.382609 -1577.652334
66 1929.078498 1386.872249
67 3072.075798 -1306.652570
68 -608.829687 -1473.592248
69 -104.506259 204.653816
70 3231.391616 -1319.866226
71 6101.023148 6452.209888
72 3567.249452 -1246.297206
73 3094.806005 -1371.802551
74 2729.200348 -1247.094340
75 2247.851988 1938.285978
76 1320.841167 189.202605
77 -315.619132 -591.084377
78 1712.816450 964.527968
79 3443.395514 15831.962198
80 -3056.161528 -7795.257633
81 -46.993162 -2448.934509
82 2170.350385 1414.295010
83 4739.091999 1321.228343
84 1625.849542 -1948.422028
85 4935.690791 347.937361
86 -941.128142 -1880.995862
87 1983.932374 469.328892
88 1692.985299 2305.883133
89 -4942.119594 -3625.129594
90 2732.426836 2063.619233
91 1670.375768 11538.537065
92 1693.880666 4267.683617
93 1963.584919 2353.197156
94 1129.851076 -187.528095
95 1401.973526 -4619.617073
96 2678.402682 4219.879730
97 1063.973114 2244.890427
98 4087.630052 4378.668377
99 2814.106801 -544.287846
100 2871.486652 3098.859247
101 3117.800469 2361.987107
102 3834.974871 4376.231202
103 1946.058223 -438.698057
104 3505.845513 -1977.987441
105 2606.497301 773.479508
106 4152.443469 -0.598458
107 3894.170666 2336.907428
108 1334.680176 336.705984
DEMAND_SECTION
1 0
2 1
3 1
4 1
5 1
6 1
7 1
8 1
9 1
10 1
11 1
12 1
13 1
14 1
15 1
16 1
17 1
18 1
19 1
20 1
21 1
22 1
23 1
24 1
25 1
26 1
27 1
28 1
29 1
30 1
31 1
32 1
33 1
34 1
35 1
36 1
37 1
38 1
39 1
40 1
41 1
42 1
43 1
44 1
45 1
46 1
47 1
48 1
49 1
50 1
51 1
52 1
53 1
54 1
55 1
56 1
57 1
58 1
59 1
60 1
61 1
62 1
63 1
64 1
65 1
66 1
67 1
68 1
69 1
70 1
71 1
72 1
73 1
74 1
75 1
76 1
77 1
78 1
79 1
80 1
81 1
82 1
83 1
84 1
85 1
86 1
87 1
88 1
89 1
90 1
91 1
92 1
93 1
94 1
95 1
96 1
97 1
98 1
99 1
100 1
101 1
102 1
103 1
104 1
105 1
106 1
107 1
108 1
DEPOT_SECTION
1
-1
EOF
