NAME : mamut-singapore-n126-k10-poi
COMMENT : Mamut2026 shortest metric; city singapore; No of trucks: 10 (lower bound, fleet not fixed); 3-decimal seconds/meters; ENU ref in mamut-singapore-n126-k10-poi.vrp.json
TYPE : CVRP
DIMENSION : 127
EDGE_WEIGHT_TYPE : EXPLICIT
EDGE_WEIGHT_FORMAT : FULL_MATRIX
CAPACITY : 490
EDGE_WEIGHT_SECTION
0.000 58568.367 48621.997 65753.132 48155.884 72848.837 55044.494 65591.643 58290.770 57739.355 33442.136 58219.699 57748.777 51212.529 65688.236 64558.303 56521.699 58456.859 58799.988 59215.363 47620.310 59982.744 57866.539 57958.476 43458.587 61733.943 48373.797 60024.643 61585.330 61998.658 58928.444 68097.374 57074.648 62256.810 57801.172 51052.888 32329.512 65905.590 59351.026 40005.906 61361.105 58944.986 58727.673 69929.238 58377.017 58131.537 47967.418 62494.252 57757.824 52525.335 72851.756 52628.112 57514.966 63501.312 64803.208 58733.153 59371.662 52703.788 57638.064 39418.607 59618.883 56063.949 42394.186 57914.152 66266.358 60172.109 51491.394 39503.223 56346.361 59567.274 43539.989 49889.856 53306.846 58940.031 66506.595 59815.463 58261.960 50479.771 47388.055 68782.469 60468.718 64082.115 58483.870 57704.611 50295.804 44026.961 58237.276 58574.590 62346.896 73628.487 67239.142 57197.662 40414.758 60800.294 58374.534 51256.424 57108.795 49894.495 52732.856 64991.274 58015.522 57846.879 69443.187 57062.238 60730.575 65732.950 52937.498 59715.446 67074.568 57878.813 32903.558 45188.905 60245.318 51843.425 48007.247 50929.991 55872.607 67277.698 46188.615 62536.046 57913.725 51983.873 58242.035 60335.948 56032.341 63122.288 62283.851
59432.568 0.000 32654.200 8822.357 12022.927 17390.287 4416.583 14781.366 2550.559 22781.635 44681.105 1394.393 1438.806 8847.011 12964.946 8295.622 2675.494 40596.052 4121.348 2566.238 12038.900 11099.780 38324.728 1454.206 41497.934 12876.450 49924.959 3696.045 12863.789 9114.931 39386.633 15801.606 39158.763 6304.784 1005.586 8377.607 43839.305 9740.866 2701.901 46166.531 12503.613 10223.444 2304.405 17205.948 3084.630 1571.042 11507.382 8663.050 1645.043 29303.429 17970.737 29558.275 1720.399 7147.672 8185.049 4403.687 4693.023 29131.495 1171.678 42088.954 10897.342 4755.108 19570.789 1801.372 15640.553 4753.520 8816.113 41059.937 4380.990 2918.149 41400.302 10405.782 28289.268 2975.393 14894.803 3486.865 2521.750 9817.129 36851.367 16560.283 19002.146 10098.412 2257.404 39814.108 18995.681 16910.527 1204.812 306.452 9778.343 18747.467 11074.418 1326.735 23392.260 41832.090 2858.938 28594.200 39189.936 9145.587 29663.020 7987.701 39255.326 3168.240 14562.168 39143.379 37686.211 13009.660 29471.116 4906.214 11396.240 1568.842 41544.472 49050.386 4898.262 29801.047 48035.438 8309.498 4563.766 11112.973 17666.541 13678.554 756.893 29814.600 1416.729 7782.923 4904.711 11626.345 12618.306
48274.272 32184.525 0.000 33976.562 25588.029 35917.788 30553.771 23717.140 30733.858 12858.470 17838.726 31798.691 32053.906 28015.091 27994.563 32331.698 30303.931 11737.840 28950.148 31055.580 25052.455 24498.601 9466.516 31507.096 11557.599 22748.763 19564.649 30399.145 20359.374 27428.704 10528.421 27006.186 10300.550 30627.576 32185.886 26187.667 18105.847 33428.325 31191.242 16226.196 22849.329 23200.971 30567.889 28609.370 30055.650 31680.157 25399.563 28053.996 31306.443 5451.750 33653.558 5554.527 31063.585 31746.725 33026.638 28781.310 29438.053 5630.204 32250.356 12166.770 22435.236 33210.384 24456.503 31462.772 24391.855 29549.101 26321.855 11137.754 28186.577 31407.490 11459.966 27645.184 6233.261 29918.383 24632.092 30244.179 30732.052 28235.099 5398.442 26907.966 18659.232 29293.644 30858.925 10955.896 16629.441 22528.076 31813.599 32190.748 26459.398 34362.250 34761.877 31762.946 25010.698 12999.796 30214.750 4182.839 10331.724 26738.656 5659.271 33447.721 10397.114 29687.096 34701.949 10285.167 13375.291 28143.949 5863.914 29436.621 32762.839 31927.516 21414.929 18690.076 29225.424 4769.840 17751.677 26692.715 33019.042 34800.432 20636.320 22289.326 32526.017 4915.210 31821.027 37013.536 27560.506 26462.353 23897.679
67338.563 8619.643 35558.960 0.000 19150.350 10992.289 11860.363 12301.129 8059.160 23874.251 50665.669 9396.173 9611.654 16351.928 9110.015 1847.510 10320.901 43500.812 7506.824 6985.860 19091.761 11356.112 41229.488 9113.378 44402.694 11867.307 52829.718 6607.047 13956.404 7787.482 42291.392 12096.538 42063.522 4360.489 9532.322 15320.502 50932.790 3330.530 6629.318 49071.291 12129.705 12117.444 7571.837 13131.689 7559.372 9525.696 18634.805 7297.473 9151.983 32208.188 11640.920 32463.034 8909.125 2876.187 964.772 7883.590 6998.242 32036.254 9698.414 44993.713 12791.341 13281.844 25613.287 9308.312 13160.317 6256.547 14987.405 43964.697 9683.021 7698.282 44305.061 18311.777 31194.027 6889.578 12414.566 6617.646 8057.353 17723.124 39756.126 12788.160 18656.495 5820.995 7895.674 42718.867 22293.514 22406.492 9273.190 8667.942 8184.968 12417.651 4397.507 9853.471 29071.342 44736.849 7751.064 31498.960 42094.695 16273.010 32567.779 1193.767 42160.085 7892.500 8232.351 42048.138 40590.970 8441.934 32375.875 6857.858 4998.242 9574.883 49450.466 51955.145 6435.201 32705.806 50940.198 15436.921 13090.502 4420.001 21924.169 12824.950 9283.630 32719.359 9418.509 16309.659 10206.742 9555.666 11555.669
49369.360 11409.571 26011.067 18526.797 0.000 25708.439 7946.392 19318.689 11064.435 19493.087 34617.897 11023.737 11278.951 4018.121 18685.064 17331.968 9456.159 33952.919 11573.653 11989.029 1006.393 12979.572 31681.595 10732.142 34854.801 14730.771 43281.825 12798.308 14582.158 14995.486 32743.500 21094.203 32515.629 15030.475 11349.180 3826.553 33776.097 18679.255 12124.691 39523.398 14357.933 11941.814 11501.338 22926.067 11150.682 10905.202 474.875 15353.855 10531.489 22660.296 25711.359 22915.142 10288.631 16274.978 17576.873 11506.818 12145.328 22488.361 11186.072 35445.821 12615.711 9611.957 8538.282 10687.817 20240.462 12945.775 4265.059 34416.804 9120.026 12340.939 34757.168 3437.864 21646.134 11713.697 20090.981 12589.128 11035.626 4027.779 30208.234 21852.880 20856.466 17078.944 11257.536 33170.975 10433.056 5878.020 11038.645 11415.794 15343.724 26488.089 20012.808 10745.670 12359.753 35188.957 11148.199 21951.067 32546.803 2668.160 23019.886 17764.940 32612.193 10620.545 22302.790 32500.245 31043.078 18729.779 22827.983 12489.112 19934.170 11152.562 31481.264 42407.252 13018.984 23157.914 41392.305 3703.657 9420.615 20051.363 6973.297 15532.874 11461.733 23171.467 11046.073 13883.956 8806.006 16119.117 15280.680
73764.402 17027.664 37257.354 10995.967 26011.684 0.000 19912.485 13703.933 16106.417 25056.948 52364.064 17638.504 17853.986 23881.626 11003.749 9891.562 18381.434 45199.206 15287.398 15686.290 25537.276 15445.150 42927.882 17355.710 46101.088 15688.621 54528.112 14544.812 18137.853 11876.520 43989.787 10069.272 43761.916 11818.046 17887.809 22133.098 52631.184 8863.878 15821.952 50769.685 15951.019 16206.482 15846.970 9006.210 15546.482 17586.229 25496.139 11496.518 17212.516 33906.583 3931.480 34161.429 16969.658 10551.156 10180.126 15502.834 14608.292 33734.648 18064.359 46692.107 16880.379 21647.789 31999.209 17368.845 12633.372 14029.362 21800.000 45663.091 17160.667 16064.227 46003.455 26191.151 32892.421 14967.823 12719.167 14555.411 16104.610 25602.497 41454.520 9900.728 19944.731 9724.015 16138.005 44417.261 28007.291 28792.415 17515.522 17033.887 12274.006 4708.210 7457.446 18219.416 35457.265 46435.243 15738.174 33197.354 43793.089 23134.344 34266.173 11226.743 43858.480 15772.934 3790.444 43746.532 42289.364 10258.109 34074.270 14194.707 7199.338 17817.215 55876.305 53653.539 13869.430 34404.200 52638.592 22328.900 21456.447 7359.082 28310.091 16646.265 17649.575 34417.754 17660.840 24675.604 17243.280 13536.434 15065.950
56015.782 4732.693 31134.204 12308.575 8865.361 20170.151 0.000 16535.198 4558.952 22677.755 41264.318 4101.553 3913.103 5091.352 14718.778 11173.778 2273.055 39076.056 5875.181 5770.807 8881.333 10995.900 36804.732 3809.958 39977.938 12772.570 48404.963 6626.905 12759.908 10868.764 37866.637 17555.438 37638.767 8872.285 3965.498 5340.367 40422.518 12521.065 5906.469 44646.535 12399.732 10119.564 5235.265 18959.781 5211.251 3983.019 8349.815 10416.882 3609.306 27783.433 20640.064 28038.279 3884.305 10116.788 11358.651 6157.519 6446.855 27611.499 3802.390 40568.958 10793.462 3551.784 16413.223 3765.634 17394.386 7070.104 5778.873 39539.941 3765.719 6122.717 39880.306 6988.995 26769.272 5555.507 16648.635 6417.725 4530.143 6400.342 35331.371 18314.116 18898.265 12321.573 4752.053 38294.112 17058.762 13752.960 4191.953 4738.916 11532.175 21416.794 13854.618 3361.988 20234.693 40312.094 4985.559 27074.204 37669.940 6108.347 28143.024 11546.717 37735.330 4922.072 17231.495 37623.383 36166.215 14763.493 27951.120 6790.639 14116.656 4043.139 38127.685 47530.390 7214.846 28281.051 46515.442 5272.258 3360.441 13893.173 14848.237 13574.674 4078.052 28294.604 4123.889 6905.256 3846.823 12540.185 12795.665
66583.281 14319.503 25090.176 12192.737 19921.242 12984.490 15858.903 0.000 12779.966 13363.654 40196.886 14371.607 14587.089 17793.765 4950.693 10547.872 14494.750 33032.028 11385.799 13004.156 19441.581 6970.299 30760.704 14086.718 33933.910 5113.518 42360.934 11328.694 5905.869 6606.469 31822.609 3883.454 31594.738 10295.423 14620.912 16045.238 40464.006 11390.828 13139.818 38602.507 5638.006 8015.300 12580.073 6727.808 11958.861 14259.779 19405.696 7073.844 13886.066 21739.405 11686.310 21994.251 13643.208 9962.899 11242.813 11601.234 10706.692 21567.470 14994.374 34524.929 8005.529 18237.319 25913.515 14042.394 1516.182 10295.234 15712.140 33495.913 13107.085 13356.066 33836.277 20103.290 20725.243 11700.926 1509.360 11339.293 12778.160 19514.637 29287.343 4466.172 8135.563 7509.818 12871.108 32250.083 17471.202 22706.720 14248.625 14325.726 5627.035 12361.117 12724.380 14979.529 27100.199 34268.065 12150.553 21030.176 31625.911 17046.484 22098.995 11663.895 31691.302 11871.334 11673.460 31579.354 30122.186 5435.590 21907.092 10293.108 10702.393 14507.138 43773.088 41486.361 9971.557 22237.022 40471.414 16241.039 18045.976 12762.936 22086.888 5185.831 14941.414 22250.576 14393.943 21265.133 13189.698 4818.214 4752.937
59721.940 2236.860 30893.242 8190.540 11660.305 15996.534 4243.740 12734.370 0.000 20734.639 44970.477 1960.535 2204.398 8735.305 10917.949 7000.161 2637.205 38835.094 2074.352 1652.771 11676.278 9052.784 36563.770 1668.940 39736.976 10829.454 48164.000 2466.501 10816.792 7067.935 37625.675 13754.609 37397.804 4698.667 2238.220 8014.985 44128.677 8347.448 1788.433 44405.573 10456.616 8176.448 1165.081 15158.952 1037.634 1842.000 11144.760 6616.054 1468.287 27542.471 16466.446 27797.317 1225.429 5943.170 7240.616 2356.691 2646.026 27370.536 2611.682 40327.995 8850.345 5967.438 19208.167 1624.616 13593.557 2896.487 7778.970 39298.979 2528.213 2004.681 39639.343 10695.154 26528.309 1381.889 12847.807 2257.321 360.381 10106.501 35090.408 14513.287 16955.149 8520.744 895.764 38053.149 17234.722 16547.905 1865.933 2243.082 7731.346 17243.177 9681.000 2596.838 23029.638 40071.131 811.942 26833.242 37428.977 8782.965 27902.061 7428.682 37494.368 1121.244 13057.877 37382.420 35925.252 10962.664 27710.158 2989.811 9943.038 2089.360 41833.844 47289.427 3041.228 28040.088 46274.480 7946.876 5776.096 9719.555 16257.996 11631.558 2708.624 28053.642 1982.871 8995.253 3051.934 9579.349 10571.309
58965.331 22339.355 14134.996 23609.454 19703.854 24952.396 21927.101 13350.032 20791.003 0.000 29241.706 22389.350 22606.116 22130.915 17627.455 21964.590 21562.969 22076.848 18755.394 21024.007 19168.280 14131.493 19805.524 22097.755 22978.730 12381.655 31405.755 20191.500 9992.266 17061.596 20867.429 16423.812 20639.558 20260.468 22639.939 20303.491 29508.827 23061.216 21159.670 27647.327 12482.221 12833.862 20599.100 17283.859 19969.898 22270.816 19515.388 17686.888 21897.102 10784.225 22033.837 11039.071 21654.244 21379.617 22659.530 18422.216 19070.945 10612.290 23013.401 23569.750 12068.128 25244.759 18928.055 22053.431 13736.673 19181.993 20437.679 22540.733 19422.990 21375.918 22881.097 21761.008 9770.064 19832.630 14264.984 20158.426 20789.196 22350.923 18332.163 16221.234 6186.456 18926.536 20890.135 21294.904 10745.265 16999.627 22267.652 22345.578 16092.290 22708.644 24394.769 22998.556 19482.249 23312.886 20161.589 10074.996 20670.732 20854.481 11143.816 23080.612 20736.122 19882.371 23947.910 20624.175 19167.007 17776.841 10951.912 19069.513 22395.731 22518.175 32817.909 30531.182 18858.315 11281.843 29516.234 20808.539 25053.417 24433.324 15107.871 11922.218 22961.265 11295.396 22411.686 28272.574 18819.544 16095.245 13530.571
32400.761 44190.347 17334.272 49762.422 33777.864 51703.647 40666.474 39503.000 43912.750 28644.330 0.000 43841.679 43370.757 36834.509 43780.423 48117.558 42143.679 27473.157 44421.968 44837.343 33242.290 40284.460 26622.361 43580.456 13431.969 38534.622 20968.289 45646.623 36145.234 43214.563 27684.266 42792.046 26090.946 46413.435 43423.152 36674.868 3007.302 49214.184 44973.006 12600.398 38635.188 38986.830 44349.653 44395.229 43998.997 43753.517 33589.398 43839.856 43379.804 21237.609 49439.418 21340.386 43136.945 47532.584 48812.498 44355.133 44993.642 21416.063 43260.044 8130.881 38221.095 41685.929 28016.166 43536.132 40177.715 45334.960 37113.374 8215.498 41968.341 45189.254 13513.371 35511.836 22019.121 44562.011 40417.952 45437.443 43883.940 36101.751 16404.353 42693.826 34445.091 45079.503 44105.850 26720.909 32415.300 29648.941 43859.256 44196.570 42245.258 50148.109 50547.736 42819.642 26036.738 29816.592 43996.514 19968.699 26125.093 35516.475 21445.131 49233.580 27031.820 43468.859 50487.808 26078.536 29442.850 43929.808 21649.773 45222.480 48548.698 43500.793 4275.736 17783.397 45011.283 20555.699 20601.739 36551.971 41494.587 50586.292 31810.595 38075.185 43535.705 20696.148 43864.015 45957.928 41654.321 42248.212 39683.538
58377.047 1840.092 31710.678 10109.119 10758.152 17970.695 3022.190 14708.531 2359.496 22708.801 43625.584 0.000 305.100 7452.618 12892.111 8974.322 1281.100 39652.530 4048.514 3571.351 10774.124 11026.946 37381.206 1450.362 40554.412 12595.898 48981.436 4427.449 12790.954 9042.097 38443.111 15728.771 38215.240 6672.829 770.101 7112.831 42783.784 10321.610 3707.013 45223.009 12430.778 10150.610 3035.809 17133.114 3011.796 1132.790 10242.606 8590.215 1308.694 28359.907 18440.608 28614.753 1583.692 7917.332 9159.195 4330.852 4620.188 28187.972 944.078 41145.431 10824.507 4258.018 18306.013 1465.022 15567.719 4870.648 7551.337 40116.415 4026.367 3923.261 40456.779 9350.261 27345.745 3356.051 14821.969 4218.269 2330.687 8761.608 35907.844 16487.449 18929.311 10494.906 2552.597 38870.585 18052.158 15645.751 973.718 1846.315 9705.508 19217.338 11655.162 872.560 22127.484 40888.567 2786.104 27650.678 38246.413 7880.811 28719.497 9347.262 38311.804 3095.405 15032.039 38199.856 36742.688 12936.826 28527.593 4963.973 11917.200 178.711 40488.950 48106.863 5015.390 28857.524 47091.916 7044.723 4066.675 11693.717 16723.018 13553.541 1185.096 28871.077 22.336 7285.832 4121.159 11553.511 12284.260
58452.253 1534.991 31785.884 9890.962 10833.358 18045.901 3097.396 14783.737 2434.702 22784.007 43700.790 651.040 0.000 7527.824 12967.317 9049.528 1356.306 39727.736 4123.720 3322.228 10849.330 11102.152 37456.412 1145.261 40629.618 12671.104 49056.642 4452.034 12866.160 9117.303 38518.317 15803.977 38290.446 6748.035 465.001 7188.037 42858.989 10396.815 3457.890 45298.215 12505.984 10225.816 3060.394 17208.320 3087.001 827.690 10317.812 8665.421 1383.899 28435.113 18515.814 28689.958 1658.898 7903.662 8941.038 4406.058 4695.394 28263.178 638.978 41220.637 10899.713 3993.505 18381.219 1540.228 15642.925 4945.854 7626.543 40191.621 4101.573 3674.138 40531.985 9425.467 27420.951 3431.257 14897.175 4242.855 2405.893 8836.814 35983.050 16562.655 19004.517 10570.112 2627.803 38945.791 18127.364 15720.957 668.618 1541.214 9780.714 19292.544 11730.368 567.459 22202.690 40963.773 2861.309 27725.884 38321.619 7956.017 28794.703 9129.105 38387.010 3170.611 15107.245 38275.062 36817.894 13012.032 28602.799 5039.178 11992.406 130.036 40564.156 48182.069 5090.596 28932.730 47167.122 7119.929 3802.162 11768.923 16798.224 13628.747 879.996 28946.283 673.377 7021.319 4196.365 11628.717 12359.466
52343.794 9405.773 28299.354 16959.929 4105.269 24141.571 5881.900 17751.820 9364.646 21781.373 37592.331 9057.105 8586.183 0.000 17118.196 15765.100 7359.105 36241.206 10006.784 10422.160 4121.241 11412.703 33969.882 8933.233 37143.088 13163.902 45570.112 11231.440 13015.289 13428.618 35031.787 19527.334 34803.916 13463.606 8638.578 2259.684 36750.531 17112.387 10557.822 41811.685 12791.064 10374.945 9934.470 21359.198 9583.814 9106.293 3589.723 13786.986 8732.580 24948.583 24144.490 25203.429 8588.841 14708.109 16010.005 9939.949 10578.459 24776.648 8475.470 37734.107 11048.843 6901.355 11653.130 8888.909 18673.593 11378.906 2698.190 36705.091 7553.158 10774.070 37045.455 3228.001 23934.421 10146.828 18524.112 11022.260 9335.836 2639.348 32496.520 20286.012 19289.597 15512.075 9557.746 35459.261 12766.344 8992.868 9074.682 9411.996 13776.856 24921.221 18445.939 8035.068 15474.601 37477.243 9581.331 24239.354 34835.089 1669.131 25308.173 16198.071 34900.480 9053.676 20735.921 34788.532 33331.364 17162.910 25116.270 10922.243 18367.302 8716.218 34455.698 44695.539 11452.115 25446.200 43680.592 1648.865 6710.013 18484.494 10088.145 13966.006 8751.131 25459.754 9079.441 11173.354 7239.138 14552.248 13713.811
67387.985 12726.608 29156.717 9426.768 19630.520 10036.019 14309.016 4504.650 11187.071 17430.196 44263.427 12778.712 12994.193 17503.043 0.000 8236.301 12901.855 37098.569 9792.903 11411.261 19150.859 7618.638 34827.245 12493.823 38000.451 6039.125 46427.476 9735.799 8488.356 5013.574 35889.150 2998.817 35661.280 8688.669 13028.016 15754.516 44530.548 7926.984 11546.923 42669.048 6301.522 8784.407 10987.177 4337.257 10365.966 12666.884 19114.974 5467.090 12293.170 25805.946 8757.070 26060.792 12050.312 7651.327 8610.926 10008.339 9113.797 25634.012 13401.478 38591.471 9237.950 16644.423 25622.793 12449.499 4718.002 8702.338 15421.418 37562.454 11557.198 11763.171 37902.819 19812.568 24791.785 10108.030 3972.251 9746.398 11185.264 19223.915 33353.884 3678.146 12202.105 5196.825 11278.213 36316.625 21454.248 22415.999 12655.729 12732.831 4357.067 9431.877 9260.536 13386.634 29080.848 38334.607 10557.657 25096.717 35692.453 16755.762 26165.537 9352.323 35757.843 10278.439 8724.989 35645.896 34188.728 1946.189 25973.633 8700.213 7238.549 12914.243 47839.630 45552.903 8378.661 26303.564 44537.955 15950.317 16453.081 9299.092 21933.675 6996.768 13348.518 26317.117 12801.048 19672.238 11639.811 4440.112 5416.453
66155.825 7623.168 34061.541 1644.864 17991.814 10022.686 10821.812 10803.711 6945.997 22376.833 49168.251 8357.622 8573.104 15313.377 8140.411 0.000 9221.015 42003.393 6284.170 6281.794 17928.699 9858.693 39732.069 8074.828 42905.275 10369.888 51332.299 5384.393 12458.986 6290.063 40793.974 11126.935 40566.103 2863.070 8493.771 14161.966 49435.372 2360.927 6417.457 47573.872 10632.286 10620.025 6533.286 12162.086 6386.063 8425.810 17476.269 5800.054 8052.097 30710.770 10671.317 30965.616 7809.238 1378.768 694.940 6660.936 5775.587 30538.835 8659.863 43496.294 11293.923 12243.293 24390.632 8208.425 11662.898 5033.893 13828.868 42467.278 8509.711 6659.731 42807.642 17273.226 29696.608 5807.404 10917.148 5394.991 6944.190 16684.573 38258.708 11818.557 17159.077 4323.577 6857.123 41221.448 21070.860 21183.838 8234.639 7629.391 6687.550 11448.048 3694.479 8814.920 27848.688 43239.430 6577.754 30001.541 40597.276 15114.474 31070.360 1613.298 40662.667 6719.190 7262.748 40550.719 39093.552 7472.331 30878.457 5635.204 4028.638 8536.333 48267.728 50457.726 5212.546 31208.388 49442.779 14278.385 12051.951 3733.035 20701.515 11327.531 8245.079 31221.941 8379.958 15271.108 9033.432 8058.248 10058.250
57624.299 3553.902 30561.830 10958.389 9562.665 18819.965 1826.703 15172.050 3208.766 21803.243 42872.836 2818.167 2888.491 6637.664 13355.629 9823.592 0.000 38503.682 4512.032 4420.620 9578.637 10121.388 36232.358 2526.572 39405.564 11898.058 47832.588 5276.719 11885.396 9505.615 37294.263 16192.289 37066.392 7522.099 2940.886 5917.344 42031.036 11170.879 4556.283 44074.161 11525.220 9245.052 3885.078 17596.632 3861.065 2699.633 9047.119 9053.734 2325.920 27211.059 19289.877 27465.905 2432.962 8766.601 10008.465 4794.371 5083.706 27039.124 2817.349 39996.583 9918.950 4808.018 17110.526 2482.248 16031.237 5719.918 6355.850 38967.567 2891.207 4772.530 39307.931 8597.513 26196.897 4205.320 15285.487 5067.539 3179.957 8008.860 34758.997 16950.967 18023.753 10958.424 3401.867 37721.737 16903.311 14450.264 2908.567 3560.125 10169.026 20066.608 12504.431 2329.940 20931.997 39739.719 3635.373 26501.830 37097.565 6685.324 27570.649 10196.531 37162.956 3558.923 15881.309 37051.008 35593.841 13400.344 27378.746 5427.491 12766.469 2946.992 39736.203 46958.015 5864.660 27708.677 45943.068 5849.236 4616.676 12542.987 15545.541 12700.162 3093.010 27722.230 2840.503 7835.833 2972.311 11665.673 11921.153
58142.207 41285.235 11989.469 43077.273 34688.739 45018.498 39654.481 32817.850 39834.568 21959.180 28026.503 40899.401 41154.616 37115.801 37095.273 41432.408 39404.641 0.000 38050.858 40156.290 34153.165 33599.311 5807.100 40607.806 19243.120 31849.473 24105.945 39499.856 29460.084 36529.414 5413.534 36106.896 5587.569 39728.286 41286.596 35288.377 28260.340 42529.035 40291.952 23911.717 31950.039 32301.681 39668.599 37710.080 39156.361 40780.867 34500.273 37154.706 40407.154 15399.991 42754.268 15654.837 40164.295 40847.435 42127.349 37882.020 38538.763 13248.591 41351.066 20652.071 31535.946 42311.094 33557.214 40563.482 33492.566 38649.811 35422.565 21325.530 37287.287 40508.200 19145.488 36745.894 13945.321 39019.093 33732.802 39344.889 39832.762 37335.809 14594.696 36008.676 27759.942 38394.354 39959.635 1606.843 25730.151 31628.786 40914.309 41291.458 35560.108 43462.960 43862.587 40863.656 34111.408 6881.387 39315.460 13014.743 2230.935 35839.366 15759.581 42548.431 2889.413 38787.806 43802.659 2330.962 13685.291 37244.659 15812.154 38537.331 41863.549 41028.226 31602.706 23231.372 38326.134 12093.838 22292.973 35793.425 42119.752 43901.142 29737.030 31390.036 41626.727 15434.257 40921.737 46114.246 36661.217 35563.063 32998.389
60755.000 3852.753 29935.935 7558.731 12657.849 15087.307 5617.806 10945.100 2304.401 19417.340 45042.645 3902.748 4119.514 10109.371 9128.679 6090.934 4019.185 37877.787 0.000 2537.406 12527.874 7735.485 35606.463 3611.153 38779.669 9137.417 47206.694 1591.638 9499.494 5278.665 36668.368 11965.339 36440.498 3789.441 4153.337 8779.263 45161.736 7438.221 2673.068 43448.266 9139.318 6859.150 2112.498 13369.682 1483.296 3784.214 12142.304 4826.784 3410.501 26585.164 15128.113 26840.010 3167.642 5033.943 6608.807 1008.404 600.294 26413.230 4526.799 39370.689 7533.047 7761.753 18989.808 3566.829 11804.287 1400.741 8446.165 38341.673 3186.290 2889.316 38682.037 12069.220 25571.003 1345.636 11058.537 1602.236 2302.594 11480.567 34133.102 12724.017 15637.851 6731.474 2403.533 37095.843 16277.416 15783.013 3781.050 3858.976 5942.076 15904.844 8771.773 4511.955 22447.863 39113.825 1674.988 25875.935 36471.671 9780.509 26944.755 6796.874 36537.061 1395.769 11719.545 36425.114 34967.946 9173.394 26752.851 944.078 9033.811 4031.573 42866.903 46332.121 1473.950 27082.782 45317.173 8954.964 7570.411 8810.329 15300.690 10095.060 4474.663 27096.335 3925.084 10789.568 3573.774 7790.079 8825.779
61297.230 2518.343 31713.122 7609.091 13136.805 16314.608 5819.030 13326.129 2018.974 21554.519 46545.767 3354.840 3570.322 10310.595 11509.709 7252.242 4279.569 39654.974 2894.232 0.000 13078.216 9872.664 37383.650 3072.046 40556.856 11518.446 48983.880 2344.278 11636.672 7659.694 38445.555 14346.369 38217.684 5016.742 3388.945 9306.957 45703.967 8665.522 1038.049 45225.453 11276.496 8996.328 1452.298 15750.711 2232.523 3484.364 12621.260 7207.813 3110.651 28362.351 16784.521 28617.197 2867.793 6104.292 7141.669 3176.571 3342.983 28190.416 3555.038 41147.875 9670.226 7138.468 20684.667 3266.979 14185.316 3401.753 8973.859 40118.859 3723.102 1554.906 40459.223 12270.444 27348.189 1822.185 13439.566 2135.098 2017.167 11681.791 35910.289 15105.047 17775.029 8887.328 1854.341 38873.029 18054.603 17560.200 3231.858 2524.565 8323.106 17561.251 9999.075 3710.095 24225.050 40891.011 2006.831 27653.122 38248.857 10259.465 28721.941 6774.435 38314.248 2316.133 13375.952 38202.300 36745.133 11554.423 28530.038 3554.447 10261.113 3533.551 43409.134 48109.307 3546.495 28859.969 47094.360 9423.376 6947.125 10037.630 17077.876 12451.438 3140.253 28873.522 3377.176 10166.282 4246.823 10171.108 11206.809
49532.865 11482.638 26174.572 18599.864 1168.244 25781.506 8019.459 19391.756 11137.502 19656.591 34781.401 11096.803 11352.018 4091.188 18758.131 17405.035 9529.226 34116.424 11646.720 12062.096 0.000 13052.639 31845.100 10805.208 35018.306 14803.838 43445.330 12871.375 14655.225 15068.553 32907.005 21167.269 32679.134 15103.542 11422.247 3899.620 33939.601 18752.322 12197.758 39686.903 14431.000 12014.881 11574.405 22999.134 11223.749 10978.269 638.380 15426.922 10604.556 22823.801 25784.426 23078.647 10361.698 16348.044 17649.940 11579.885 12218.394 22651.866 11259.139 35609.325 12688.778 9685.024 8701.787 10760.884 20313.529 13018.842 4338.126 34580.309 9193.093 12414.006 34920.673 3510.931 21809.639 11786.764 20164.048 12662.195 11108.693 4100.846 30371.739 21925.947 20929.533 17152.011 11330.603 33334.479 10596.561 6041.524 11111.712 11488.861 15416.791 26561.156 20085.874 10818.737 12523.257 35352.461 11221.266 22114.572 32710.307 2741.227 23183.391 17838.006 32775.698 10693.612 22375.857 32663.750 31206.582 18802.846 22991.488 12562.179 20007.237 11225.629 31644.768 42570.757 13092.051 23321.418 41555.810 3776.723 9493.682 20124.430 7136.801 15605.941 11534.800 23334.972 11119.140 13957.022 8879.073 16192.184 15353.747
61316.936 10490.429 25892.169 10292.055 13559.471 14513.504 10381.618 7136.191 8950.892 14207.461 40998.879 10542.532 10758.014 11431.994 7213.835 8647.190 10017.485 33834.021 7209.910 9175.081 13079.810 0.000 31562.697 10257.644 34735.903 2684.133 43162.928 7499.620 4289.614 3524.257 32624.602 8710.174 32396.731 6680.719 10791.837 9683.467 41266.000 9753.057 9310.744 39404.500 2946.531 2538.167 8750.998 11454.837 8129.786 10430.704 13043.925 4149.549 10056.991 22541.398 14516.424 22796.244 9814.133 7924.378 9342.131 6876.732 6877.618 22369.464 11165.299 35326.923 3212.065 13699.275 19551.744 10213.320 8057.964 6466.159 9350.369 34297.906 7877.506 9526.992 34638.270 13741.519 21527.237 7871.851 7706.952 7510.218 8949.085 13152.866 30089.336 9468.852 9473.322 5607.714 9042.033 33052.077 15383.199 16344.949 10419.550 10496.652 3872.495 15293.154 11086.609 11150.455 23009.799 35070.059 8321.478 21832.169 32427.905 10684.713 22900.989 9763.213 32493.295 8042.260 11107.855 32381.348 30924.180 7258.549 22709.085 6464.033 9087.571 10678.064 43428.839 42288.355 6142.482 23039.016 41273.407 9879.268 13507.933 11125.164 15862.626 3641.776 11112.339 23052.569 10564.869 16727.090 7274.060 4404.502 2896.651
56797.444 37815.402 9280.561 39607.439 31218.906 41548.665 36184.648 29348.017 36364.735 18489.347 26681.741 37429.568 37684.783 33645.967 33625.440 37962.575 35934.808 6553.782 34581.024 36686.456 30683.332 30129.478 0.000 37137.973 17898.358 28379.640 24457.894 36030.022 25990.251 33059.581 1926.328 32637.063 7389.496 36258.453 37816.763 31818.544 26915.578 39059.201 36822.119 22566.955 28480.206 28831.847 36198.766 34240.246 35686.527 37311.034 31030.440 33684.873 36937.320 11930.158 39284.435 12185.004 36694.462 37377.602 38657.515 34412.187 35068.930 9778.758 37881.232 19307.309 28066.113 38841.261 30087.380 37093.649 30022.732 35179.978 31952.732 19980.768 33817.454 37038.367 17800.725 33276.060 10475.487 35549.260 30262.969 35875.056 36362.928 33865.975 12631.245 32538.843 24290.108 34924.521 36489.801 5435.143 22260.318 28158.952 37444.476 37821.625 32090.275 39993.127 40392.754 37393.823 30641.575 4531.158 35845.627 9544.910 4810.971 32369.533 12289.748 39078.597 4274.291 35317.972 40332.825 4764.414 9648.214 33774.826 12342.321 35067.498 38393.716 37558.393 30257.943 23583.321 34856.300 8624.005 22644.922 32323.592 38649.918 40431.309 26267.197 27920.203 38156.894 12067.348 37451.904 42644.413 33191.383 32093.230 29528.556
58882.024 1540.637 32215.655 9736.715 11263.129 17992.030 3527.167 14737.497 2388.462 22737.766 44130.561 504.977 720.459 7957.595 12921.076 8897.365 1786.078 40157.507 4077.479 3167.981 11279.101 11055.911 37886.183 0.000 41059.389 12624.863 49486.413 4297.787 12819.919 9071.062 38948.088 15757.736 38720.217 6701.795 754.282 7617.809 43288.761 10342.609 3303.643 45727.986 12459.743 10179.575 2906.147 17162.079 3040.761 681.626 10747.583 8619.181 1337.659 28864.884 18469.573 29119.730 1484.525 7749.415 8786.791 4359.818 4649.153 28692.949 1127.744 41650.408 10853.473 4713.964 18810.991 1493.987 15596.684 4899.614 8056.314 40621.392 4055.332 3519.891 40961.756 9855.238 27850.722 3385.016 14850.934 4088.608 2359.652 9266.585 36412.822 16516.414 18958.276 10523.872 2581.562 39375.562 18557.136 16150.728 381.995 1546.859 9734.473 19246.304 11676.161 1112.900 22632.461 41393.544 2815.069 28155.655 38751.390 8385.789 29224.474 8974.858 38816.781 3124.371 15061.004 38704.833 37247.666 12965.791 29032.571 4992.938 11946.165 683.688 40993.928 48611.840 5044.355 29362.501 47596.893 7549.700 4522.621 11714.716 17227.995 13582.507 1224.686 29376.055 527.313 7741.778 4579.053 11582.476 12313.225
43685.791 43013.582 12173.739 44805.619 36417.086 46746.845 41382.828 34546.197 41562.915 23687.527 13651.457 42627.748 42882.963 38844.147 38823.620 43160.755 41132.988 18796.009 39779.204 41884.636 35881.512 35327.658 18205.689 42336.153 0.000 33577.820 10671.685 41228.202 31188.431 38257.761 19267.594 37835.243 14998.941 41456.633 43014.943 37016.724 13874.015 44257.381 42020.299 5282.562 33678.386 34030.027 41396.946 39438.426 40884.707 42509.213 36228.620 38883.053 42135.500 16280.807 44482.615 16383.584 41892.642 42575.781 43855.695 39610.367 40267.110 16459.261 43079.412 6295.213 33264.293 44039.441 35285.560 42291.829 35220.912 40378.158 37150.912 5740.865 39015.634 42236.547 81.402 38474.240 17062.318 40747.440 35461.149 41073.236 41561.108 39064.155 7727.206 37737.023 29488.288 40122.701 41687.981 18043.761 27458.498 33357.132 42642.656 43019.805 37288.455 45191.307 45590.934 42592.003 35839.755 21139.445 41043.807 15011.896 17447.945 37567.713 16488.328 44276.777 18354.673 40516.152 45531.005 17401.388 24432.844 38973.006 16536.188 40265.678 43591.896 42756.573 17227.659 8585.324 40054.480 15598.897 8807.718 37521.772 43848.098 45629.489 31465.377 33118.383 43355.073 15164.115 42650.084 47842.593 38389.563 37291.409 34726.736
63058.831 12122.716 24074.231 11667.151 15301.366 15578.072 12123.513 5171.387 10583.179 12347.709 39180.941 12174.820 12390.301 13173.889 5836.576 10022.286 11759.380 32016.083 8951.805 10807.369 14821.706 2623.288 29744.759 11889.931 32917.965 0.000 41344.990 9131.907 3099.373 5119.292 30806.664 6969.866 30578.794 8318.164 12424.124 11425.362 39448.062 11118.913 10943.031 37586.562 912.539 3395.424 10383.285 9860.079 9762.074 12062.992 14785.820 5744.585 11689.278 20723.460 14279.892 20978.306 11446.420 9437.313 10717.227 8618.628 8509.905 20551.526 12797.586 33508.985 3848.967 15441.170 21293.639 11845.607 6093.161 8098.446 11092.264 32479.968 9619.402 11159.279 32820.333 15483.414 19709.299 9504.138 5966.644 9142.506 10581.372 14894.761 28271.398 7728.543 7119.618 6984.232 10674.321 31234.139 16455.257 18086.845 12051.837 12128.939 4149.987 14954.699 12452.465 12782.742 24751.694 33252.121 9953.765 20014.231 30609.967 12426.608 21083.051 11138.309 30675.357 9674.547 12473.711 30563.410 29106.242 5985.961 20891.147 8096.321 10453.427 12310.351 42757.144 40470.417 7774.769 21221.078 39455.469 11621.163 15249.828 12491.020 17604.521 1288.073 12744.626 21234.631 12197.156 18468.985 9015.955 4304.365 1642.822
48320.330 50478.560 19518.423 52270.597 43882.064 54211.822 48847.805 42011.175 49027.893 31152.505 21180.993 50092.726 50347.940 46309.125 46288.598 50625.733 48597.966 24992.710 47244.182 49349.614 43346.490 42792.635 25222.795 49801.131 11362.798 41042.798 0.000 48693.180 38653.409 45722.739 26284.700 45300.221 19925.404 48921.610 50479.921 44481.701 19170.263 51722.359 49485.277 8664.719 41143.364 41495.005 48861.924 46903.404 48349.685 49974.191 43693.598 46348.031 49600.478 23745.785 51947.593 23848.562 49357.620 50040.759 51320.673 47075.345 47732.088 23924.238 50544.390 15715.686 40729.271 51504.418 42750.538 49756.806 42685.890 47843.135 44615.890 15161.338 46480.612 49701.524 11318.343 45939.218 24527.296 48212.418 42926.127 48538.213 49026.086 46529.133 15192.183 45202.001 36953.266 47587.679 49152.959 24939.361 34923.476 40822.110 50107.634 50484.783 44753.433 52656.285 53055.911 50056.981 41956.307 28156.550 48508.785 22476.874 24465.051 45032.691 23953.306 51741.755 25371.778 47981.130 52995.983 24418.494 31255.190 46437.983 24001.165 47730.655 51056.873 50221.551 24678.515 5514.508 47519.458 23063.875 5465.394 44986.750 51313.076 53094.467 38930.355 40583.360 50820.051 22629.093 50115.062 55307.571 45854.541 44756.387 42191.714
61746.414 3368.700 31099.584 6226.777 13552.005 14482.092 6268.214 11694.249 2467.011 20719.285 46206.293 3804.024 4019.505 10759.779 9877.829 5387.427 4728.752 39041.436 2068.569 2053.353 13493.416 9037.430 36770.112 3521.229 39943.318 9886.566 48370.342 0.000 10801.438 6027.814 37832.017 12714.488 37604.146 3385.265 4053.328 9722.157 46153.150 6832.670 2189.015 44611.915 10148.964 8161.094 2012.489 14118.831 1946.253 3933.547 13036.459 5575.933 3559.834 27748.812 15062.541 28003.658 3316.976 4239.477 5276.853 2445.335 1562.281 27576.878 4405.395 40534.337 8834.991 7988.825 20153.456 3716.163 12553.436 1621.052 9389.059 39505.321 4069.902 2405.263 39845.685 12719.628 26734.651 1208.647 11807.686 270.282 2465.204 12130.975 35296.750 13473.166 16675.755 7190.216 2303.525 38259.491 17441.064 16946.661 3681.041 3374.923 6691.225 15839.272 8166.223 4411.946 23611.511 40277.473 2137.945 27039.584 37635.319 10674.665 28108.403 5464.919 37700.709 2279.381 11653.972 37588.762 36131.594 9922.543 27916.499 1773.745 8488.045 3982.734 43858.317 47495.769 1765.793 28246.430 46480.822 9838.576 7797.483 8204.778 16464.338 10844.209 3990.610 28259.983 3826.360 11016.640 4593.623 8539.228 9574.928
62887.215 12473.961 22030.720 13744.061 15129.750 17491.115 12061.708 6071.078 10925.610 10346.012 37137.430 12523.956 12740.722 13002.273 8336.929 12099.196 11697.575 29972.572 8890.000 11158.614 14650.089 4266.099 27701.249 12232.361 30874.455 3083.824 39301.479 10326.107 0.000 7196.202 28763.153 8680.367 28535.283 10395.074 12774.545 11253.746 37404.551 13195.823 11294.276 35543.052 2710.986 2968.469 10733.706 11642.852 10104.504 12405.422 14614.204 7821.495 12031.709 18679.949 16192.934 18934.795 11788.851 11514.223 12794.137 8556.823 9205.552 18508.015 13148.007 31465.474 2202.734 15379.365 21122.023 12188.037 6992.851 9316.599 10920.648 30436.458 9557.597 11510.524 30776.822 15311.798 17665.788 9967.237 6986.030 10293.032 10923.803 14723.145 26227.887 9439.045 7304.951 9061.142 11024.742 29190.628 14411.747 17915.228 12402.258 12480.184 6226.897 16867.741 14529.375 13133.163 24040.743 31208.610 10296.196 17970.721 28566.456 12254.992 19039.540 13215.219 28631.846 10016.978 14550.621 28519.899 27062.731 8486.315 18847.636 9204.119 12530.337 12652.781 40713.633 38426.906 8992.922 19177.567 37411.959 11449.547 15188.023 14567.930 17432.905 2974.829 13095.871 19191.120 12546.292 18407.180 8954.150 6499.659 4143.176
62713.770 9592.155 28296.006 9450.522 14956.305 13681.306 10068.992 8016.695 8052.618 16611.298 43402.716 9644.259 9859.741 12828.828 6381.637 7805.658 9580.123 36237.858 6567.907 8276.808 14476.645 3913.562 33966.534 9359.370 37139.740 4604.353 45566.765 6601.346 6693.451 0.000 35028.439 9036.934 34800.569 5782.446 9893.564 11080.301 43669.837 8920.859 8412.470 41808.337 4866.751 4674.894 7852.725 10622.639 7231.513 9532.431 14440.760 3317.351 9158.718 24945.235 13684.226 25200.081 8915.860 7026.104 8500.598 6531.445 5979.344 24773.301 10267.026 37730.760 5348.792 13322.692 20948.578 9315.046 8875.882 5567.886 10747.203 36701.743 7317.174 8628.718 37042.108 15138.353 23931.074 6973.578 8130.132 6611.945 8050.812 14549.700 32493.173 9795.612 11393.542 4775.516 8143.760 35455.914 16780.033 17741.784 9521.276 9598.378 3040.297 14460.956 10254.411 10252.181 24406.634 37473.896 7423.205 24236.006 34831.742 12081.547 25304.826 8921.680 34897.132 7143.986 10275.657 34785.185 33328.017 6426.351 25112.922 5565.760 8255.373 9779.790 44825.674 44692.192 5244.208 25442.853 43677.244 11276.102 13131.349 10292.966 17259.460 5561.997 10214.066 25456.406 9666.595 16350.506 7399.787 3990.834 4292.716
57772.087 39359.817 10824.975 41151.854 32763.321 43093.079 37729.062 30892.432 37909.150 20033.762 27656.383 38973.982 39229.197 35190.382 35169.855 39506.990 37479.222 5049.548 36125.439 38230.871 32227.746 31673.892 1991.732 38682.387 18873.001 29924.054 25568.801 37574.437 27534.666 34603.995 0.000 34181.478 8046.665 37802.867 39361.177 33362.958 27890.220 40603.616 38366.533 23541.598 30024.620 30376.262 37743.181 35784.661 37230.942 38855.448 32574.855 35229.288 38481.735 13474.572 40828.850 13729.418 38238.877 38922.016 40201.930 35956.601 36613.345 11323.173 39425.647 20281.952 29610.527 40385.675 31631.795 38638.063 31567.147 36724.392 33497.146 20955.411 35361.869 38582.781 18775.368 34820.475 12019.902 37093.675 31807.384 37419.470 37907.343 35410.390 14175.659 34083.258 25834.523 36468.935 38034.216 3930.909 23804.732 29703.367 38988.890 39366.040 33634.690 41537.541 41937.168 38938.238 32185.989 2706.371 37390.042 11089.324 3306.737 33913.947 13834.162 40623.012 2707.052 36862.387 41877.240 3260.180 9225.298 35319.240 13886.735 36611.912 39938.130 39102.807 31232.586 24694.228 36400.715 10168.419 23755.829 33868.006 40194.333 41975.723 27811.611 29464.617 39701.308 13611.762 38996.318 44188.827 34735.798 33637.644 31072.970
69478.630 15249.981 28497.774 12099.039 21721.165 10611.315 16832.389 3869.811 13710.444 16468.787 43604.484 15302.085 15517.567 19593.688 3347.942 10908.572 15425.228 36439.626 12316.276 13934.634 21241.504 8702.969 34168.302 15017.196 37341.508 7073.643 45768.533 12259.172 8693.984 7536.947 35230.207 0.000 35002.337 11225.900 15551.389 17845.161 43871.605 10599.256 14070.296 42010.105 7385.853 9868.738 13510.551 3338.573 12889.339 15190.257 21205.619 8004.322 14816.544 25147.003 8312.483 25401.849 14573.685 10323.599 11283.198 12531.712 11637.170 24975.069 15924.851 37932.528 10322.280 19167.796 27713.438 14972.872 3080.325 11225.712 17512.063 36903.511 14080.571 14286.544 37243.876 21903.213 24132.842 12631.403 2851.219 12269.771 13708.637 21314.560 32694.941 1365.914 11356.570 7869.097 13801.586 35657.682 20878.800 24506.643 15179.102 15256.204 6557.513 8987.290 11932.808 15910.007 30507.797 37675.664 13081.030 24437.774 35033.510 18846.407 25506.594 12024.595 35098.900 12801.812 9300.285 34986.953 33529.785 4618.460 25314.690 11223.586 9910.820 15437.616 47180.687 44893.960 10902.034 25644.621 43879.012 18040.962 18976.454 11971.363 24024.320 7145.956 15871.891 25658.174 15324.421 22195.611 14163.184 5748.692 6500.784
55070.201 40111.451 9966.741 41903.488 33514.955 43844.714 38480.696 31644.066 38660.784 20785.396 24954.497 39725.617 39980.832 35942.016 35921.489 40258.624 38230.857 5456.932 36877.073 38982.505 32979.381 32425.527 7491.858 39434.022 14515.293 30675.689 18716.251 38326.071 28286.300 35355.630 8553.763 34933.112 0.000 38554.502 40112.812 34114.592 25188.334 41355.250 39118.168 19183.890 30776.255 31127.896 38494.815 36536.295 37982.576 39607.082 33326.489 35980.922 39233.369 14226.207 41580.484 14481.052 38990.511 39673.650 40953.564 36708.236 37364.979 12074.807 40177.281 17580.066 30362.162 41137.310 32383.429 39389.698 32318.781 37476.027 34248.781 18253.524 36113.503 39334.416 14417.660 35572.109 12529.435 37845.309 32559.018 38171.105 38658.977 36162.024 11522.691 34834.892 26586.157 37220.570 38785.850 5403.582 24556.367 30455.001 39740.525 40117.674 34386.324 42289.176 42688.802 39689.872 32937.624 10341.756 38141.676 11840.958 5751.667 34665.582 14585.797 41374.646 6658.395 37614.021 42628.874 5705.110 15547.837 36070.875 14638.370 37363.547 40689.765 39854.442 28530.700 17841.678 37152.349 10920.054 16903.279 34619.641 40945.967 42727.358 28563.246 30216.252 40452.942 14363.396 39747.953 44940.462 35487.432 34389.278 31824.605
64001.932 5942.327 32575.486 4390.933 15837.921 11855.427 8673.656 10376.125 4792.104 20985.573 47682.196 6324.192 6539.674 13165.222 8104.338 2859.054 7067.122 40517.338 4130.277 4600.953 15774.806 8229.265 38246.014 6041.398 41419.220 8978.628 49846.244 3230.500 11067.726 4829.813 39307.919 11090.861 39080.048 0.000 6573.496 12008.073 47949.316 4206.341 4736.615 46087.817 9241.026 8990.597 4532.658 12225.703 4232.170 6271.917 15322.376 4013.543 5898.204 29224.715 12325.340 29479.561 5655.345 1802.063 3441.009 4507.043 3621.694 29052.780 6946.958 42010.239 9664.495 10397.354 22236.739 6054.532 11235.312 2880.000 11674.975 40981.223 6355.818 4978.890 41321.587 15125.071 28210.553 3653.511 10489.562 3241.098 4790.297 14536.417 36772.653 11782.484 15767.817 4428.147 4823.693 39735.393 18916.967 19029.945 6201.209 5948.550 5493.225 13102.070 5539.893 6932.114 25694.795 41753.375 4423.861 28515.486 39111.221 12960.581 29584.305 3710.446 39176.612 4565.297 8916.771 39064.664 37607.496 7436.257 29392.402 3481.311 5801.932 6502.903 46113.835 48971.671 3058.653 29722.332 47956.724 12124.492 10206.012 5578.449 18547.622 9936.271 6564.238 29735.886 6346.528 13425.169 6879.539 7341.227 8666.990
58873.834 1115.552 32245.308 9471.523 11292.782 17726.837 3556.820 14911.095 2562.060 22911.364 44122.371 678.575 459.424 7987.248 13094.675 8632.172 1815.731 40187.160 4251.077 2902.788 11308.754 11229.509 37915.836 965.638 41089.042 12798.461 49516.066 4032.595 12993.517 9244.660 38977.741 15931.334 38749.870 6641.334 0.000 7647.462 43280.571 10077.416 3038.451 45757.639 12633.341 10353.173 2640.955 17335.677 3214.359 855.225 10777.237 8792.779 1511.257 28894.537 18307.287 29149.383 1637.696 7484.222 8521.599 4533.416 4822.752 28722.602 379.131 41680.061 11027.071 4196.374 18840.644 1667.585 15770.282 5073.212 8085.968 40651.045 4228.930 3254.699 40991.409 9847.048 27880.375 3311.944 15024.532 3823.415 2533.251 9258.395 36442.475 16690.012 19131.874 10434.962 2593.954 39405.215 18586.789 16180.381 488.995 1121.775 9908.072 19084.017 11410.968 555.030 22662.114 41423.197 2988.667 28185.308 38781.043 8415.442 29254.127 8709.665 38846.434 3297.969 14898.718 38734.486 37277.319 13139.389 29062.224 5166.536 11732.790 589.460 40985.738 48641.493 5217.954 29392.155 47626.546 7579.353 4005.032 11449.523 17257.648 13756.105 480.947 29405.708 700.911 7224.189 4655.789 11756.074 12486.824
52594.809 8212.301 27362.104 15118.707 4215.870 22300.349 4749.122 15910.598 7867.165 20844.123 37843.346 7826.467 8081.682 2196.815 15276.974 13923.878 6258.889 35303.956 8165.563 8580.938 4231.842 9571.481 33032.632 7534.872 36205.838 11322.680 44632.862 9390.218 11174.067 11587.396 34094.537 17686.112 33866.666 11622.384 8213.662 0.000 37001.546 15271.165 8716.600 40874.435 10949.842 8533.723 8093.248 19517.976 7742.592 7707.932 3700.324 11945.764 7334.219 24011.333 22303.268 24266.178 7091.361 12866.887 14168.783 8098.727 8737.237 23839.398 8205.314 36796.857 9207.621 7385.763 11763.731 7490.548 16832.371 9537.684 856.968 35767.841 5711.936 8932.848 36108.205 4506.340 22997.171 8305.606 16682.890 9181.038 7838.356 3917.686 31559.270 18444.790 17448.375 13670.853 8060.266 34522.011 12034.971 9103.469 7841.375 8218.524 11935.634 23079.999 16604.717 7717.904 15585.202 36539.993 7740.109 23302.104 33897.839 1338.529 24370.923 14356.849 33963.230 7212.454 18894.699 33851.282 32394.114 15321.688 24179.019 9081.021 16526.080 7955.292 34706.713 43758.289 9610.893 24508.950 42743.342 644.089 7194.421 16643.272 10198.746 12124.784 8480.975 24522.503 7848.803 11424.563 5397.916 12711.026 11872.589
31611.858 43401.444 17422.879 49851.029 32988.961 51792.254 39877.571 39591.606 43123.847 28732.936 3030.474 43052.777 42581.854 36045.606 43869.029 48206.164 41354.776 27561.763 43633.065 44048.441 32453.387 40373.067 26710.968 42791.554 13402.405 38623.229 18888.433 44857.720 36233.840 43303.170 27772.873 42880.652 26179.553 46502.042 42634.250 35885.965 0.000 49302.791 44184.103 10520.542 38723.795 39075.437 43560.750 44483.836 43210.094 42964.614 32800.495 43928.462 42590.901 21326.216 49528.024 21428.993 42348.043 47621.191 48901.105 43566.230 44204.740 21504.670 42471.142 8219.488 38309.702 40897.027 27227.264 42747.230 40266.322 45005.187 36324.471 8304.104 41179.438 44400.351 13483.807 34722.933 22107.727 43773.109 40506.558 44648.540 43095.038 35312.848 16492.960 42782.432 34533.698 45168.110 43316.948 26809.515 32503.907 28860.038 43070.354 43407.667 42333.864 50236.716 50636.343 42030.740 25247.835 29905.199 43207.611 20057.305 26213.700 34727.572 21533.738 49322.187 27120.427 42679.957 50576.415 26167.142 29531.456 44018.415 21738.380 44548.524 48637.305 42711.890 6495.923 15703.541 45078.396 20644.306 18521.883 35763.069 40705.684 50674.898 31021.692 38163.792 42746.803 20784.755 43075.113 45169.025 40865.418 42336.819 39772.145
67350.174 9049.626 35038.467 2990.520 19186.163 8679.795 12021.899 11609.014 8140.347 23353.758 50145.176 9672.434 9887.916 16513.464 7823.870 1913.524 10415.364 42980.319 7478.520 7708.251 19123.048 10844.383 40708.995 9389.640 43882.201 11346.814 52309.225 6578.742 13435.912 7275.753 41770.900 10810.393 41543.029 4057.420 9920.228 15356.315 50412.297 0.000 7843.914 48550.798 11609.212 11605.714 7880.900 11845.544 7580.412 9620.159 18670.618 6895.750 9246.446 31687.696 9678.592 31942.541 9003.588 2573.117 2181.002 7855.286 6969.937 31515.761 10086.321 44473.220 12279.612 13669.751 25584.982 9402.774 12369.328 6228.242 15023.218 43444.204 9704.060 8086.189 43784.568 18473.313 30673.534 7001.753 11623.577 6589.341 8138.540 17884.660 39235.633 11502.016 18136.002 4760.326 8171.935 42198.374 22265.209 22378.187 9549.452 9055.848 7673.239 10455.323 1871.747 10241.377 29043.037 44216.356 7772.104 30978.467 41574.202 16308.823 32047.286 3227.619 41639.593 7913.539 6394.764 41527.645 40070.477 7155.789 31855.382 6829.553 3712.097 9851.145 49462.077 51434.652 6406.896 32185.313 50419.705 15472.734 13478.408 1910.302 21895.864 12304.457 9671.536 32198.866 9694.770 16697.565 10227.781 9035.173 11035.176
61279.145 2500.257 30697.943 7076.413 13118.719 15331.728 5800.944 12459.771 2000.888 20539.340 45804.652 3336.754 3552.236 10292.510 10643.351 6237.063 4261.483 38639.795 1879.053 654.404 13060.130 8857.485 36368.471 3053.960 39541.677 10634.155 47968.701 1329.098 10621.493 6793.336 37430.375 13480.010 37202.505 4188.754 3370.859 9288.871 45685.881 7682.306 0.000 44210.274 10261.317 7981.149 1434.212 14884.353 1544.612 3466.278 12603.174 6341.455 3092.565 27347.171 15912.177 27602.017 2849.707 5089.113 6126.489 2161.391 2327.803 27175.237 3536.952 40132.696 8655.046 7120.382 19751.815 3248.893 13318.958 2386.574 8955.774 39103.680 3668.261 1536.820 39444.044 12252.358 26333.010 807.005 12573.208 1119.918 1999.081 11663.705 34895.109 14238.688 16759.850 8039.852 1836.255 37857.850 17039.423 16545.020 3213.772 2506.480 7456.747 16688.908 9015.859 3692.009 23209.870 39875.832 1736.304 26637.943 37233.678 10241.379 27706.762 6314.556 37299.068 1877.740 12503.608 37187.121 35729.953 10688.065 27514.858 2539.267 9337.681 3515.465 43391.048 47094.128 2531.315 27844.789 46079.181 9405.290 6929.039 9054.414 16062.697 11436.258 3122.167 27858.342 3359.090 10148.196 4191.982 9304.750 10340.450
40644.317 46286.977 15650.865 48079.014 39690.481 50020.240 44656.222 37819.592 44836.310 26960.922 13230.728 45901.143 46156.357 42117.542 42097.015 46434.150 44406.383 22424.835 43052.599 45158.031 39154.907 38601.053 22051.143 45609.548 5213.738 36851.215 8395.214 44501.597 34461.826 41531.156 23113.048 41108.638 17357.529 44730.027 46288.338 40290.118 11219.998 47530.776 45293.694 0.000 36951.781 37303.422 44670.341 42711.821 44158.102 45782.608 39502.015 42156.448 45408.895 19554.202 47756.010 19656.979 45166.037 45849.176 47129.090 42883.762 43540.505 19732.655 46352.807 7779.053 36537.688 47312.835 36259.722 45565.223 38494.307 43651.552 40424.307 7224.705 42289.029 45509.942 5295.140 41747.635 20335.713 44020.835 38734.544 44346.630 44834.503 42337.550 11000.600 41010.418 32761.683 43396.096 44961.376 21889.215 30731.893 36630.527 45916.051 46293.200 40561.850 48464.702 48864.328 45865.398 34280.294 24984.899 44317.202 18285.291 21293.399 40841.108 19761.723 47550.172 22200.127 43789.547 48804.400 21246.842 27759.442 42246.400 19809.582 43539.072 46865.290 46029.968 16728.250 5210.322 43327.875 18872.292 8028.664 40795.167 47121.493 48902.884 34738.772 36391.777 46628.468 18437.510 45923.479 51115.988 41662.958 40564.804 38000.131
62848.200 11912.084 24116.639 11456.519 15090.734 15367.441 11912.881 4960.756 10372.547 12390.117 39223.349 11964.188 12179.670 12963.258 5625.944 9811.655 11548.748 32058.491 8741.173 10596.737 14611.074 2412.656 29787.167 11679.299 32960.373 372.838 41387.397 8921.275 2888.741 4908.661 30849.072 6759.234 30621.201 8107.532 12213.493 11214.730 39490.470 10908.281 10732.399 37628.970 0.000 3184.792 10172.654 9649.447 9551.442 11852.360 14575.189 5533.953 11478.647 20765.868 14069.260 21020.714 11235.788 9226.681 10506.595 8407.996 8299.273 20593.933 12586.954 33551.393 3638.335 15230.539 21083.007 11634.975 5882.529 7887.815 10881.632 32522.376 9408.770 10948.647 32862.740 15272.782 19751.707 9293.507 5756.012 8931.874 10370.740 14684.129 28313.806 7517.912 7162.026 6773.601 10463.689 31276.547 16497.665 17876.213 11841.205 11918.307 3939.355 14744.068 12241.833 12572.110 24541.063 33294.529 9743.134 20056.639 30652.375 12215.976 21125.458 10927.677 30717.765 9463.915 12263.079 30605.817 29148.650 5775.329 20933.555 7885.689 10242.795 12099.719 42799.551 40512.824 7564.137 21263.486 39497.877 11410.531 15039.196 12280.389 17393.889 1330.481 12533.995 21277.039 11986.524 18258.353 8805.324 4093.733 1432.191
60049.736 9636.482 25265.020 11713.029 12292.270 15934.478 9224.228 8318.567 8088.130 13580.311 40371.729 9686.477 9903.243 10164.794 8634.809 10068.165 8860.096 33206.872 6052.521 8321.134 11812.610 2282.384 30935.548 9394.882 34108.754 3730.649 42535.778 7488.627 3662.465 4945.231 31997.453 10117.045 31769.582 8101.693 9937.066 8416.266 40638.850 11174.031 8456.797 38777.351 3357.811 0.000 7896.227 12875.812 7267.025 9567.943 11776.725 5570.524 9194.229 21914.249 15937.398 22169.095 8951.371 9345.352 10763.105 5719.343 6368.072 21742.314 10310.528 34699.773 1696.018 12541.886 18284.543 9350.558 9240.340 6479.120 8083.168 33670.757 6720.117 8673.045 34011.121 12474.319 20900.087 7129.757 9113.823 7455.553 8086.323 11885.665 29462.186 10875.723 9856.344 7028.689 8187.262 32424.927 14115.999 15077.749 9564.779 9642.705 5293.469 16714.129 12507.583 10295.683 21742.599 34442.909 7458.716 21205.020 31800.755 9417.512 22273.839 11184.187 31866.146 7179.498 12528.829 31754.198 30297.030 8679.524 22081.935 6366.640 10508.545 9815.302 42161.639 41661.205 6155.442 22411.866 40646.258 8612.068 12350.544 12546.139 14595.426 4532.753 10258.392 22425.419 9708.813 15569.701 6116.671 5868.196 4360.346
60059.116 2364.669 30850.017 8147.315 11898.691 15953.309 4580.916 12691.145 780.860 20691.414 45307.653 2116.726 2332.207 9072.481 10874.725 6956.936 3041.454 38791.869 2031.127 1609.546 11840.102 9009.559 36520.545 1833.931 39693.751 10786.229 48120.775 2423.276 10773.567 7024.710 37582.450 13711.384 37354.579 4655.443 2366.030 8068.843 44465.853 8304.223 1745.208 44362.348 10413.391 8133.223 0.000 15115.727 994.409 2246.249 11383.145 6572.829 1872.536 27499.246 16423.221 27754.092 1629.678 5899.945 7197.391 2313.466 2602.802 27327.311 2739.492 40284.770 8807.121 6325.712 19446.552 2028.865 13550.332 2853.262 7735.745 39255.754 2484.988 1961.456 39596.118 11032.330 26485.084 1338.664 12804.582 2214.096 779.053 10443.677 35047.184 14470.062 16911.924 8477.520 616.227 38009.924 17191.498 16697.095 1993.743 2370.892 7688.121 17199.952 9637.775 2724.648 23268.023 40027.906 768.717 26790.017 37385.752 9021.350 27858.836 7385.457 37451.143 1078.019 13014.652 37339.195 35882.028 10919.439 27666.933 2946.586 9899.813 2295.436 42171.019 47246.202 2998.004 27996.864 46231.255 8185.262 6134.370 9676.330 16214.771 11588.333 2836.434 28010.417 2139.062 9353.527 3008.709 9536.124 10528.084
70875.228 16213.851 30447.109 12655.918 23117.763 8611.547 17796.259 6851.788 14674.314 17673.909 45553.819 16265.955 16481.437 20990.286 4228.269 11551.514 16389.098 38388.961 13280.147 14898.504 22638.103 11106.098 36117.637 15981.066 39290.843 9568.468 47717.868 13223.042 11370.686 8500.817 37179.542 3210.704 36951.672 12058.597 16515.260 19241.759 45820.940 11156.135 15034.166 43959.440 9830.866 12313.751 14474.421 0.000 13853.209 16154.127 22602.218 8954.334 15780.414 27096.338 5692.988 27351.184 15537.555 11006.020 11840.077 13495.582 12601.040 26924.404 16888.721 39881.863 12767.293 20131.666 29110.036 15936.742 5821.627 12189.582 18908.661 38852.846 15044.441 15250.414 39193.211 23299.811 26082.177 13595.274 5847.135 13233.641 14672.508 22711.158 34644.276 3128.239 12561.692 8551.518 14765.456 37607.017 22828.135 25903.242 16142.972 16220.074 7844.310 6367.795 11981.919 16873.877 32457.132 39624.999 14044.901 26387.109 36982.845 20243.005 27455.929 12707.016 37048.235 13765.682 7650.779 36936.288 35479.120 5395.137 27264.025 12187.456 9958.707 16401.486 49130.022 46843.295 11865.904 27593.956 45828.347 19437.560 19940.324 11883.556 25420.918 9822.658 16835.762 27607.509 16288.291 23159.481 15127.054 7969.456 8945.797
60123.132 2780.188 30099.153 7715.281 11744.192 15501.382 4693.604 11940.281 1143.119 19940.551 45205.863 2741.466 2984.166 9185.170 10123.861 6505.009 3094.983 38041.006 1280.264 1464.841 11685.603 8258.696 35769.682 2449.871 38942.888 10035.366 47369.912 1971.349 10022.704 6273.847 36831.586 12960.521 36603.716 4203.516 3017.989 7914.344 44529.868 7852.296 1600.503 43611.485 9662.528 7382.360 977.150 14364.864 0.000 2622.932 11228.646 5821.965 2249.219 26748.382 15971.294 27003.228 2006.360 5448.018 6765.357 1562.602 1851.938 26576.448 3391.451 39533.907 8056.257 6748.369 19153.026 2405.547 12799.469 2401.335 7581.246 38504.891 2263.535 1816.751 38845.255 11145.018 25734.221 886.737 12053.719 1762.169 1141.312 10556.365 34296.320 13719.199 16161.061 7726.656 1268.186 37259.061 16440.634 15946.231 2645.702 2786.411 6937.258 16748.025 9185.848 3376.607 22611.081 39277.043 624.011 26039.154 36634.889 8866.852 27107.973 6953.424 36700.279 473.014 12562.725 36588.332 35131.164 10168.576 26916.069 2195.722 9447.886 2870.291 42235.035 46495.339 2546.077 27246.000 45480.392 8030.763 6557.027 9224.403 15463.908 10837.469 3402.098 27259.553 2763.802 9776.184 2787.256 8785.261 9777.221
58614.228 1653.010 31868.076 9707.550 10915.550 17569.126 3179.588 14306.962 1957.927 22307.231 43862.764 242.259 457.741 7694.877 12490.542 8572.753 1438.499 39809.928 3646.945 3169.781 10931.523 10625.376 37538.604 1097.869 40711.810 12194.329 49138.835 4025.880 12389.385 8640.528 38600.509 15327.202 38372.638 6271.260 866.656 7270.230 43020.964 9920.040 3305.444 45380.407 12029.209 9749.041 2634.240 16731.545 2610.226 0.000 10400.005 8188.646 907.124 28517.305 18039.039 28772.151 1182.123 7515.762 8757.626 3929.283 4218.619 28345.370 1056.489 41302.830 10422.938 4451.246 18463.412 1063.453 15166.150 4469.079 7708.736 40273.813 3624.798 3521.692 40614.177 9587.442 27503.144 2954.482 14420.399 3816.700 1929.118 8998.788 36065.243 16085.880 18527.742 10093.337 2151.028 39027.984 18209.557 15803.149 621.226 1659.233 9303.939 18815.769 11253.592 984.970 22284.882 41045.966 2384.534 27808.076 38403.812 8038.210 28876.895 8945.692 38469.202 2693.836 14630.470 38357.254 36900.087 12535.256 28684.992 4562.403 11515.631 420.970 40726.131 48264.261 4613.821 29014.923 47249.314 7202.121 4259.903 11292.148 16880.417 13151.972 1297.507 29028.476 264.595 7479.060 4148.519 11151.942 11882.691
48894.485 11722.884 25536.192 18775.561 852.151 25785.136 8259.705 19395.386 11377.748 19018.212 34143.022 11337.050 11592.265 4331.434 18761.761 17580.732 9769.472 33478.044 11822.417 12237.793 531.518 13056.269 31206.720 11045.455 34379.926 14807.468 42806.950 13047.072 14658.855 15072.183 32268.625 21170.899 32040.754 15279.239 11662.493 4139.866 33301.222 18928.020 12373.455 39048.523 14434.630 12018.511 11750.102 23002.764 11399.447 11218.515 0.000 15430.552 10844.802 22185.421 25788.056 22440.267 10601.944 16523.742 17825.637 11755.582 12394.092 22013.486 11499.385 34970.946 12692.408 9925.270 8063.407 11001.131 20317.159 13194.539 4578.372 33941.929 9368.790 12589.703 34282.293 3751.177 21171.259 11962.461 20167.678 12837.893 11348.939 4341.092 29733.359 21929.577 20933.163 17155.641 11570.849 32696.100 9958.181 5403.145 11351.958 11729.107 15420.421 26564.786 20261.572 11058.983 11884.878 34714.082 11396.964 21476.192 32071.928 2981.473 22545.011 18013.704 32137.318 10869.309 22379.487 32025.370 30568.203 18806.475 22353.108 12737.876 20010.867 11465.875 31006.388 41932.377 13209.635 22683.039 40917.430 4016.970 9733.928 20300.127 6498.422 15609.571 11775.046 22696.592 11359.386 14197.269 9054.771 16195.813 15357.377
63325.887 7891.563 29280.858 6946.037 15573.170 11892.083 9473.971 6990.646 6352.026 17596.150 44387.568 7943.667 8159.148 13443.111 5174.225 5301.173 8066.810 37222.710 4957.858 6576.215 15098.762 4898.414 34951.386 7658.778 38124.592 5589.206 46551.617 4900.754 7678.303 1324.211 36013.291 8010.885 35785.421 3666.943 8192.971 11694.584 44654.689 6648.460 6711.878 42793.189 5851.603 5659.746 6152.132 9415.228 5530.920 7831.838 15057.625 0.000 7458.125 25930.087 11895.002 26184.933 7215.267 4369.256 5996.113 5173.294 4278.752 25758.153 8566.433 38715.612 6333.644 11809.378 21560.695 7614.454 7849.833 3867.293 11361.486 37686.595 6722.153 6928.126 38026.960 15752.636 24915.926 5272.985 7104.083 4911.353 6350.219 15163.983 33478.025 8769.563 12378.394 3007.450 6443.168 36440.766 17568.777 18353.901 7820.684 7897.786 1987.622 12671.733 7982.012 8551.589 25018.750 38458.748 5722.612 25220.858 35816.594 12695.830 26289.678 6417.195 35881.984 5443.394 8486.433 35770.037 34312.869 5218.940 26097.774 3865.167 6117.814 8079.198 45437.791 45677.044 3543.616 26427.705 44662.096 11890.385 11618.036 8020.568 17871.577 6546.849 8513.473 26441.258 7966.003 14837.193 6804.766 3835.625 5277.568
59079.828 1741.289 32413.458 9937.368 11460.932 18192.683 3724.970 14935.300 2586.265 22935.569 44328.364 702.781 918.262 8155.398 13118.880 9098.017 1983.881 40355.310 4275.283 3368.634 11476.905 11253.714 38083.986 200.653 41257.192 12822.667 49684.217 4498.440 13017.723 9268.866 39145.891 15955.540 38918.021 6899.598 954.934 7815.612 43486.564 10543.261 3504.296 45925.789 12657.547 10377.379 3106.800 17359.883 3238.564 879.430 10945.387 8816.984 0.000 29062.687 18667.377 29317.533 1685.177 7950.067 8987.444 4557.621 4846.957 28890.753 1328.396 41848.212 11051.276 4911.767 19008.794 1691.791 15794.488 5097.417 8254.118 40819.195 4253.136 3720.544 41159.560 10053.041 28048.526 3582.820 15048.737 4289.260 2557.456 9464.388 36610.625 16714.218 19156.080 10721.675 2779.366 39573.366 18754.939 16348.532 582.647 1747.512 9932.277 19444.107 11876.813 1313.552 22830.264 41591.348 3012.872 28353.458 38949.194 8583.592 29422.278 9175.510 39014.584 3322.174 15258.808 38902.637 37445.469 13163.594 29230.374 5190.741 12143.969 881.491 41191.731 48809.644 5242.159 29560.305 47794.696 7747.503 4720.425 11915.369 17425.799 13780.310 1425.338 29573.858 725.117 7939.582 4776.857 11780.279 12511.029
51246.135 28250.650 5780.816 30042.688 21654.154 31983.913 26619.896 19783.266 26799.984 8924.595 20810.589 27864.816 28120.031 24081.216 24060.689 28397.823 26370.056 14311.569 25016.273 27121.705 21118.580 20564.726 12040.245 27573.221 14547.613 18814.888 22974.637 26465.271 16425.500 23494.829 13102.150 23072.311 12874.279 26693.701 28252.011 22253.792 21077.709 29494.450 27257.367 19216.210 18915.454 19267.096 26634.014 24675.495 26121.776 27746.282 21465.689 24120.122 27372.569 0.000 29719.684 573.194 27129.710 27812.850 29092.764 24847.435 25504.179 3679.772 28316.481 15138.632 18501.361 29276.509 20522.629 27528.897 20457.981 25615.226 22387.980 14109.616 24252.702 27473.615 14449.980 23711.309 3655.118 25984.508 20698.217 26310.304 26798.177 24301.224 9901.046 22974.091 14725.357 25359.769 26925.050 13529.624 12695.566 18594.201 27879.724 28256.873 22525.523 30428.375 30828.002 27829.072 21076.823 15573.525 26280.876 2438.304 12905.452 22804.781 685.661 29513.846 12970.843 25753.221 30768.074 12858.895 12550.688 24210.074 657.936 25502.746 28828.964 27993.641 24386.791 22100.064 25291.549 3516.563 21085.117 22758.840 29085.167 30866.557 16702.445 18355.451 28592.142 1846.139 27887.152 33079.661 23626.632 22528.478 19963.804
74443.816 18184.686 35849.868 12398.782 26691.099 4515.936 20591.900 12200.272 17197.188 22694.512 50956.577 18729.275 18944.757 24561.040 9576.753 11294.377 19075.764 43791.720 15966.813 16843.311 26216.691 15490.156 41520.396 18446.481 44693.602 14648.881 53120.626 15635.583 16719.170 12555.935 42582.301 8559.188 42354.430 12908.817 18978.580 22812.513 51223.698 10488.578 16978.974 49362.199 14911.279 16885.896 16937.741 6643.774 16539.875 18677.000 26175.554 12175.932 18303.287 32499.097 0.000 32753.942 18060.429 11788.892 11582.940 16182.248 15287.706 32327.162 19221.381 45284.621 17559.794 22802.438 32678.624 18459.615 11170.111 14876.248 22479.415 44255.605 17840.082 17221.249 44595.969 26870.565 31484.935 16058.594 11195.619 15646.182 17195.381 26281.912 40047.034 8493.242 17582.295 10403.430 17228.776 43009.775 28230.894 29471.830 18606.293 18190.908 12228.368 961.621 9082.146 19337.198 36136.679 45027.757 16731.567 31789.868 42385.603 23813.759 32858.687 12629.558 42450.994 16452.349 4895.135 42339.046 40881.878 9218.368 32666.783 14874.122 7968.817 18907.986 54532.780 52246.053 14552.571 32996.714 51231.106 23008.314 22611.095 8983.783 28989.506 15171.142 18806.596 33010.267 18751.611 25830.252 17922.695 12496.693 14026.210
51316.359 28320.875 5851.040 30112.912 21724.379 32054.138 26690.120 19853.490 26870.208 8994.820 20880.813 27935.041 28190.255 24151.440 24130.913 28468.048 26440.281 14381.793 25086.497 27191.929 21188.805 20634.951 12110.469 27643.446 14617.837 18885.113 23044.862 26535.495 16495.724 23565.054 13172.374 23142.536 12944.503 26763.926 28322.236 22324.016 21147.934 29564.674 27327.592 19286.434 18985.679 19337.320 26704.239 24745.719 26192.000 27816.506 21535.913 24190.346 27442.793 70.224 29789.908 0.000 27199.935 27883.074 29162.988 24917.660 25574.403 3749.996 28386.705 15208.857 18571.586 29346.733 20592.853 27599.122 20528.205 25685.450 22458.205 14179.840 24322.927 27543.840 14520.205 23781.533 3725.342 26054.733 20768.442 26380.528 26868.401 24371.448 9971.270 23044.316 14795.581 25429.994 26995.274 13599.849 12765.791 18664.425 27949.949 28327.098 22595.748 30498.600 30898.226 27899.296 21147.047 15643.749 26351.100 2508.529 12975.677 22875.006 755.886 29584.070 13041.067 25823.445 30838.298 12929.119 12620.913 24280.299 728.160 25572.970 28899.188 28063.866 24457.016 22170.289 25361.773 3586.788 21155.341 22829.065 29155.391 30936.782 16772.670 18425.675 28662.366 1916.363 27957.377 33149.886 23696.856 22598.702 20034.029
58822.038 1758.548 31391.676 9163.035 10760.403 17024.611 3343.838 13762.447 1413.412 21762.716 44070.575 875.146 1130.361 7835.403 11946.026 8028.238 1705.354 39333.528 3102.429 2625.266 10776.376 10080.861 37062.204 583.551 40235.410 11687.997 48662.435 3481.364 11844.869 8096.012 38124.109 14782.686 37896.239 5726.744 1337.833 7115.083 43228.775 9375.525 2760.928 44904.007 11484.693 9204.525 2089.724 16187.029 2065.711 756.612 10244.858 7644.131 382.898 28040.905 17494.523 28295.751 0.000 6971.247 8213.111 3384.768 3674.103 27868.971 1711.295 40826.430 9878.422 4882.049 18308.265 539.227 14621.634 3924.564 7553.589 39797.413 3118.466 2977.176 40137.778 9795.252 27026.744 2409.966 13875.884 3272.184 1384.602 9206.599 35588.843 15541.364 17983.226 9548.821 1606.512 38551.584 17733.157 15648.003 965.546 1764.770 8759.423 18271.254 10709.077 1696.451 22129.736 40569.566 1840.019 27331.676 37927.412 7883.063 28400.496 8401.177 37992.802 2149.321 14085.954 37880.855 36423.687 11990.741 28208.592 4017.888 10971.115 1003.971 40933.942 47787.862 4069.305 28538.523 46772.914 7046.974 4690.707 10747.632 16404.017 12645.641 1808.237 28552.076 897.482 7909.864 3642.187 10607.426 11376.360
64980.571 6758.241 33159.042 3191.409 16816.560 10543.254 9652.295 9901.212 5770.743 21474.334 48265.752 7302.831 7518.312 14143.860 7456.183 1546.545 8045.761 41100.894 5108.916 5416.867 16753.445 8956.195 38829.570 7020.036 42002.776 9467.390 50429.801 4209.138 11556.487 5387.565 39891.475 10442.706 39663.605 1687.816 7552.135 12986.712 48532.873 2893.832 5552.529 46671.373 9729.787 9717.526 5511.296 11561.900 5210.808 7250.556 16301.015 4746.880 6876.842 29808.271 11168.113 30063.117 6633.984 0.000 2241.485 5485.682 4600.333 29636.337 7794.936 42593.796 10391.424 11375.993 23215.378 7033.171 10760.399 3858.638 12653.614 41564.779 7334.457 5794.804 41905.144 16103.709 28794.110 4632.149 10014.649 4219.737 5768.936 15515.056 37356.209 11134.329 16256.578 3421.078 5802.332 40318.950 19895.605 20008.584 7179.848 6764.464 5785.051 11944.843 4227.385 7910.753 26673.434 42336.932 5402.500 29099.042 39694.778 13939.220 30167.862 2662.567 39760.168 5543.936 7759.544 39648.221 38191.053 6788.102 29975.958 4459.950 4549.207 7481.541 47092.474 49555.228 4037.292 30305.889 48540.280 13103.131 11184.651 4265.940 19526.260 10425.033 7380.151 30319.442 7325.167 14403.808 7858.178 7155.749 9155.752
66461.366 7784.522 34614.822 970.558 18273.154 10183.170 10983.166 11356.991 7181.963 22930.113 49721.531 8518.976 8734.458 15474.731 8300.896 899.124 9443.705 42556.674 6629.628 6443.148 18214.565 10411.974 40285.350 8236.182 43458.556 10923.169 51885.580 5729.850 13012.267 6843.344 41347.255 11287.419 41119.384 3416.351 8655.125 14443.306 49988.652 2521.412 6578.811 48127.153 11185.567 11173.306 6694.640 12322.570 6682.176 8648.500 17757.608 6353.335 8274.786 31264.051 10831.802 31518.896 8031.928 1932.049 0.000 7006.394 6121.045 31092.116 8821.218 44049.575 11847.203 12404.647 24736.090 8431.115 12216.179 5379.350 14110.208 43020.559 8805.824 6821.086 43360.923 17434.580 30249.889 6152.861 11470.428 5740.449 7180.156 16845.927 38811.988 11979.042 17712.357 4876.857 7018.477 41774.729 21416.317 21529.296 8395.993 7790.745 7240.830 11608.532 3854.964 8976.274 28194.145 43792.711 6873.867 30554.822 41150.557 15395.813 31623.641 1233.968 41215.947 7015.303 7423.233 41104.000 39646.832 7632.815 31431.737 5980.661 4189.123 8697.687 48573.270 51011.007 5558.004 31761.668 49996.060 14559.725 12213.305 3893.519 21046.972 11880.812 8406.433 31775.221 8541.312 15432.462 9329.545 8611.528 10611.531
60024.751 4364.697 29205.686 7954.012 11927.600 14968.980 5845.903 10788.885 2816.346 18611.053 44312.396 4414.693 4631.459 9797.541 8972.465 6476.846 4531.130 37147.538 511.945 3049.350 11797.625 6929.198 34876.214 4123.098 38049.420 8705.869 46476.445 1986.918 8693.207 5122.451 35938.119 11809.125 35710.249 4175.353 4665.282 8049.014 44431.487 7824.133 3185.013 42718.017 8333.031 6052.863 2624.443 13213.468 1995.240 4296.159 11412.055 4670.569 3922.445 25854.915 14971.899 26109.761 3679.587 5419.855 7004.088 0.000 827.496 25682.981 5038.743 38640.440 6726.760 8273.698 18259.558 4078.774 11648.073 1627.943 7715.916 37611.423 3094.085 3401.260 37951.788 12036.679 24840.754 1857.580 10902.322 1997.517 2814.539 11448.026 33402.853 12567.803 14831.564 6575.260 2915.478 36365.594 15547.167 15052.764 4292.994 4370.920 5785.862 15748.630 9157.685 5023.899 21717.614 38383.576 2186.932 25145.686 35741.422 9050.260 26214.506 7192.154 35806.812 1907.714 11563.330 35694.865 34237.697 9017.180 26022.602 1124.866 9194.711 4543.518 42136.654 45601.872 1678.780 26352.533 44586.924 8244.815 8082.356 9196.241 14570.441 9507.972 4986.608 26366.086 4437.029 11301.513 2843.525 7633.865 8510.413
60683.413 4426.944 29864.348 7403.229 12586.262 14565.989 6200.812 10385.895 2887.407 19157.003 44971.058 4479.048 4694.530 10456.203 8569.475 5926.063 4602.191 37806.200 1060.547 3111.597 12456.287 7475.148 35534.876 4194.159 38708.082 8578.212 47135.106 1436.135 9239.157 4719.460 36596.781 11406.135 36368.910 3624.570 4728.352 8707.676 45090.149 7273.350 3247.259 43376.679 8840.610 6598.812 2687.514 12810.477 2066.302 4367.220 12070.716 4267.579 3993.507 26513.577 14568.909 26768.423 3750.648 4869.072 6453.305 1024.085 0.000 26341.642 5101.814 39299.102 7272.710 8344.759 18918.220 4149.835 11245.082 1077.160 8374.578 38270.085 3752.747 3463.507 38610.449 12652.226 25499.416 1808.366 10499.332 1446.734 2885.600 12063.573 34061.515 12164.813 15367.401 6172.270 2978.549 37024.256 16205.829 15711.426 4356.065 4433.167 5382.872 15345.640 8606.902 5086.970 22376.276 39042.238 2257.993 25804.348 36400.084 9708.921 26873.167 6641.371 36465.474 1978.775 11160.340 36353.526 34896.359 8614.189 26681.264 616.699 8791.721 4614.579 42795.316 46260.533 1150.369 27011.195 45245.586 8903.477 8153.417 8645.458 15229.102 9535.856 5048.854 27024.748 4501.384 11372.574 3502.187 7230.874 8266.575
52389.609 29783.308 5888.744 31575.346 23186.812 33516.571 28152.554 21315.924 28332.642 10457.253 21954.063 29397.474 29652.689 25613.874 25593.347 29930.481 27902.714 12649.876 26548.931 28654.363 22651.238 22097.384 10378.552 29105.879 15691.088 20347.546 24118.112 27997.929 17958.158 25027.487 11440.457 24604.969 11212.586 28226.359 29784.669 23786.450 22221.184 31027.108 28790.025 20359.685 20448.112 20799.754 28166.672 26208.153 27654.434 29278.940 22998.347 25652.780 28905.227 4093.501 31252.342 4348.347 28662.368 29345.508 30625.422 26380.093 27036.837 0.000 29849.139 16282.107 20034.019 30809.167 22055.287 29061.555 21990.639 27147.884 23920.638 15253.091 25785.360 29006.273 15593.455 25243.967 1872.606 27517.166 22230.875 27842.962 28330.835 25833.882 11044.520 24506.749 16258.015 26892.427 28457.708 11867.932 14228.224 20126.859 29412.382 29789.531 24058.181 31961.033 32360.660 29361.730 22609.481 13858.318 27813.534 1500.476 11243.760 24337.439 4453.091 31046.504 11309.150 27285.879 32300.732 11197.203 9712.439 25742.732 4505.664 27035.404 30361.622 29526.299 25530.266 23243.539 26824.207 1634.416 22228.592 24291.498 30617.825 32399.215 18235.103 19888.109 30124.800 4403.286 29419.810 34612.319 25159.290 24061.136 21496.462
59267.029 945.914 32639.450 9331.673 11686.924 17586.988 3950.962 14978.067 2697.170 22978.336 44515.566 928.772 973.185 8381.390 13161.646 8492.323 2209.873 40581.302 4318.049 2762.939 11702.896 11296.481 38309.978 1215.836 41483.184 12971.756 49910.208 3892.745 13060.489 9311.632 39371.883 15998.306 39144.012 6501.484 539.965 8041.604 43673.766 9937.566 2898.601 46151.781 12700.313 10420.145 2501.105 17402.649 3281.331 1105.422 11171.379 8859.751 1666.278 29288.679 18167.437 29543.525 1741.633 7344.372 8381.749 4600.388 4889.723 29116.744 0.000 42074.204 11094.043 4589.569 19234.786 1822.606 15837.254 4950.221 8480.110 41045.187 4402.225 3114.849 41385.551 10240.243 28274.517 3172.094 15091.504 3683.565 2668.361 9651.590 36836.617 16756.984 19198.846 10295.112 2454.105 39799.358 18980.931 16574.523 739.192 952.137 9975.043 18944.168 11271.119 1089.326 23056.256 41817.340 3055.639 28579.450 39175.186 8809.584 29648.269 8569.815 39240.576 3364.941 14758.868 39128.628 37671.461 13206.361 29456.366 5102.914 11592.941 1103.221 41378.933 49035.635 5094.962 29786.297 48020.688 7973.495 4398.227 11309.674 17651.791 13875.255 291.273 29799.850 951.109 7617.384 4925.946 11823.046 12660.118
39234.227 42404.503 11768.391 44196.540 35808.007 46137.765 40773.748 33937.118 40953.836 23078.448 8798.681 42018.669 42273.883 38235.068 38214.541 42551.676 40523.909 20455.310 39170.125 41275.557 35272.433 34718.578 19864.991 41727.074 5743.712 32968.741 14511.366 40619.123 30579.352 37648.682 20926.895 37226.164 19073.100 40847.553 42405.864 36407.644 9065.802 43648.302 41411.220 6785.978 33069.307 33420.948 40787.867 38829.347 40275.628 41900.134 35619.541 38273.974 41526.421 15671.728 43873.536 15774.505 41283.563 41966.702 43246.616 39001.288 39658.031 15850.181 42470.333 0.000 32655.214 43430.361 34676.481 41682.749 34611.833 39769.078 36541.833 1204.593 38406.555 41627.467 5825.115 37865.161 16453.239 40138.361 34852.070 40464.156 40952.029 38455.076 9386.507 37127.944 28879.209 39513.622 41078.902 19703.062 26849.419 32748.053 42033.577 42410.726 36679.376 44582.228 44981.854 41982.924 32870.204 22798.746 40434.728 14402.817 19107.246 36958.634 15879.249 43667.698 20013.974 39907.073 44921.926 19060.689 23876.968 38363.926 16083.891 39656.598 42982.816 42147.494 12374.884 11326.474 39445.401 14989.818 14144.816 36912.693 43239.019 45020.410 30856.298 32509.303 42745.994 15130.266 42041.005 47233.514 37780.484 36682.330 34117.657
61531.050 11117.796 23799.252 13194.343 13773.584 17415.793 10705.543 8087.630 9569.444 12114.543 38905.961 11167.791 11384.557 11646.108 9617.323 11549.479 10341.410 31741.104 7533.835 9802.449 13293.924 3763.698 29469.780 10876.196 32642.986 4364.217 41070.010 8969.942 2196.697 6426.546 30531.685 10628.513 30303.814 9583.007 11418.380 9897.580 39173.082 12655.345 9938.111 37311.583 3991.379 1612.304 9377.541 13590.998 8748.339 11049.257 13258.039 7051.838 10675.544 20448.481 17418.712 20703.327 10432.686 10826.666 12244.419 7200.657 7849.386 20276.546 11791.842 33234.005 0.000 14023.200 19765.858 10831.872 9009.404 7960.434 9564.483 32204.989 8201.431 10154.359 32545.353 13955.633 19434.319 8611.072 9002.582 8936.867 9567.638 13366.980 27996.418 11387.191 9321.504 8510.003 9668.576 30959.159 15597.313 16559.063 11046.093 11124.019 6774.783 18195.443 13988.897 11776.998 23223.913 32977.141 8940.031 19739.252 30334.987 10898.826 20808.071 12665.501 30400.378 8660.812 14010.143 30288.430 28831.262 9766.708 20616.167 7847.954 11989.859 11296.616 42482.164 40195.437 7636.757 20946.098 39180.490 10093.382 13831.858 14027.453 16076.740 4922.975 11739.706 20959.651 11190.127 17051.015 7597.985 7208.380 5191.629
56887.125 4407.565 33199.097 12793.324 10129.991 21014.710 3615.673 17752.546 5403.511 24742.648 42135.662 4058.897 3587.975 6537.139 15936.126 11953.973 3987.470 41140.949 7092.529 6224.590 10145.963 13060.793 38869.625 4553.118 42042.831 14837.463 50469.855 7354.396 14824.801 12086.112 39931.530 18772.786 39703.659 9716.844 3640.370 7317.556 41293.861 13365.624 6360.252 46711.428 14464.625 12184.457 5962.756 20177.129 6055.810 4235.547 9614.445 11634.230 4352.708 29848.326 21484.623 30103.172 4627.707 10806.023 11843.400 7374.867 7664.203 29676.391 3477.263 42633.850 12858.354 0.000 17420.620 4509.037 18611.734 7914.663 7756.062 41604.834 5830.612 6576.500 41945.198 7109.884 28834.164 6400.066 17865.983 7145.216 5374.702 7168.787 37396.264 19531.464 20963.158 13538.921 5596.612 40359.004 18791.066 14790.325 4076.474 4413.788 12749.523 22261.353 14699.176 3036.861 21242.090 42376.986 5830.118 29139.097 39734.832 7693.853 30207.916 12031.466 39800.223 6139.420 18076.054 39688.275 38231.108 15980.840 30016.013 8007.987 14961.215 3718.011 38999.028 49595.282 8059.405 30345.943 48580.335 7126.732 742.658 14737.732 16049.126 15639.567 3752.924 30359.497 4081.233 4751.474 5911.716 14597.526 14860.558
43518.159 19329.438 24891.000 25673.172 8673.646 32108.704 15866.260 25550.511 18984.303 18781.517 28766.695 18943.604 19173.042 11937.988 24916.886 24275.135 17376.026 32832.852 18422.645 19819.256 8138.072 19211.394 30561.528 18652.009 33734.734 20962.593 42161.759 19871.643 20813.980 21227.309 31623.433 27326.025 31395.563 21973.642 19225.438 11746.421 27924.895 25622.422 19954.918 35601.289 20589.755 18173.636 19331.565 29157.889 18980.909 18825.070 8485.180 21754.120 18451.357 21540.229 32111.624 21795.075 18208.498 23218.144 24723.248 18253.808 18970.632 21368.295 19062.330 34325.754 18847.534 17488.215 0.000 18607.685 26472.284 19771.079 12184.926 33296.737 16950.253 20171.166 33637.102 11314.121 20526.068 19390.881 26322.803 19716.677 18955.493 11904.036 29088.167 28084.703 20978.394 23310.766 19177.403 32050.908 9511.865 3255.612 18958.512 19335.661 21575.547 32888.354 26955.974 18621.928 4885.005 34068.890 18978.426 20831.000 31426.736 10588.028 21899.820 24911.314 31492.126 18450.772 28703.055 31380.179 29923.011 24961.601 21707.916 19314.416 26334.435 19072.429 25630.062 40784.288 19533.203 22037.847 40272.238 11623.524 17296.872 26994.530 4835.335 21764.697 19337.991 22051.400 18965.940 21760.213 16636.233 22350.939 21512.502
58492.676 1870.395 31746.524 9585.998 10793.998 17447.574 3058.036 14185.410 1836.375 22185.679 43741.212 335.919 591.134 7675.600 12368.990 8451.201 1316.947 39688.376 3525.393 3048.229 10809.970 10503.824 37417.052 986.225 40590.258 12072.777 49017.282 3904.328 12267.833 8518.975 38478.957 15205.650 38251.086 6149.708 1056.135 7148.678 42899.412 9798.488 3183.892 45258.855 11907.657 9627.488 2512.688 16609.992 2488.674 217.385 10278.453 8067.094 785.572 28395.753 17917.487 28650.599 1060.571 7394.210 8636.074 3807.731 4097.067 28223.818 1230.112 41181.277 10301.386 4481.000 18341.860 0.000 15044.597 4347.527 7587.184 40152.261 3503.246 3400.140 40492.625 9465.889 27381.591 2832.930 14298.847 3695.148 1807.566 8877.236 35943.691 15964.328 18406.190 9971.785 2029.476 38906.431 18088.005 15681.597 838.610 1876.618 9182.387 18694.217 11132.040 1158.593 22163.330 40924.413 2262.982 27686.524 38282.259 7916.658 28755.343 8824.140 38347.650 2572.284 14508.918 38235.702 36778.535 12413.704 28563.440 4440.851 11394.078 464.744 40604.579 48142.709 4492.269 28893.371 47127.762 7080.569 4289.658 11170.596 16758.865 13030.420 1471.130 28906.924 358.255 7508.815 4026.967 11030.389 11761.139
66945.490 15272.793 25452.385 13146.027 21104.092 12953.029 16855.201 1645.063 13733.256 13388.462 40559.094 15324.897 15540.379 18976.615 5250.987 11501.162 15448.040 33394.237 12339.089 13957.446 20624.432 8153.149 31122.913 15040.008 34296.119 6296.369 42723.143 12281.984 7088.719 7559.759 32184.818 3169.883 31956.947 11248.713 15574.202 17228.088 40826.215 12344.118 14093.108 38964.716 6820.856 9198.150 13533.363 5644.611 12912.151 15213.069 20588.547 8027.134 14839.356 22101.614 10688.800 22356.459 14596.498 10916.189 12196.103 12554.524 11659.982 21929.679 15947.663 34887.138 9188.379 19190.608 26908.213 14995.684 0.000 11248.524 16894.990 33858.122 14103.384 14309.356 34198.486 21286.140 21087.452 12654.216 1287.273 12292.583 13731.450 20697.487 29649.551 3439.530 8276.245 8463.108 13824.398 32612.292 17833.411 23889.571 15201.914 15279.016 6580.325 11397.491 13677.670 15932.819 27462.408 34630.274 13103.843 21392.385 31988.120 18229.334 22461.204 12617.185 32053.511 12824.624 11737.190 31941.563 30484.395 6388.880 22269.300 11246.398 11655.683 15460.428 44135.297 41848.570 10924.846 22599.231 40833.623 17423.889 18999.266 13716.226 22449.096 6368.682 15894.704 22612.784 15347.233 22218.423 14185.996 5771.504 5935.788
61453.276 4378.275 30026.830 6578.044 13610.084 13979.718 6559.497 10123.435 2898.291 19313.264 45133.540 4430.379 4645.861 11051.062 8307.015 4983.345 4960.876 37968.682 1851.924 3062.928 13226.150 7566.389 35697.358 4147.585 38870.564 8315.752 47297.588 1336.687 9395.418 4457.000 36759.263 11143.674 36531.392 2681.852 4679.684 9780.236 45400.660 6330.632 3198.590 43539.161 8578.150 6755.073 2638.845 12548.017 2338.357 4378.104 13094.539 4005.119 4004.391 26676.059 14306.449 26930.905 3761.533 3926.354 5628.120 2204.473 1180.388 26504.124 5053.146 39461.583 7428.971 8503.541 19688.083 4160.719 10982.622 0.000 9447.138 38432.567 4127.981 3414.838 38772.931 13010.911 25661.897 1759.698 10236.872 1347.285 2896.485 12422.258 34223.997 11902.352 15104.941 5909.810 2929.880 37186.737 16368.311 16481.289 4307.397 4384.498 5120.412 15083.179 7664.184 5038.301 23146.139 39204.719 2530.048 25966.830 36562.565 10732.744 27035.649 5816.186 36627.956 2337.460 10897.880 36516.008 35058.840 8351.729 26843.746 858.437 7926.222 4609.090 43565.179 46423.015 329.012 27173.676 45408.068 9896.655 8312.199 7702.740 15998.966 9273.395 5000.186 27187.230 4452.715 11531.356 4636.827 6968.414 8004.114
53121.846 8482.703 27154.208 14490.229 4742.907 21671.871 5165.156 15282.121 7630.739 20463.437 38370.383 8096.869 8352.083 2612.848 14648.496 13295.400 6602.109 35096.060 7537.085 7952.460 4758.879 8943.004 32824.736 7805.274 35997.942 10694.203 44424.966 8761.740 10545.590 10958.918 33886.641 17057.634 33658.770 10993.907 8484.064 864.320 37528.583 14642.687 8088.123 40666.539 10321.365 7905.246 7464.770 18889.499 7114.114 7978.334 4227.361 11317.287 7604.621 23803.437 21674.791 24058.282 7361.763 12238.409 13540.305 7470.250 8108.759 23631.502 8548.533 36588.961 8579.143 7801.796 12290.768 7760.949 16203.894 8909.206 0.000 35559.945 5083.458 8304.371 35900.309 4922.373 22789.275 7677.129 16054.413 8552.560 7628.932 4333.720 31351.374 17816.312 16819.898 13042.376 7755.805 34314.115 11885.236 9630.506 8111.777 8488.926 11307.156 22451.521 15976.239 8061.124 16112.239 36332.097 7111.631 23094.208 33689.943 1865.566 24163.027 13728.371 33755.334 6583.976 18266.222 33643.386 32186.218 14693.210 23971.123 8452.544 15897.602 8225.694 35233.750 43550.393 8982.415 24301.054 42535.446 1060.122 7610.454 16014.795 10462.982 11496.306 8824.194 24314.607 8119.205 11840.596 4769.438 12082.548 11244.112
38902.636 41373.028 10736.915 43165.065 34776.532 45106.290 39742.273 32905.643 39922.361 22046.973 8467.090 40987.193 41242.408 37203.593 37183.066 41520.201 39492.434 21177.443 38138.650 40244.082 34240.958 33687.103 20025.004 40695.598 5258.388 31937.266 14026.042 39587.648 29547.877 36617.207 21086.909 36194.689 19795.232 39816.078 41374.389 35376.169 8734.211 42616.827 40379.744 6300.653 32037.831 32389.473 39756.392 37797.872 39244.153 40868.659 34588.066 37242.499 40494.946 14640.253 42842.061 14743.030 40252.088 40935.227 42215.141 37969.812 38626.556 14818.706 41438.858 1146.805 31623.739 42398.886 33645.006 40651.274 33580.358 38737.603 35510.357 0.000 37375.080 40595.992 5339.791 36833.686 15421.764 39106.886 33820.595 39432.681 39920.554 37423.601 10065.011 36096.469 27847.734 38482.147 40047.427 20425.195 25817.943 31716.578 41002.102 41379.251 35647.901 43550.752 43950.379 40951.449 32538.613 23520.879 39403.253 13371.342 19829.379 35927.159 14847.774 42636.223 20736.107 38875.598 43890.451 19782.822 22845.493 37332.451 15052.416 38625.123 41951.341 41116.019 12043.292 10841.149 38413.926 13958.343 13659.492 35881.218 42207.544 43988.935 29824.822 31477.828 41714.519 14098.791 41009.530 46202.039 36749.009 35650.855 33086.182
58349.340 4540.693 28685.474 9788.992 9997.955 17129.337 3533.428 12807.645 2929.502 19254.024 43597.877 4158.873 4414.088 7867.896 11132.823 8594.163 3061.509 36627.326 2835.848 3251.223 9890.627 7572.169 34356.002 3867.278 37529.208 9348.839 45956.232 4060.503 9336.177 7282.808 35417.907 13827.885 35190.036 6292.670 4542.054 6119.368 42756.077 9941.450 3386.886 42197.805 8976.001 6695.833 2763.533 15373.825 2412.877 4040.339 9482.409 6830.927 3666.625 25334.703 17132.257 25589.549 3423.767 7537.172 8839.068 3118.186 3407.522 25162.768 4915.516 38120.227 7369.731 6851.085 17518.262 3822.954 13666.833 4207.969 5786.271 37091.211 0.000 3603.134 37431.575 9984.842 24320.541 2975.892 12921.082 3851.323 2927.695 9396.189 32882.640 14586.563 15474.534 8735.618 3054.568 35845.381 15026.954 14523.699 4169.767 4546.916 7864.830 17908.988 11275.002 4520.524 21188.549 37863.363 2410.394 24625.474 35221.209 7120.614 25694.293 9027.134 35286.600 1882.739 13723.688 35174.652 33717.484 11177.537 25502.390 3751.307 11355.069 4287.698 40461.244 45081.659 4156.233 25832.320 44066.712 6315.170 6659.743 11313.558 14041.375 10150.943 5012.458 25845.873 4181.209 9878.900 869.946 8781.785 9037.266
60261.022 963.437 31641.303 7836.037 12223.379 16091.352 4806.813 13482.431 1572.146 21482.700 45509.559 1936.510 2151.991 9298.379 11666.011 6996.687 3168.330 39583.155 2822.413 1267.303 12239.351 9800.845 37311.831 1654.657 40485.037 11577.515 48912.061 2397.109 11564.853 7815.996 38373.736 14502.670 38145.865 5005.849 1834.039 8578.059 44667.759 8441.930 1402.965 45153.634 11204.677 8924.509 1005.469 15907.013 1785.695 2113.159 11707.833 7364.115 1845.495 28290.532 16671.801 28545.378 1920.850 5848.737 6886.113 3104.752 3394.088 28118.597 2000.132 41076.056 9598.407 5583.562 19771.241 2001.823 14341.618 3454.585 8527.031 40047.040 3276.274 0.000 40387.404 11234.236 27276.370 1676.458 13595.868 2187.929 1570.339 10645.583 35838.470 15261.348 17703.210 8799.476 1407.513 38801.210 17982.784 17110.978 1813.527 969.660 8479.408 17448.532 9775.483 2155.189 23592.711 40819.192 1560.003 27581.303 38177.038 9346.039 28650.122 7074.180 38242.429 1869.305 13263.232 38130.481 36673.314 11710.725 28458.219 3607.279 10097.305 2115.220 42372.926 48037.488 3599.327 28788.150 47022.541 8509.950 5392.220 9814.038 17006.057 12379.619 1585.347 28801.703 1958.846 8611.377 3799.995 10327.410 11319.370
43766.273 42932.180 12092.337 44724.217 36335.684 46665.442 41301.425 34464.795 41481.513 23606.125 13731.939 42546.346 42801.560 38762.745 38742.218 43079.353 41051.586 18714.607 39697.802 41803.234 35800.110 35246.255 18124.287 42254.751 289.804 33496.418 10652.472 41146.800 31107.029 38176.359 19186.192 37753.841 14954.173 41375.230 42933.541 36935.321 13954.497 44175.979 41938.897 5363.045 33596.984 33948.625 41315.544 39357.024 40803.305 42427.811 36147.218 38801.651 42054.098 16199.405 44401.213 16302.182 41811.240 42494.379 43774.293 39528.965 40185.708 16377.858 42998.010 6375.695 33182.891 43958.038 35204.158 42210.426 35139.510 40296.755 37069.510 5821.347 38934.232 42155.144 0.000 38392.838 16980.916 40666.038 35379.747 40991.833 41479.706 38982.753 7645.803 37655.621 29406.886 40041.299 41606.579 17962.359 27377.096 33275.730 42561.254 42938.403 37207.053 45109.905 45509.531 42510.601 35758.352 21058.043 40962.405 14930.494 17366.543 37486.311 16406.926 44195.375 18273.270 40434.750 45449.603 17319.986 24351.442 38891.603 16454.785 40184.275 43510.493 42675.171 17308.142 8665.806 39973.078 15517.495 8762.951 37440.370 43766.696 45548.087 31383.975 33036.980 43273.671 15082.713 42568.682 47761.191 38308.161 37210.007 34645.334
50784.117 10812.233 28176.988 18520.728 3982.903 26382.304 7288.360 20036.910 10771.105 21659.007 36032.654 10463.565 9992.642 3568.535 19403.285 17385.931 8765.564 36118.840 11818.914 11982.960 3998.875 13697.793 33847.516 10339.692 37020.722 15448.992 45447.746 12839.058 15300.379 15713.708 34909.421 21812.424 34681.550 15084.438 10045.038 4544.774 35190.853 18733.218 12118.622 41689.319 15076.154 12660.035 11447.418 23644.288 11395.943 10512.753 3467.357 16072.076 10139.040 24826.217 26429.580 25081.063 9995.301 16328.940 17570.804 12101.252 12390.588 24654.282 9881.930 37611.741 13333.933 7134.531 11317.612 10295.368 20958.683 13191.035 4983.280 36582.725 9709.452 12334.870 36923.089 0.000 23812.055 11767.660 20809.202 12629.878 10742.296 1004.678 32374.154 22571.102 21574.687 17797.165 10964.206 35336.895 12643.978 8687.317 10481.142 10818.456 16061.946 27206.311 20066.771 9441.528 15139.083 37354.877 11197.712 24116.988 34712.723 3945.328 25185.807 17758.870 34778.114 10865.805 23021.011 34666.166 33208.998 19448.000 24993.904 12734.373 20328.809 10122.678 32896.020 44573.173 13264.244 25323.834 43558.226 4039.758 6943.189 20105.326 9946.118 16251.096 10157.591 25337.388 10485.901 11406.530 9482.422 16837.338 15998.901
52529.128 27910.703 6986.873 29702.740 21314.207 31643.965 26279.948 19443.318 26460.036 8584.648 22093.582 27524.869 27780.083 23741.268 23720.741 28057.876 26030.109 14928.725 24676.325 26781.757 20778.633 20224.778 12657.401 27233.274 15830.607 18474.941 24257.631 26125.323 16085.552 23154.882 13719.306 22732.364 13491.435 26353.753 27912.064 21913.844 22360.703 29154.502 26917.420 20499.204 18575.507 18927.148 26294.067 24335.547 25781.828 27406.334 21125.741 23780.174 27032.621 3636.102 29379.736 3834.058 26789.763 27472.902 28752.816 24507.488 25164.231 3327.260 27976.533 16421.626 18161.414 28936.561 20182.681 27188.949 20118.033 25275.278 22048.033 15392.610 23912.755 27133.667 15732.974 23371.361 0.000 25644.561 20358.270 25970.356 26458.229 23961.276 11184.039 22634.144 14385.409 25019.822 26585.102 14146.780 12355.619 18254.253 27539.777 27916.926 22185.576 30088.428 30488.054 27489.124 20736.875 15594.515 25940.928 2789.966 13522.608 22464.834 3946.525 29173.898 13587.999 25413.273 30428.126 13476.051 11448.636 23870.126 3704.299 25162.798 28489.016 27653.694 25669.785 23383.058 24951.601 4133.719 22368.111 22418.893 28745.219 30526.610 16362.498 18015.503 28252.194 4147.272 27547.205 32739.714 23286.684 22188.530 19623.857
60613.072 2618.578 30372.373 6980.800 12372.409 15236.115 5134.871 12213.501 1326.592 20213.770 45479.083 2670.681 2886.163 9626.437 10397.081 6141.449 3595.410 38314.225 1553.483 1303.230 12313.820 8531.915 36042.901 2387.887 39216.107 10308.585 47643.131 1236.868 10295.923 6547.066 37104.806 13233.741 36876.935 4018.770 2919.986 8542.561 45019.808 7586.693 1438.893 43884.704 9935.747 7655.579 879.147 14638.083 766.657 2800.205 11856.863 6095.185 2426.492 27021.602 15786.549 27276.448 2183.634 4993.499 6030.876 1835.822 2125.158 26849.667 3293.448 39807.127 8329.477 6879.668 19426.245 2582.820 13072.688 2216.589 8209.463 38778.110 2890.306 1655.141 39118.474 11586.285 26007.440 0.000 12326.938 1027.688 1324.785 10997.632 34569.540 13992.418 16434.280 7889.356 1170.182 37532.281 16713.854 16219.451 2547.699 2624.801 7210.478 16563.279 8920.245 3278.604 22884.301 39550.263 958.349 26312.373 36908.109 9495.068 27381.192 6218.942 36973.499 1099.785 12377.980 36861.551 35404.384 10441.795 27189.289 2369.283 9242.068 2849.392 42724.975 46768.558 2361.331 27519.220 45753.611 8658.980 6688.326 8958.801 15737.127 11110.689 3240.488 27532.773 2693.017 9907.482 3414.027 9058.480 10050.440
68141.143 14892.263 26648.038 12765.496 21290.796 12017.460 16474.671 2020.075 13352.726 14921.516 41754.748 14944.367 15159.848 19163.320 4201.440 11120.632 15067.510 34589.890 11958.558 13576.916 20811.136 8272.600 32318.566 14659.478 35491.772 6643.275 43918.796 11901.454 7463.731 7179.229 33380.471 2494.640 33152.600 10868.182 15193.671 17414.792 42021.868 11422.431 13712.578 40160.369 6955.485 9438.370 13152.832 5395.983 12531.620 14832.538 20775.251 7646.603 14458.825 23297.267 10343.781 23552.113 14215.967 10535.658 11815.572 12173.994 11279.452 23125.332 15567.133 36082.791 9563.391 18810.078 27283.069 14615.154 1572.545 10867.993 17081.694 35053.775 13722.853 13928.826 35394.139 21472.845 22283.105 12273.685 0.000 11912.053 13350.919 20884.191 30845.204 3134.347 9693.425 8082.578 13443.868 33807.945 19029.064 24076.275 14821.384 14898.486 6199.795 11018.588 12755.983 15552.289 28658.061 35825.927 12723.312 22588.038 33183.773 18416.038 23656.857 12236.654 33249.164 12444.094 10706.430 33137.216 31680.048 5441.635 23464.954 10865.868 10733.995 15079.898 45330.950 43044.223 10544.316 23794.884 42029.276 17610.594 18618.736 12794.538 23593.952 6715.588 15514.173 23808.438 14966.703 21837.893 13805.466 5390.974 6070.416
61578.981 3201.268 30932.151 5956.495 13384.572 14211.810 6100.781 11424.370 2299.578 20551.852 46038.861 3636.591 3852.073 10592.346 9607.950 5117.144 4561.320 38874.003 1901.137 1885.920 13325.983 8867.324 36602.679 3353.797 39775.885 9616.687 48202.909 396.144 10634.006 5757.935 37664.584 12444.610 37436.713 3114.983 3885.896 9554.724 45985.718 6562.388 2021.583 44444.482 9879.085 7993.661 1845.057 13848.952 1778.821 3766.115 12869.027 5306.054 3392.402 27581.380 14792.259 27836.226 3149.544 3969.194 5006.571 2277.903 1394.849 27409.445 4237.963 40366.905 8667.559 7821.393 19986.023 3548.730 12283.557 1453.619 9221.627 39337.888 3902.469 2237.831 39678.252 12552.195 26567.218 1041.214 11537.807 0.000 2297.771 11963.542 35129.318 13203.288 16405.876 6919.934 2136.092 38092.059 17273.632 16779.229 3513.609 3207.490 6421.347 15568.990 7895.940 4244.514 23444.079 40110.040 1970.513 26872.151 37467.887 10507.232 27940.970 5194.637 37533.277 2111.948 11383.690 37421.329 35964.162 9652.664 27749.067 1606.313 8217.762 3815.302 43690.885 47328.336 1598.361 28078.998 46313.389 9671.143 7630.050 7934.496 16296.905 10574.331 3823.178 28092.551 3658.927 10849.207 4426.190 8269.349 9305.050
59722.075 2236.994 30732.465 8124.268 11592.924 15930.262 4243.875 12609.550 362.323 20609.819 44970.612 1960.669 2204.532 8735.440 10793.130 6933.889 2637.340 38674.317 1949.532 1586.499 11534.335 8927.964 36402.993 1669.075 39576.199 10704.634 48003.223 2400.229 10691.972 6943.115 37464.898 13629.790 37237.027 4632.396 2238.355 7763.076 44128.812 8281.176 1722.161 44244.796 10331.796 8051.628 1098.809 15034.132 917.912 1842.135 11077.379 6491.234 1468.422 27381.694 16400.174 27636.540 1225.564 5876.898 7174.344 2231.871 2521.207 27209.759 2611.817 40167.219 8725.526 5967.573 19140.786 1624.750 13468.737 2830.215 7429.978 39138.202 2401.035 1938.409 39478.566 10695.289 26367.532 1315.617 12722.987 2191.049 0.000 10106.636 34929.632 14388.467 16830.329 8395.925 918.795 37892.373 17073.946 16480.523 1866.068 2243.217 7606.527 17176.905 9614.728 2596.973 22962.256 39910.354 745.670 26672.465 37268.201 8715.584 27741.284 7362.410 37333.591 996.424 12991.605 37221.643 35764.476 10837.844 27549.381 2864.991 9876.766 2089.495 41833.979 47128.650 2974.957 27879.312 46113.703 7879.495 5776.230 9653.283 16088.367 11506.738 2708.759 27892.865 1983.006 8995.387 2920.086 9454.529 10446.489
51408.823 10291.782 28801.694 18000.278 4607.609 25861.854 6767.909 19516.459 10250.655 22283.713 36657.360 9943.114 9472.192 3048.084 18882.835 16865.481 8245.114 36743.546 11298.463 11462.509 4623.581 13177.342 34472.222 9819.242 37645.428 14928.541 46072.452 12318.607 14779.929 15193.257 35534.127 21291.973 35306.256 14563.988 9524.587 4024.324 35815.560 18212.768 11598.171 42314.025 14555.704 12139.585 10926.967 23123.837 10875.493 9992.302 4092.063 15551.625 9618.589 25450.923 25909.129 25705.769 9474.851 15808.490 17050.354 11580.802 11870.138 25278.988 9361.479 38236.447 12813.482 7226.128 11942.318 9774.918 20438.233 12670.585 4462.830 37207.431 9189.002 11814.419 37547.795 1072.881 24436.761 11247.209 20288.752 12109.427 10221.845 0.000 32998.861 22050.651 21054.237 17276.714 10443.755 35961.601 13268.684 9312.023 9960.691 10298.005 15541.495 26685.860 19546.320 8921.077 15763.789 37979.583 10677.262 24741.694 35337.429 3424.877 25810.513 17238.420 35402.820 10345.355 22500.560 35290.872 33833.704 18927.549 25618.610 12213.922 19808.358 9602.228 33520.726 45197.879 12743.794 25948.540 44182.932 3519.307 7034.785 19584.875 10570.824 15730.645 9637.140 25962.094 9965.450 11498.126 8961.971 16316.887 15478.450
46070.985 35451.263 4815.151 37243.301 28854.767 39184.526 33820.509 26983.878 34000.596 16125.208 15635.439 35065.429 35320.644 31281.829 31261.301 35598.436 33570.669 15116.340 32216.886 34322.318 28319.193 27765.339 13426.578 34773.834 7168.415 26015.501 15595.439 33665.884 23626.112 30695.442 14488.483 30272.924 13734.129 33894.314 35452.624 29454.405 15902.559 36695.063 34457.980 11837.012 26116.067 26467.709 33834.627 31876.108 33322.389 34946.895 28666.301 31320.734 34573.182 8718.488 36920.296 8821.265 34330.323 35013.463 36293.377 32048.048 32704.791 8896.942 35517.094 9199.335 25701.974 36477.122 27723.242 34729.510 27658.594 32815.839 29588.593 8934.466 31453.315 34674.228 7070.782 30911.922 9499.999 33185.121 27898.830 33510.917 33998.790 31501.837 0.000 30174.704 21925.970 32560.382 34125.663 14364.092 19896.179 25794.814 35080.337 35457.486 29726.136 37628.988 38028.615 35029.684 28277.436 16959.859 33481.488 7449.577 13768.276 30005.394 8926.010 36714.459 14357.176 32953.834 37968.687 13721.719 16923.728 31410.687 8973.869 32703.359 36029.577 35194.254 19211.641 14720.866 32492.162 8036.578 13705.919 29959.453 36285.780 38067.170 23903.058 25556.064 35792.755 7601.796 35087.765 40280.274 30827.245 29729.091 27164.417
70492.789 16126.208 28999.684 12826.368 23024.995 10099.511 17708.616 5043.640 14586.671 16938.267 44106.394 16178.312 16393.794 20897.519 4075.270 11635.901 16301.455 36941.536 13192.503 14810.861 22545.335 10033.356 34670.212 15893.423 37843.418 8404.030 46270.443 13135.399 10024.371 8413.174 35732.117 1423.953 35504.247 12088.269 16427.616 19148.991 44373.515 11326.584 14946.523 42512.015 8716.241 11199.125 14386.778 2805.371 13765.566 16066.484 22509.450 8866.690 15692.771 25648.913 7835.282 25903.759 15449.912 11050.927 12010.526 13407.939 12513.397 25476.979 16801.078 38434.438 11652.668 20044.023 29017.268 15849.099 3973.079 12101.939 18815.893 37405.421 14956.798 15162.771 37745.786 23207.043 24634.752 13507.630 4058.874 13145.998 14584.864 22618.390 33196.851 0.000 11826.050 8596.425 14677.813 36159.592 21380.710 25810.474 16055.329 16132.431 7756.667 8543.973 12660.137 16786.234 31009.707 38177.574 13957.257 24939.684 35535.420 20150.237 26008.504 12751.923 35600.810 13678.039 8883.672 35488.863 34031.695 5345.789 25816.600 12099.813 10536.698 16313.843 47682.597 45395.870 11778.261 26146.531 44380.922 19344.792 19852.681 12698.692 25328.150 8476.343 16748.118 26160.084 16200.648 23071.838 15039.411 7007.038 7831.172
61705.897 18649.723 19880.428 18436.019 21415.322 20047.064 18237.469 8107.727 17101.371 6221.777 34987.138 18699.718 18916.484 19287.846 12385.150 16791.155 17873.337 27822.280 15065.762 17334.375 20935.662 9392.157 25550.956 18408.123 28724.162 7139.349 37151.186 15900.776 7214.718 11888.161 26612.861 11396.773 26384.990 15087.033 18950.307 17539.318 35254.258 17887.781 17470.038 33392.759 7239.915 9509.381 16909.468 12378.527 16280.266 18581.184 20899.777 12513.453 18207.470 16529.657 17128.505 16784.503 17964.612 16206.181 17486.095 14732.584 15278.774 16357.722 19323.769 29315.181 9314.378 21555.127 21668.621 18363.799 8776.727 14867.315 17206.221 28286.165 15733.358 17686.286 28626.529 21597.371 15515.495 16142.998 9022.679 15911.374 17099.564 21008.718 24077.595 11292.838 0.000 13753.101 17200.503 27040.335 12593.818 19101.260 18578.020 18655.946 10918.855 17803.313 19221.333 19308.924 22222.815 29058.317 16471.957 15820.428 26416.163 18540.564 16889.247 17907.177 26481.554 16192.739 19042.579 26369.606 24912.439 12534.535 16697.344 14865.189 17222.295 18828.543 38563.340 36276.613 14543.638 17027.274 35261.666 17735.120 21363.785 19259.889 17209.504 6679.912 19271.633 17040.828 18722.054 24582.942 15129.912 10852.939 8288.265
65450.039 9800.956 31877.657 5635.000 17697.322 9754.605 11598.123 8448.205 8367.204 20192.949 46984.367 9958.844 10174.326 15567.263 4663.061 3990.136 10081.987 39819.509 6973.036 8459.581 17222.914 7683.573 37548.185 9673.955 40721.391 8186.004 49148.416 6915.932 10275.102 4114.943 38610.090 7649.584 38382.219 4457.739 10208.149 13818.736 47251.488 4564.515 8595.244 45389.988 8448.402 8444.905 8167.310 8784.425 7546.098 9847.016 17181.777 3703.966 9473.303 28526.886 9757.525 28781.732 9230.445 3405.162 4685.076 7188.471 6293.929 28354.952 10581.611 41312.411 9118.802 13824.556 23684.847 9629.631 9208.518 5882.471 13485.638 40283.394 8846.305 8837.519 40623.758 17876.788 27512.725 7288.163 8462.768 6926.530 8365.397 17288.135 36074.824 8341.206 14975.193 0.000 8458.345 39037.565 19692.929 20478.053 9835.862 9807.179 4512.430 10534.255 5898.067 10566.766 27142.902 41055.547 7737.790 27817.657 38413.393 14819.982 28886.477 5106.158 38478.783 7458.572 6348.956 38366.836 36909.668 3994.980 28694.573 5880.345 3980.337 10094.376 47561.943 48273.843 5558.794 29024.504 47258.895 14014.537 13633.213 5936.623 19995.729 9143.648 10422.866 29038.057 9981.180 16852.370 8928.918 5874.364 7874.367
59664.805 1970.359 30917.603 7712.882 11603.170 15968.197 4186.605 12758.731 386.549 20759.000 44913.342 1722.415 1937.897 8678.170 10942.310 6873.532 2647.144 38859.455 2098.713 1175.114 11619.143 9077.145 36588.131 1439.621 39761.337 10853.815 48188.361 2031.212 10841.153 7092.296 37650.036 13778.970 37422.165 4723.028 1971.719 7957.850 44071.542 8318.775 1310.776 44429.934 10480.977 8200.809 639.572 15183.313 1061.995 1851.939 11087.625 6640.415 1478.225 27566.832 16490.807 27821.678 1235.367 5725.582 6762.958 2381.052 2670.387 27394.897 2345.181 40352.356 8874.706 5931.401 19151.032 1634.554 13617.918 2920.848 7803.331 39323.340 2552.573 1527.024 39663.704 10638.019 26552.670 1310.561 12872.168 1822.032 384.742 10049.366 35114.769 14537.648 16979.510 8545.105 0.000 38077.510 17259.083 16490.770 1599.432 1976.582 7755.707 17267.538 9652.328 2330.337 22972.503 40095.492 836.303 26857.603 37453.338 8725.830 27926.422 6951.024 37518.729 1145.604 13082.238 37406.781 35949.613 10987.025 27734.518 3014.172 9967.399 1901.126 41776.709 47313.788 3065.589 28064.449 46298.841 7889.741 5740.059 9690.883 16282.357 11655.919 2442.124 28078.002 1744.751 8959.216 3076.294 9603.710 10595.670
57071.169 40613.232 10918.432 42405.269 34016.736 44346.494 38982.477 32145.847 39162.565 21287.177 26955.465 40227.397 40482.612 36443.797 36423.270 40760.405 38732.637 1200.641 37378.854 39484.286 33481.161 32927.307 5392.442 39935.802 18172.083 31177.469 23722.329 38827.852 28788.081 35857.410 5152.773 35434.893 5203.953 39056.282 40614.592 34616.373 27189.302 41857.031 39619.948 22840.680 31278.035 31629.677 38996.596 37038.076 38484.357 40108.863 33828.270 36482.703 39735.150 14727.987 42082.265 14914.876 39492.292 40175.431 41455.345 37210.016 37866.760 12576.588 40679.062 19581.034 30863.942 41639.090 32885.210 39891.478 32820.562 37977.807 34750.561 20254.492 36615.284 39836.196 18074.450 36073.890 13530.663 38347.090 33060.799 38672.885 39160.758 36663.805 13523.659 35336.673 27087.938 37722.350 39287.631 0.000 25058.147 30956.782 40242.305 40619.455 34888.105 42790.956 43190.583 40191.653 33439.404 6620.627 38643.457 12342.739 1970.174 35167.362 15019.621 41876.427 2628.652 38115.802 43130.655 2070.201 13270.633 36572.655 15140.150 37865.327 41191.545 40356.222 30531.668 22847.756 37654.130 11421.834 21909.357 35121.421 41447.748 43229.138 29065.026 30718.032 40954.723 14363.219 40249.733 45442.242 35989.213 34891.059 32326.385
51097.198 18746.491 16794.496 22427.930 10355.382 27820.417 16777.873 17446.291 17628.266 10276.516 31901.206 18360.657 18615.871 12877.465 20520.748 20783.066 16865.897 24736.348 15855.978 17949.987 9819.808 14815.255 22465.024 18069.062 25638.230 16477.913 34065.255 17304.976 14133.108 16831.170 23526.929 20735.337 23299.059 18748.302 18747.852 12412.149 32168.327 22130.353 18085.650 30306.827 16193.617 13777.498 17462.297 22338.520 16961.481 18242.122 10166.916 17456.462 17868.409 13443.725 27382.709 13698.571 17625.551 19992.805 21478.006 15687.140 16403.964 13271.791 18812.321 26229.250 14451.395 18590.023 10478.309 18024.738 18121.006 16747.344 12546.337 25200.233 15080.985 18301.898 25540.598 12406.168 12429.564 16824.213 18361.243 17150.009 17626.459 12996.083 20991.663 20637.117 12323.366 18914.627 17753.332 23954.404 0.000 7271.515 18375.565 18752.714 17179.408 28091.400 23463.905 18324.912 11614.116 25972.386 17109.158 12734.496 23330.232 11499.641 13803.316 21899.088 23395.622 16581.503 24414.768 23283.675 21826.507 20565.462 13611.412 16634.864 22166.466 18489.482 33209.101 33190.682 16423.667 13941.343 32175.734 12535.137 18398.680 23502.461 5379.759 16018.476 19087.982 13954.896 18382.993 22862.021 14454.914 17954.800 17116.363
45369.393 16652.032 22901.565 22457.477 5996.240 28893.010 13188.854 22334.816 16306.897 16764.528 30617.930 16266.198 16521.413 9260.582 21701.192 21059.440 14698.621 30843.417 15206.951 17141.850 5460.666 15995.699 28572.093 15974.603 31745.299 17746.898 40172.324 16655.949 17598.286 18011.614 29633.998 24110.330 29406.128 18757.947 16575.098 9069.015 29776.130 22406.727 17277.512 36413.896 17374.061 14957.942 16654.159 25942.194 16303.503 16147.664 5807.774 18538.425 15773.951 19550.794 28895.929 19805.640 15531.092 20002.449 21507.553 15038.113 15754.937 19378.860 16411.991 32336.319 15631.839 14837.876 3604.201 15930.279 23256.589 16555.384 9507.520 31307.302 14272.847 17493.760 31647.667 8663.782 18536.633 16175.186 23107.108 16500.982 16278.087 9253.697 27098.732 24869.008 18811.378 20095.071 16499.997 30061.473 7344.848 0.000 16281.106 16658.255 18359.852 29672.660 23740.279 15971.589 7270.381 32079.455 16301.020 18841.565 29437.301 7910.622 19910.385 21695.619 29502.691 15773.366 25487.360 29390.744 27933.576 21745.906 19718.481 16098.722 23118.741 16395.023 27481.297 39297.751 16317.509 20048.412 38282.803 8946.118 14646.533 23778.835 2203.506 18549.002 16687.652 20061.965 16288.534 19109.874 13805.887 19135.244 18296.807
58836.024 1267.625 32169.654 9495.963 11217.128 17751.278 3481.167 14548.121 2199.086 22548.391 44084.560 458.977 648.188 7911.594 12731.701 8656.612 1740.077 40111.506 3888.104 2927.228 11233.101 10866.536 37840.182 571.714 41013.388 12473.672 49440.413 4057.035 12630.544 8881.687 38902.087 15568.361 38674.217 6512.419 481.270 7571.808 43242.760 10101.856 3062.891 45681.985 12270.368 9990.200 2665.395 16972.704 2851.386 635.626 10701.583 8429.805 1168.194 28818.883 18280.198 29073.729 1243.772 7508.662 8546.039 4170.442 4459.778 28646.949 854.732 41604.408 10664.097 4641.692 18764.990 1324.522 15407.309 4710.238 8010.314 40575.391 3904.141 3279.139 40915.756 9809.238 27804.722 3195.641 14661.559 3847.855 2170.277 9220.584 36366.821 16327.039 18768.901 10334.496 2392.187 39329.562 18511.135 16104.728 0.000 1273.848 9545.098 19056.928 11435.408 1030.631 22586.461 41347.544 2625.694 28109.654 38705.390 8339.788 29178.474 8734.105 38770.780 2934.995 14871.629 38658.833 37201.665 12776.416 28986.570 4803.563 11756.790 637.687 40947.927 48565.840 4854.980 29316.501 47550.892 7503.699 4450.350 11473.963 17181.995 13431.316 951.674 29330.054 481.313 7669.507 4427.862 11393.101 12162.034
59324.946 544.843 32532.718 9025.178 11901.445 17280.493 4308.961 14671.572 2440.765 22671.841 44573.483 1286.771 1331.184 8739.388 12855.152 8185.828 2567.871 40474.570 4011.554 2456.444 11917.417 10989.986 38203.246 1332.723 41376.452 12766.656 49803.476 3586.250 12753.994 9005.137 39265.151 15691.811 39037.280 6194.990 897.963 8256.124 43731.682 9631.071 2592.106 46045.049 12393.818 10113.650 2194.610 17096.154 2974.836 1463.420 11385.899 8553.256 1523.560 29181.946 17860.942 29436.792 1598.916 7037.878 8075.254 4293.893 4583.229 29010.012 1064.056 41967.471 10787.548 4647.486 19449.306 1679.889 15530.759 4643.726 8694.630 40938.455 4259.508 2808.354 41278.819 10298.160 28167.785 2865.599 14785.009 3377.070 2411.956 9709.507 36729.884 16450.489 18892.351 9988.617 2147.610 39692.625 18874.198 16789.044 1097.190 0.000 9668.549 18637.673 10964.624 1219.113 23270.777 41710.607 2749.144 28472.718 39068.453 9024.104 29541.537 8263.321 39133.843 3058.446 14452.373 39021.896 37564.728 12899.866 29349.633 4796.420 11286.446 1461.220 41436.849 48928.903 4788.468 29679.564 47913.956 8188.016 4456.143 11003.179 17545.058 13568.760 649.271 29693.117 1309.107 7675.300 4783.229 11516.551 12508.511
63974.222 9312.844 27968.252 8114.856 16216.756 12336.306 10895.253 5645.845 7773.308 16283.544 43074.962 9364.948 9580.430 14089.280 4038.817 6469.992 9488.091 35910.104 6379.140 7997.497 15737.096 4050.935 33638.780 9080.060 36811.986 4276.600 45239.011 6322.036 6365.697 1599.810 34700.685 6666.085 34472.815 5403.979 9614.253 12340.752 43342.083 7575.858 8133.160 41480.583 4538.997 5935.345 7573.414 8279.820 6952.202 9253.120 15701.211 2152.250 8879.407 24617.481 12039.453 24872.327 8636.549 5885.018 7164.932 6594.576 5700.034 24445.547 9987.715 37403.006 6454.995 13230.660 22209.029 9035.735 6505.033 5288.575 12007.654 36373.989 8143.435 8349.408 36714.354 16398.805 23603.320 6694.267 5759.283 6332.634 7771.501 15810.151 32165.419 7424.763 11065.788 3430.516 7864.449 35128.160 18040.485 19002.235 9241.966 9319.067 0.000 12748.144 8909.411 9972.871 25667.085 37146.142 7143.894 23908.252 34503.988 13341.998 24977.072 7586.014 34569.378 6864.676 8930.656 34457.431 33000.263 4083.532 24785.168 5286.449 6910.373 9500.480 46086.125 44364.438 4964.898 25115.099 43349.490 12536.554 13039.318 8947.966 18519.912 5234.243 9934.755 25128.652 9387.284 16258.474 8226.047 2119.983 3964.962
74850.605 18591.474 36256.656 12805.570 27097.888 4575.337 20998.688 12607.061 17603.976 23101.300 51363.366 19136.063 19351.545 24967.829 9983.541 11701.165 19482.552 44198.508 16373.601 17250.100 26623.479 15896.944 41927.184 18853.269 45100.390 15055.669 53527.414 16042.371 17125.958 12962.723 42989.089 8965.977 42761.218 13315.605 19385.368 23219.301 51630.486 10895.366 17385.762 49768.987 15318.067 17292.685 17344.529 7050.562 16946.663 19083.788 26582.342 12582.721 18710.075 32905.885 1180.887 33160.731 18467.217 12195.681 11989.729 16589.037 15694.495 32733.950 19628.169 45691.409 17966.582 23209.226 33085.412 18866.404 11576.899 15283.036 22886.203 44662.393 18246.870 17628.037 45002.757 27277.354 31891.723 16465.382 11602.407 16052.970 17602.169 26688.700 40453.823 8900.030 17989.083 10810.218 17635.565 43416.563 28637.682 29878.618 19013.081 18597.697 12635.156 0.000 9488.934 19743.986 36543.468 45434.545 17138.355 32196.656 42792.391 24220.547 33265.475 13036.346 42857.782 16859.137 5301.924 42745.834 41288.667 9625.156 33073.572 15280.910 8375.605 19314.774 54939.568 52652.841 14959.359 33403.502 51637.894 23415.103 23017.884 9390.571 29396.294 15577.930 19213.384 33417.056 19158.400 26237.041 18329.483 12903.481 14432.998
68773.008 10472.459 36334.358 4227.269 20608.997 7172.624 13444.733 12904.906 9563.180 24649.650 51441.068 11095.268 11310.750 17936.298 9119.761 3336.358 11838.198 44276.210 8901.353 9131.085 20545.882 12108.919 42004.886 10812.474 45178.092 12642.705 53605.116 8001.576 14731.803 8540.290 43066.791 12106.284 42838.920 5480.253 11343.062 16779.149 51708.189 1961.028 9266.748 49846.689 12905.103 12870.251 9303.734 11399.694 9003.246 11042.993 20093.452 8160.287 10669.280 32983.587 8171.421 33238.433 10426.422 3995.951 3603.836 9278.119 8392.771 32811.652 11509.154 45769.112 13544.149 15092.584 27007.816 10825.608 13665.219 7651.076 16446.051 44740.095 11126.894 9509.022 45080.459 19896.147 31969.425 8424.587 12919.469 8012.174 9561.374 19307.493 40531.525 12122.651 19431.894 6056.218 9594.769 43494.266 23688.043 23801.021 10972.285 10478.682 8937.776 8948.152 0.000 11664.211 30465.871 45512.247 9194.937 32274.358 42870.094 17731.657 33343.177 4587.131 42935.484 9336.373 4887.593 42823.536 41366.369 8451.680 33151.274 8252.387 3219.336 11273.979 50884.911 52730.543 7829.729 33481.205 51715.596 16895.568 14901.242 403.131 23318.698 13600.349 11094.370 33494.758 11117.604 18120.399 11650.615 10331.065 12331.068
58518.511 1417.712 32168.475 9803.471 11215.949 18058.786 3479.987 15261.993 2912.958 23262.262 43767.047 1029.473 558.551 7894.666 13445.573 8964.120 1738.897 40110.327 4601.975 3234.737 11231.921 11580.407 37839.003 1523.694 41012.209 13149.359 49439.233 4364.543 13344.415 9595.558 38900.908 16282.232 38673.037 6973.282 610.946 7570.628 42925.247 10409.364 3370.399 45680.806 12984.239 10704.071 2972.903 17686.575 3565.257 1206.123 10700.403 9143.677 1862.155 28817.704 18639.235 29072.550 2137.154 7816.170 8853.547 4884.314 5173.650 28645.769 487.409 41603.228 11377.969 3841.050 18763.811 2018.483 16121.180 5422.018 8009.134 40574.212 4497.852 3586.647 40914.576 9491.724 27803.542 3643.892 15375.430 4155.363 2884.149 8903.071 36365.641 17040.910 19482.772 10766.910 2925.902 39328.382 18509.955 16103.548 1047.050 1423.935 10258.970 19415.965 11742.916 0.000 22585.281 41346.364 3339.565 28108.475 38704.210 8338.608 29177.294 9041.613 38769.601 3648.867 15230.666 38657.653 37200.485 13490.287 28985.391 5517.434 12064.738 688.587 40630.414 48564.660 5566.760 29315.321 47549.713 7502.520 3649.708 11781.472 17180.815 14107.003 763.070 29328.875 1051.809 6868.865 4578.956 12106.972 12837.722
42097.136 23211.896 25473.269 29243.887 12556.104 35679.419 19748.717 27216.073 22866.760 19363.785 27345.673 22826.062 23055.500 15820.446 28487.602 27845.850 21258.484 33415.121 21993.361 23701.713 12020.530 22782.109 31143.797 22534.467 34317.003 24533.308 42548.158 23442.359 23902.890 24798.024 32205.702 30505.119 31977.831 25544.357 23107.895 15628.878 26503.873 29193.137 23837.376 34180.267 24160.470 21744.351 23214.023 32108.302 22863.367 22707.527 12367.638 25324.835 22333.814 22122.498 35682.339 22377.344 22090.956 26788.859 28293.963 21824.523 22541.347 21950.563 22944.787 33592.968 22418.249 21370.672 4800.946 22490.143 27890.788 23341.794 16067.384 33677.584 20832.711 24053.624 34219.370 15196.579 21108.336 22961.596 28131.025 23287.392 22837.951 15786.494 29670.436 30406.899 22093.149 26881.481 23059.861 32633.176 11920.234 7011.559 22840.970 23218.119 25146.262 36459.070 30526.689 22504.385 0.000 34651.158 22860.884 21413.269 32009.004 14470.485 22482.088 28482.029 32074.395 22333.229 32273.770 31962.447 30505.280 28532.316 22290.185 22885.131 29905.151 22954.887 24209.040 39363.266 23103.919 22620.115 40854.507 15505.982 21179.330 30565.245 8080.020 25335.412 23220.448 22633.669 22848.398 25642.671 20518.691 25921.654 25083.217
59518.181 41417.335 12882.494 43209.372 34820.839 45150.598 39786.581 32949.950 39966.668 22091.280 29402.478 41031.501 41286.716 37247.900 37227.373 41564.508 39536.741 6435.547 38182.957 40288.389 34285.265 33731.411 4509.216 40739.906 20619.095 31981.573 27314.896 39631.955 29592.184 36661.514 2633.258 36238.996 9640.459 39860.386 41418.696 35420.477 29636.315 42661.134 40424.052 25287.692 32082.139 32433.780 39800.699 37842.179 39288.460 40912.966 34632.373 37286.806 40539.253 15532.091 42886.368 15786.936 40296.395 40979.535 42259.448 38014.120 38670.863 13380.691 41483.165 22028.046 31668.046 42443.194 33689.313 40695.582 33624.665 38781.911 35554.665 22701.505 37419.387 40640.300 20521.462 36877.993 13785.170 39151.193 33864.902 39476.989 39964.861 37467.908 15970.671 36140.776 27892.041 38526.454 40091.734 5463.024 25862.251 31760.885 41046.409 41423.558 35692.208 43595.060 43994.687 40995.756 34243.508 0.000 39447.560 13146.842 4646.695 35971.466 15891.681 42680.530 3825.390 38919.905 43934.758 4600.138 9580.264 37376.759 15944.254 38669.431 41995.649 41160.326 32978.680 26440.323 38458.233 12225.938 25501.924 35925.525 42251.851 44033.242 29869.130 31522.136 41758.826 15669.280 41053.837 46246.346 36793.316 35695.162 33130.489
60349.080 2610.788 30237.816 7398.491 12080.518 15184.592 4870.880 12078.944 989.328 20079.213 45344.526 2587.675 2814.766 9362.445 10262.524 6188.219 3264.345 38179.668 1418.927 1295.441 12021.929 8397.358 35908.344 2296.080 39081.550 10174.029 47508.575 1654.559 10161.367 6412.510 36970.249 13099.184 36742.379 3886.726 2848.589 8250.671 44755.817 7535.506 1431.103 43750.147 9801.191 7521.022 807.750 14503.526 441.662 2469.140 11564.973 5960.628 2095.427 26887.045 15654.504 27141.891 1852.569 5131.228 6448.567 1701.265 1990.601 26715.111 3222.051 39672.570 8194.920 6594.578 19291.688 2251.755 12938.131 2084.545 7917.573 38643.553 2611.874 1647.351 38983.918 11322.294 25872.884 569.947 12192.381 1445.379 987.521 10733.641 34434.983 13857.862 16299.724 7757.311 1098.786 37397.724 16579.297 16084.894 2476.302 2617.011 7075.921 16431.235 8869.058 3207.207 22749.744 39415.706 0.000 26177.816 36773.552 9203.178 27246.636 6636.634 36838.942 821.354 12245.936 36726.995 35269.827 10307.238 27054.732 2237.239 9131.096 2716.500 42460.984 46634.002 2229.287 27384.663 45619.054 8367.089 6403.235 8907.614 15602.571 10976.132 3232.698 27398.216 2610.011 9622.392 3135.595 8923.923 9915.884
51559.078 28752.682 5961.146 30544.719 22156.186 32485.944 27121.927 20285.297 27302.015 9426.627 21123.532 28366.847 28622.062 24583.247 24562.720 28899.855 26872.087 13634.431 25518.304 27623.736 21620.612 21066.757 11363.107 28075.252 14860.556 19316.919 23287.580 26967.302 16927.531 23996.860 12425.012 23574.343 12197.141 27195.732 28754.043 22755.823 21390.652 29996.481 27759.398 19529.153 19417.485 19769.127 27136.046 25177.526 26623.807 28248.313 21967.720 24622.153 27874.600 2867.437 30221.715 3122.283 27631.742 28314.881 29594.795 25349.466 26006.210 1500.294 28818.512 15451.575 19003.392 29778.540 21024.660 28030.928 20960.012 26117.257 22890.011 14422.559 24754.734 27975.646 14762.923 24213.340 2050.422 26486.540 21200.249 26812.335 27300.208 24803.255 10213.989 23476.123 15227.388 25861.800 27427.081 12852.486 13197.597 19096.232 28381.755 28758.905 23027.555 30930.406 31330.033 28331.103 21578.854 14896.387 26782.907 0.000 12228.315 23306.813 3227.027 30015.877 12293.705 26255.252 31270.105 12181.757 10929.714 24712.105 3279.601 26004.777 29330.995 28495.672 24699.734 22413.007 25793.580 2779.812 21398.060 23260.871 29587.198 31368.589 17204.476 18857.482 29094.173 3177.222 28389.183 33581.692 24128.663 23030.509 20465.835
56400.260 39223.706 10247.523 41015.743 32627.210 42956.969 37592.952 30756.321 37773.039 19897.651 26284.557 38837.872 39093.087 35054.271 35033.744 39370.879 37343.112 2478.844 35989.328 38094.760 32091.636 31537.782 3745.571 38546.277 17501.174 29787.944 24002.621 37438.326 27398.555 34467.885 3530.353 34045.367 5484.245 37666.757 39225.067 33226.848 26518.394 40467.505 38230.423 22169.771 29888.510 30240.151 37607.070 35648.550 37094.831 38719.338 32438.744 35093.177 38345.624 13338.462 40692.739 13593.308 38102.766 38785.906 40065.819 35820.491 36477.234 11187.062 39289.536 18910.125 29474.417 40249.565 31495.684 38501.953 31431.036 36588.282 33361.036 19583.584 35225.758 38446.671 17403.541 34684.364 11883.791 36957.564 31671.273 37283.360 37771.232 35274.279 12852.750 33947.147 25698.412 36332.825 37898.105 1360.205 23668.622 29567.256 38852.780 39229.929 33498.579 41401.431 41801.058 38802.127 32049.879 4998.207 37253.931 10953.214 0.000 33777.837 13698.052 40486.901 1213.375 36726.276 41741.129 101.620 11623.762 35183.130 13750.625 36475.802 39802.020 38966.697 29860.759 23128.048 36264.604 10032.309 22189.649 33731.896 40058.222 41839.613 27675.501 29328.507 39565.198 13475.652 38860.208 44052.717 34599.687 33501.534 30936.860
51802.972 8741.411 27589.744 15858.637 3424.032 23040.279 5278.232 16650.529 8396.275 21071.764 37051.508 8355.576 8610.791 2147.009 16016.904 14663.808 6787.999 35531.596 8905.493 9320.868 3440.004 10311.412 33260.272 8063.981 36433.478 12062.611 44860.502 10130.148 11913.998 12327.326 34322.177 18426.042 34094.306 12362.315 8742.772 1158.393 36209.708 16011.095 9456.531 41102.075 11689.773 9273.654 8833.178 20257.907 8482.522 8237.042 2908.487 12685.695 7863.329 24238.973 23043.199 24493.819 7620.471 13606.817 14908.713 8838.658 9477.167 24067.038 8734.423 37024.498 9947.551 7914.873 10971.894 8019.657 17572.302 10277.614 1596.899 35995.481 6451.866 9672.779 36335.845 4335.308 23224.811 9045.537 17422.821 9920.968 8367.466 3746.655 31786.911 19184.720 18188.306 14410.784 8589.375 34749.652 12056.734 8311.631 8370.484 8747.634 12675.564 23819.929 17344.647 8247.014 14793.364 36767.633 8480.039 23529.744 34125.480 0.000 24598.563 15096.779 34190.870 7952.384 19634.630 34078.922 32621.755 16061.618 24406.660 9820.952 17266.010 8484.402 33914.875 43985.929 10350.823 24736.591 42970.982 1035.496 7723.530 17383.203 9406.908 12864.714 9010.084 24750.144 8377.913 11953.673 6137.846 13450.956 12612.520
51730.318 28127.693 6264.999 29919.730 21531.197 31860.956 26496.939 19660.308 26677.026 8801.638 21294.772 27741.859 27997.074 23958.259 23937.731 28274.866 26247.099 14795.752 24893.315 26998.748 20995.623 20441.769 12524.428 27450.264 15031.797 18691.931 23458.821 26342.313 16302.542 23371.872 13586.333 22949.354 13358.463 26570.744 28129.054 22130.835 21561.893 29371.492 27134.410 19700.394 18792.497 19144.139 26511.057 24552.537 25998.818 27623.325 21342.731 23997.164 27249.611 484.184 29596.726 413.959 27006.753 27689.893 28969.806 24724.478 25381.221 4163.956 28193.523 15622.816 18378.404 29153.552 20399.671 27405.940 20335.023 25492.269 22265.023 14593.800 24129.745 27350.658 14934.164 23588.351 3877.319 25861.551 20575.260 26187.347 26675.219 24178.266 10385.229 22851.134 14602.400 25236.812 26802.093 14013.808 12572.609 18471.243 27756.767 28133.916 22402.566 30305.418 30705.045 27706.114 20953.866 16057.709 26157.918 2922.488 13389.636 22681.824 0.000 29390.888 13455.026 25630.264 30645.116 13343.079 13034.872 24087.117 534.979 25379.789 28706.007 27870.684 24870.975 22584.248 25168.591 4000.747 21569.301 22635.883 28962.209 30743.600 16579.488 18232.494 28469.185 1723.182 27764.195 32956.704 23503.674 22405.521 19840.847
66720.405 8043.561 34926.955 959.185 18532.192 10747.032 11242.204 11669.124 7441.001 23242.246 50033.664 8778.014 8993.496 15733.770 8864.758 1550.735 9702.743 42868.807 6888.666 6702.187 18473.603 10724.107 40597.483 8495.220 43770.689 11235.302 52197.713 5988.889 13324.400 7155.477 41659.388 11851.281 41431.517 3728.484 8914.163 14702.344 50300.785 3085.273 6387.942 48439.286 11497.700 11485.439 6953.679 12886.432 6941.214 8907.538 18016.647 6665.468 8533.825 31576.184 11395.663 31831.030 8290.967 2244.182 668.804 7265.432 6380.083 31404.249 9080.256 44361.708 12159.336 12663.686 24995.128 8690.153 12528.312 5638.389 14369.246 43332.692 9064.863 7080.124 43673.056 17693.618 30562.022 6411.900 11782.562 5999.487 7439.195 17104.965 39124.121 12542.904 18024.490 5188.991 7277.515 42086.862 21675.356 21788.334 8655.032 8049.784 7552.964 12172.394 4233.800 9235.313 28453.184 44104.844 7132.906 30866.955 41462.690 15654.852 31935.774 0.000 41528.081 7274.342 7987.094 41416.133 39958.965 8196.677 31743.870 6239.700 4752.985 8956.725 48832.308 51323.140 5817.042 32073.801 50308.193 14818.763 12472.344 4256.294 21306.011 12192.945 8665.471 32087.354 8800.351 15691.501 9588.584 8923.661 10923.664
57174.365 39553.978 11019.136 41346.015 32957.482 43287.240 37923.223 31086.593 38103.311 20227.923 27058.662 39168.143 39423.358 35384.543 35364.016 39701.151 37673.384 2649.061 36319.600 38425.032 32421.908 31868.053 4075.842 38876.548 18275.279 30118.215 24776.726 37768.598 27728.827 34798.156 2779.259 34375.639 6258.350 37997.028 39555.339 33557.119 27292.498 40797.777 38560.694 22943.876 30218.781 30570.423 37937.342 35978.822 37425.103 39049.609 32769.016 35423.449 38675.896 13668.733 41023.011 13923.579 38433.038 39116.177 40396.091 36150.762 36807.506 11517.334 39619.808 19684.230 29804.688 40579.836 31825.956 38832.224 31761.308 36918.553 33691.307 20357.689 35556.030 38776.942 18177.646 35014.636 12214.063 37287.836 32001.545 37613.631 38101.504 35604.551 13626.855 34277.419 26028.684 36663.097 38228.377 1676.538 23998.893 29897.528 39183.051 39560.201 33828.851 41731.702 42131.329 39132.399 32380.150 4247.113 37584.203 11283.485 994.472 34108.109 14028.324 40817.173 0.000 37056.548 42071.401 947.915 11294.047 35513.401 14080.897 36806.073 40132.291 39296.969 30634.864 23902.153 36594.876 10362.580 22963.754 34062.168 40388.494 42169.885 28005.772 29658.778 39895.469 13805.923 39190.479 44382.988 34929.959 33831.805 31267.131
59686.784 2858.617 29771.998 8024.678 11307.844 15793.220 4312.775 11613.126 1221.549 19613.395 44878.708 2819.896 3062.596 8804.340 9796.706 6814.406 2918.815 37713.850 953.109 1543.270 11249.255 7931.540 35442.526 2528.301 38615.732 9708.211 47042.757 2280.746 9695.549 5946.692 36504.431 12633.366 36276.561 4512.913 3096.418 7477.996 44093.521 8161.693 1678.932 43284.329 9335.373 7055.204 1055.580 14037.708 704.924 2701.361 10792.299 5494.810 2327.648 26421.227 15796.140 26676.073 2084.790 5757.415 7074.754 1235.447 1524.783 26249.293 3469.880 39206.752 7729.102 6661.384 18825.870 2483.976 12472.313 2325.230 7144.899 38177.735 1814.079 1895.180 38518.100 10764.189 25407.066 1196.134 11726.563 2071.566 1219.742 10175.536 33969.165 13392.044 15833.906 7399.501 1346.615 36931.906 16113.479 15619.076 2724.131 2864.840 6610.103 16572.871 9495.245 3455.036 22283.926 38949.888 702.441 25711.998 36307.734 8430.504 26780.818 7262.821 36373.124 0.000 12387.571 36261.177 34804.009 9841.420 26588.914 1868.567 9757.283 2948.721 41798.687 46168.184 2398.439 26918.845 45153.236 7594.415 6470.041 9533.801 15136.753 10510.314 3480.528 26932.398 2842.232 9689.198 2337.800 8458.105 9450.066
70892.053 14632.922 36341.428 8609.818 23139.336 3672.617 17040.137 12788.007 13645.424 24283.899 51448.138 15177.512 15392.994 21009.277 9883.498 7505.413 15524.001 44283.280 12415.049 13291.548 22664.927 12572.801 42011.956 14894.717 45185.162 13263.592 53612.186 12083.820 15352.690 9004.171 43073.861 9153.346 42845.990 9357.054 15426.816 19260.750 51715.259 6477.729 13427.210 49853.759 13525.990 13334.133 13385.978 8261.845 12988.112 15125.237 22623.790 8624.169 14751.524 32990.657 4493.242 33245.503 14508.665 8165.007 7793.977 12630.485 11735.943 32818.722 15669.617 45776.181 14008.030 19250.674 29126.861 14907.852 11717.446 11324.484 18927.652 44747.165 14288.319 13669.485 45087.529 23318.802 31976.495 12506.830 11803.241 12094.418 13643.617 22730.149 40538.595 8984.802 19171.682 6851.667 13677.013 43501.335 25134.943 25920.066 15054.529 14639.145 9401.658 5269.972 5071.297 15785.434 32584.916 45519.317 13179.803 32281.428 42877.164 20261.996 33350.247 8840.594 42942.554 12900.585 0.000 42830.606 41373.439 9162.940 33158.344 11322.359 4417.053 15356.223 53003.956 52737.613 11000.807 33488.275 51722.666 19456.551 19059.332 4972.933 25437.743 14221.236 15254.833 33501.828 15199.848 22278.489 14370.931 11094.802 12951.955
56439.983 39257.206 10287.246 41049.243 32660.710 42990.469 37626.452 30789.821 37806.539 19931.151 26324.280 38871.372 39126.587 35087.771 35067.244 39404.379 37376.612 2518.567 36022.828 38128.260 32125.136 31571.282 3779.071 38579.777 17540.897 29821.444 24042.344 37471.826 27432.055 34501.385 3483.796 34078.867 5523.968 37700.257 39258.567 33260.348 26558.117 40501.005 38263.923 22209.494 29922.010 30273.651 37640.570 35682.050 37128.331 38752.837 32472.244 35126.677 38379.124 13371.962 40726.239 13626.807 38136.266 38819.406 40099.319 35853.991 36510.734 11220.562 39323.036 18949.848 29507.917 40283.065 31529.184 38535.453 31464.536 36621.782 33394.536 19623.307 35259.258 38480.171 17443.264 34717.864 11917.291 36991.064 31704.773 37316.860 37804.732 35307.779 12892.473 33980.647 25731.912 36366.325 37931.605 1399.928 23702.122 29600.756 38886.280 39263.429 33532.079 41434.931 41834.558 38835.627 32083.379 4951.649 37287.431 10986.713 101.620 33811.337 13731.552 40520.401 1166.818 36759.776 41774.629 0.000 11657.262 35216.630 13784.125 36509.302 39835.520 39000.197 29900.482 23167.771 36298.104 10065.809 22229.372 33765.396 40091.722 41873.113 27709.001 29362.007 39598.698 13509.151 38893.708 44086.217 34633.187 33535.033 30970.360
60474.283 37700.197 13402.046 39492.234 31103.701 41433.459 36069.442 29232.812 36249.530 18374.142 30038.737 37314.363 37569.577 33530.762 33510.235 37847.370 35819.603 13513.631 34465.819 36571.251 30568.127 30014.272 9375.930 37022.768 23775.761 28264.435 30598.205 35914.817 25875.046 32944.376 9074.215 32521.858 15281.570 36143.247 37701.558 31703.338 30305.858 38943.996 36706.914 28444.358 28365.001 28716.642 36083.561 34125.041 35571.322 37195.828 30915.235 33569.668 36822.115 13158.435 39169.230 13413.281 36579.257 37262.396 38542.310 34296.982 34953.725 9725.229 37766.027 24366.781 27950.908 38726.055 29972.175 36978.443 29907.527 35064.772 31837.527 23337.764 33702.249 36923.161 23678.128 33160.855 9878.894 35434.055 30147.764 35759.850 36247.723 33750.770 18287.880 32423.638 24174.903 34809.316 36374.596 12394.992 22145.113 28043.747 37329.271 37706.420 31975.070 39877.922 40277.548 37278.618 30526.369 10072.354 35730.422 10773.187 11770.820 32254.328 13518.026 38963.392 11281.082 35202.767 40217.620 11724.263 0.000 33659.620 13493.793 34952.292 38278.510 37443.188 33614.940 29723.632 34741.095 9109.742 28785.233 32208.387 38534.713 40316.104 26151.992 27804.997 38041.688 13468.220 37336.699 42529.208 33076.178 31978.024 29413.351
66870.762 12209.385 29804.287 8362.697 19113.297 10414.429 13791.793 5722.589 10669.848 18077.765 44910.997 12261.489 12476.971 16985.820 1459.461 7172.230 12384.632 37746.139 9275.681 10894.038 18633.637 7101.632 35474.815 11976.600 38648.021 6260.357 47075.046 9218.576 8709.588 4496.351 36536.720 4458.278 36308.850 7639.833 12510.794 15237.293 45178.118 6862.913 11029.700 43316.618 6522.754 8831.886 10469.955 5503.266 9848.743 12149.661 18597.752 4949.868 11775.948 26453.516 9141.281 26708.362 11533.089 6587.256 7546.856 9491.116 8596.574 26281.582 12884.255 39239.041 9459.182 16127.200 25105.570 11932.276 6177.462 8185.116 14904.195 38210.024 11039.975 11245.948 38550.389 19295.345 25439.355 9590.808 5431.712 9229.175 10668.041 18706.692 34001.454 5137.606 12849.675 4132.754 10760.990 36964.195 20937.025 21898.776 12138.506 12215.608 3839.844 9849.972 8196.466 12869.411 28563.626 38982.177 10040.435 25744.287 36340.023 16238.539 26813.107 8288.252 36405.413 9761.216 8194.762 36293.466 34836.298 0.000 26621.203 8182.990 6174.478 12397.020 48487.200 46200.473 7861.438 26951.134 45185.525 15433.094 15935.858 8235.021 21416.452 7218.000 12831.296 26964.687 12283.825 19155.015 11122.588 4108.169 5637.686
51759.923 28312.321 6319.381 30104.358 21715.824 32045.583 26681.566 19844.936 26861.654 8986.265 21324.377 27926.486 28181.701 24142.886 24122.359 28459.493 26431.726 15329.748 25077.943 27183.375 21180.250 20626.396 13058.424 27634.891 15086.178 18876.558 23513.202 26526.941 16487.170 23556.499 14120.329 23133.982 13892.458 26755.371 28313.681 22315.462 21591.498 29556.120 27319.037 19754.775 18977.124 19328.766 26695.685 24737.165 26183.446 27807.952 21527.359 24181.792 27434.239 1466.614 29781.354 1404.908 27191.380 27874.520 29154.434 24909.105 25565.849 4697.951 28378.151 15652.421 18563.031 29338.179 20584.299 27590.567 20519.651 25676.896 22449.650 14623.405 24314.372 27535.285 14988.545 23772.979 4061.947 26046.178 20759.888 26371.974 26859.847 24362.894 10439.611 23035.762 14787.027 25421.439 26986.720 14547.804 12757.236 18655.871 27941.394 28318.543 22587.194 30490.045 30889.672 27890.742 21138.493 16591.704 26342.546 3456.484 13923.632 22866.451 1517.375 29575.516 13989.022 25814.891 30829.744 13877.074 13564.959 24271.744 0.000 25564.416 28890.634 28055.311 24900.580 22638.629 25353.219 4534.743 21623.682 22820.510 29146.837 30928.227 16764.115 18417.121 28653.812 1491.124 27948.822 33141.331 23688.302 22590.148 20025.474
61183.693 4477.035 29951.839 7423.278 13086.542 14228.538 6250.903 10048.444 2937.498 19238.273 45058.549 4529.139 4744.621 10742.468 8232.024 5828.578 4652.282 37893.691 1543.331 3161.688 12956.567 7491.398 35622.367 4244.250 38795.573 8240.761 47222.597 1486.226 9320.427 4382.009 36684.272 11068.683 36456.401 3527.085 4778.444 9207.956 45325.669 7175.865 3297.350 43464.170 8503.159 6680.082 2737.605 12473.026 2116.393 4417.311 12570.997 3930.128 4043.598 26601.068 14231.458 26855.914 3800.740 4771.588 6473.354 1524.366 864.224 26429.133 5151.906 39386.592 7353.980 8394.851 19418.501 4199.926 10907.631 845.233 8874.858 38357.576 3819.387 3513.598 38697.940 12702.317 25586.906 1858.458 10161.881 1496.825 2935.692 12113.664 34149.006 11827.361 15029.950 5834.819 3028.640 37111.746 16293.320 16211.706 4406.156 4483.258 5045.421 15008.188 8509.418 5137.061 22876.556 39129.728 2308.085 25891.839 36487.574 10209.202 26960.658 6661.420 36552.965 2028.866 10822.889 36441.017 34983.849 8276.738 26768.755 0.000 8454.269 4664.670 43295.596 46348.024 711.237 27098.685 45333.077 9403.757 8203.508 8547.973 15729.383 9198.404 5098.946 27112.239 4551.475 11422.665 4002.467 6893.423 7929.123
68072.160 10982.064 34309.914 4950.367 20319.443 7635.485 13897.684 10880.462 10016.132 22625.206 49416.624 11548.220 11763.702 18189.384 7095.318 3845.962 12291.150 42251.766 9294.494 9640.690 19845.034 10024.762 39980.442 11265.425 43153.648 10618.262 51580.673 8454.528 12707.359 6456.132 41042.347 10081.466 40814.477 5727.762 11797.524 16440.857 49683.745 3450.583 9776.352 47822.245 10880.659 10786.094 9756.686 10701.079 9456.197 11495.945 19803.898 6076.130 11122.232 30959.143 7763.818 31213.989 10879.373 4505.556 4134.525 9567.088 8615.388 30787.209 12018.759 43744.668 11459.991 15602.189 26306.968 11278.560 11640.775 7939.078 16107.759 42715.651 11468.426 10018.627 43056.016 20349.098 29944.982 8877.538 10895.025 8465.126 10014.325 19760.445 38507.081 10634.486 17407.450 4031.774 10047.721 41469.822 22315.050 23100.173 11425.237 10988.287 6853.619 8540.548 4642.561 12156.142 29765.023 43487.804 9647.889 30249.914 40845.650 17442.103 31318.734 5181.142 40911.040 9780.030 4355.249 40799.093 39341.925 6427.237 31126.830 8201.803 0.000 11726.931 50184.064 50706.100 7779.146 31456.761 49691.152 16636.658 15410.846 4544.197 22617.850 11575.905 11603.974 31470.314 11570.556 18630.003 11551.039 8306.621 10306.624
58322.217 1666.285 31655.848 10022.256 10703.322 17915.865 2967.360 14653.701 2304.666 22653.971 43570.754 782.334 131.294 7397.788 12837.281 8919.492 1226.270 39597.700 3993.684 3453.522 10719.294 10972.116 37326.376 1276.555 40499.582 12541.068 48926.606 4372.619 12736.124 8987.267 38388.281 15673.941 38160.410 6617.999 596.295 7058.001 42728.954 10266.780 3589.184 45168.179 12375.948 10095.780 2980.979 17078.284 2956.966 958.984 10187.776 8535.385 1253.863 28305.077 18385.778 28559.923 1528.862 7862.502 9072.332 4276.022 4565.358 28133.142 770.272 41090.601 10769.677 4124.799 18251.183 1410.192 15512.889 4815.818 7496.507 40061.585 3971.537 3805.432 40401.949 9295.431 27290.915 3301.221 14767.139 4163.439 2275.857 8706.778 35853.014 16432.619 18874.481 10440.076 2497.767 38815.755 17997.328 15590.921 799.912 1672.508 9650.678 19162.508 11600.332 698.753 22072.654 40833.737 2731.273 27595.848 38191.583 7825.981 28664.667 9260.399 38256.974 3040.575 14977.209 38145.026 36687.858 12881.996 28472.763 4909.143 11862.370 0.000 40434.120 48052.033 4960.560 28802.694 47037.086 6989.893 3933.456 11638.887 16668.188 13498.711 1011.290 28816.247 804.671 7152.613 4066.329 11498.681 12229.430
30887.944 41413.780 21134.541 48598.544 31001.296 55503.915 37889.906 43303.268 41136.182 32444.598 4310.813 41065.112 40594.189 34057.942 47580.691 47403.715 39367.111 31273.425 41645.400 42060.776 30465.722 42828.156 30422.629 40803.889 17232.237 42334.891 24600.953 42870.055 39945.502 44844.071 31484.534 46592.314 29891.214 45102.222 40646.585 33898.300 6624.408 48751.002 42196.438 16233.062 42435.457 41790.398 41573.085 48195.497 41222.430 40976.949 30812.831 45339.665 40603.236 25037.878 53239.686 25140.655 40360.378 46346.725 47648.620 41578.565 42217.075 25216.331 40483.477 11931.150 42021.364 38909.362 25239.599 40759.565 43977.983 43017.522 34336.806 12015.766 39191.773 42412.686 17313.639 32735.269 25819.389 41785.444 44218.220 42660.876 41107.373 33325.183 20204.622 46494.094 38245.359 46927.528 41329.283 30521.177 33141.216 26872.373 41082.689 41420.002 45192.308 53948.378 50084.555 40043.075 23260.170 33616.861 41219.946 23768.967 29925.361 32739.907 25245.399 47836.687 30832.089 40692.292 52288.600 29878.804 33243.118 47730.076 25450.041 42560.859 49919.980 40724.225 0.000 21416.061 43090.731 24355.968 24234.403 33775.404 38718.019 50123.110 29034.027 41875.453 40759.138 24496.416 41087.448 43181.360 38877.754 45967.701 43483.807
45565.721 49924.984 19259.458 51717.021 43328.487 53658.246 48294.229 41457.599 48474.317 30598.928 18152.132 49539.149 49794.364 45755.549 45735.022 50072.156 48044.389 24733.745 46690.606 48796.038 42792.913 42239.059 24963.829 49247.554 8851.744 40489.221 3774.724 48139.604 38099.833 45169.162 26025.734 44746.645 19666.439 48368.034 49926.344 43928.125 16141.402 51168.783 48931.700 5635.858 40589.787 40941.429 48308.348 46349.828 47796.109 49420.615 43140.022 45794.455 49046.902 23192.208 51394.017 23294.985 48804.043 49487.183 50767.097 46521.768 47178.512 23370.662 49990.814 12686.824 40175.694 50950.842 41181.126 49203.230 42132.314 47289.559 44062.313 12132.477 45927.035 49147.948 8933.147 45385.642 23973.719 47658.841 42372.551 47984.637 48472.510 45975.557 14638.607 44648.425 36399.690 47034.102 48599.383 24680.395 34369.899 40268.534 49554.057 49931.207 44199.857 52102.708 52502.335 49503.405 39201.698 27897.585 47955.209 21923.298 24206.085 44479.114 23399.730 51188.179 25112.813 47427.554 52442.407 24159.528 30996.225 45884.407 23447.589 47177.079 50503.297 49667.974 21649.654 0.000 46965.882 22510.298 5063.165 44433.173 50759.500 52540.890 38376.778 40029.784 50266.475 22075.516 49561.485 54753.994 45300.965 44202.811 41638.137
61262.356 4555.820 29835.910 6964.850 13380.275 14112.610 6329.688 9932.515 3016.283 19122.345 44942.620 4607.924 4823.406 10821.253 8116.095 5370.151 4731.067 37777.762 1622.115 3240.473 13035.230 7375.470 35506.438 4323.035 38679.644 8124.833 47106.669 1565.011 9204.498 4266.081 36568.343 10952.755 36340.473 3068.658 4857.228 9550.427 45209.741 6717.438 3376.135 43348.241 8387.230 6564.154 2816.390 12357.098 2195.178 4496.096 12864.730 3814.199 4122.383 26485.139 14115.529 26739.985 3879.524 4313.160 6014.926 1919.745 943.009 26313.205 5230.690 39270.664 7238.051 8473.635 19497.164 4278.711 10791.703 386.806 9217.329 38241.647 3898.172 3592.383 38582.012 12781.102 25470.978 1937.242 10045.952 1575.610 3014.476 12192.449 34033.077 11711.433 14914.021 5718.890 3107.425 36995.818 16177.391 16290.369 4484.941 4562.043 4929.492 14892.260 8050.990 5215.846 22955.219 39013.800 2386.869 25775.910 36371.646 10502.935 26844.730 6202.993 36437.036 2107.651 10706.960 36325.089 34867.921 8160.809 26652.826 529.425 8313.028 4743.455 43374.260 46232.096 0.000 26982.757 45217.148 9666.846 8282.293 8089.546 15808.046 9082.476 5177.730 26996.310 4630.260 11501.450 4397.846 6777.495 7813.195
52113.588 30275.611 5157.778 32067.648 23679.115 34008.874 28644.856 21808.226 28824.944 10949.556 21678.042 29889.777 30144.991 26106.176 26085.649 30422.784 28395.017 11025.227 27041.233 29146.665 23143.541 22589.687 8753.903 29598.182 15415.066 20839.849 23704.129 28490.231 18450.460 25519.790 9815.808 25097.272 9587.938 28718.662 30276.972 24278.752 21945.162 31519.410 29282.328 20083.663 20940.415 21292.056 28658.975 26700.455 28146.736 29771.242 23490.649 26145.082 29397.529 4390.367 31744.644 4645.212 29154.671 29837.810 31117.724 26872.396 27529.139 1634.416 30341.441 16006.085 20526.322 31301.470 22547.589 29553.858 22482.941 27640.187 24412.941 14977.069 26277.663 29498.576 15317.433 25736.269 3233.395 28009.469 22723.178 28335.265 28823.137 26326.184 10043.611 24999.052 16750.317 27384.730 28950.010 10243.283 14720.527 20619.161 29904.685 30281.834 24550.484 32453.336 32852.962 29854.032 23101.784 12287.184 28305.836 2005.118 9619.111 24829.742 4749.957 31538.806 9684.501 27778.181 32793.034 9572.554 9085.048 26235.035 4802.530 27527.707 30853.925 30018.602 25254.244 22829.556 27316.509 0.000 21891.157 24783.801 31110.127 32891.518 18727.406 20380.412 30617.102 4700.151 29912.113 35104.622 25651.592 24553.438 21988.765
47805.212 47098.759 16138.622 48890.796 40502.263 50832.021 45468.004 38631.374 45648.092 27772.704 20391.623 46712.924 46968.139 42929.324 42908.797 47245.932 45218.164 21612.909 43864.381 45969.813 39966.688 39412.834 21842.994 46421.329 7982.996 37662.996 6013.189 45313.379 35273.608 42342.937 22904.898 41920.420 16545.603 45541.809 47100.119 41101.900 18380.893 48342.558 46105.475 7875.349 37763.562 38115.204 45482.123 43523.603 44969.884 46594.390 40313.797 42968.230 46220.677 20365.983 48567.792 20468.760 45977.819 46660.958 47940.872 43695.543 44352.287 20544.437 47164.589 13722.991 37349.469 48124.617 39370.737 46377.005 39306.089 44463.334 41236.088 13168.643 43100.811 46321.723 7938.541 42559.417 21147.495 44832.617 39546.326 45158.412 45646.285 43149.332 11812.382 41822.200 33573.465 44207.877 45773.158 21559.559 31543.674 37442.309 46727.832 47104.982 41373.632 49276.483 49676.110 46677.180 39924.931 24776.749 45128.984 19097.073 21085.250 41652.889 20573.505 48361.954 21991.977 44601.329 49616.182 21038.692 27875.389 43058.182 20621.364 44350.854 47677.072 46841.749 23889.145 4725.138 44139.657 19684.073 0.000 41606.948 47933.275 49714.665 35550.553 37203.559 47440.250 19249.292 46735.260 51927.769 42474.740 41376.586 38811.912
52511.056 8784.036 27956.156 15901.263 4132.116 23082.905 5320.858 16693.154 8438.901 21438.176 37759.592 8398.202 8653.417 1668.263 16059.530 14706.434 6830.624 35898.008 8948.119 9363.494 4148.088 10354.037 33626.684 8106.607 36799.890 12105.236 45226.915 10172.774 11956.624 12369.952 34688.589 18468.668 34460.719 12404.941 8785.397 1201.019 36917.792 16053.721 9499.156 41468.487 11732.398 9316.279 8875.804 20300.532 8525.148 8279.668 3616.571 12728.320 7905.955 24605.385 23085.824 24860.231 7663.096 13649.443 14951.339 8881.284 9519.793 24433.451 8777.049 37390.910 9990.177 7270.049 11679.978 8062.283 17614.927 10320.240 1639.524 36361.893 6494.492 9715.404 36702.258 4049.365 23591.224 9088.162 17465.446 9963.594 8410.091 3460.712 32153.323 19227.346 18230.931 14453.409 8632.001 35116.064 12629.023 9019.715 8413.110 8790.259 12718.190 23862.555 17387.273 8289.640 15501.448 37134.046 8522.665 23896.156 34491.892 1254.776 24964.976 15139.405 34557.282 7995.010 19677.255 34445.335 32988.167 16104.244 24773.072 9863.577 17308.636 8527.027 34622.959 44352.342 10393.449 25103.003 43337.394 0.000 7078.707 17425.828 10114.992 12907.340 9052.710 25116.556 8420.538 11542.048 6180.472 13493.582 12655.145
56864.781 4598.908 33390.439 12984.666 10107.647 21206.052 3716.717 17943.888 5594.854 24933.990 42113.318 4250.240 3779.317 6514.796 16127.468 12145.316 4178.812 41332.291 7283.871 6415.932 10123.619 13252.135 39060.967 4744.461 42234.173 15028.805 50661.197 7545.738 15016.143 12277.454 40122.872 18964.128 39895.001 9908.186 3831.713 7295.212 41271.517 13556.967 6551.594 46902.770 14655.967 12375.799 6154.098 20368.471 6247.153 4426.889 9592.102 11825.572 4544.051 30039.668 21675.965 30294.514 4819.049 10997.366 12034.742 7566.209 7855.545 29867.733 3668.605 42825.193 13049.697 191.342 17398.276 4700.379 18803.076 8106.005 7733.718 41796.176 6021.954 6767.842 42136.540 7087.540 29025.507 6591.408 18057.326 7336.559 5566.044 7146.443 37587.606 19722.806 21154.500 13730.263 5787.954 40550.347 18768.722 14767.981 4267.817 4605.130 12940.865 22452.696 14890.519 3228.203 21219.747 42568.329 6021.461 29330.439 39926.175 7671.509 30399.258 12222.809 39991.565 6330.762 18267.396 39879.617 38422.450 16172.183 30207.355 8199.330 15152.557 3909.353 38976.684 49786.624 8250.747 30537.286 48771.677 7104.388 0.000 14929.074 16026.782 15830.909 3944.266 30550.839 4272.576 4942.816 6103.058 14788.868 15051.900
68922.945 10622.396 36275.483 4377.206 20758.934 7225.007 13594.670 12846.031 9713.117 24590.775 51382.193 11245.205 11460.687 18086.235 9060.887 3486.295 11988.135 44217.335 9051.290 9281.022 20695.819 12050.045 41946.011 10962.411 45119.217 12583.831 53546.242 8151.513 14672.928 8481.415 43007.916 12047.410 42780.046 5630.190 11492.999 16929.086 51649.314 2110.965 9416.684 49787.814 12846.228 12811.376 9453.671 11340.819 9153.183 11192.930 20243.389 8101.412 10819.217 32924.712 8223.804 33179.558 10576.359 4145.888 3753.773 9428.056 8542.708 32752.778 11659.091 45710.237 13485.274 15242.521 27157.752 10975.545 13606.344 7801.013 16595.988 44681.220 11276.831 9658.959 45021.585 20046.084 31910.551 8574.524 12860.594 8162.111 9711.311 19457.430 40472.650 12063.776 19373.019 5997.343 9744.706 43435.391 23837.980 23950.958 11122.222 10628.619 8878.901 9000.534 625.449 11814.148 30615.808 45453.373 9344.874 32215.483 42811.219 17881.594 33284.303 4737.068 42876.609 9486.310 4939.975 42764.662 41307.494 8392.806 33092.399 8402.324 3160.461 11423.916 51034.848 52671.669 7979.666 33422.330 51656.721 17045.505 15051.179 0.000 23468.635 13541.474 11244.307 33435.883 11267.541 18270.336 11800.552 10272.190 12272.193
47188.074 17278.292 21388.792 21638.305 6858.331 28073.837 14050.945 21432.458 16160.067 15251.755 32436.610 16892.457 17147.672 10122.673 20798.833 20240.268 15397.697 29330.644 14387.778 16481.788 6322.757 15093.341 27059.320 16600.862 30232.526 16844.540 38659.551 15836.776 16695.927 17109.255 28121.225 23207.972 27893.355 17938.775 17279.652 9931.106 31594.810 21587.555 16617.450 34901.123 16471.702 14055.583 15994.098 25039.836 15493.281 16773.923 6669.865 17719.253 16400.210 18038.021 28076.757 18292.867 16157.351 19183.277 20688.381 14218.941 14935.765 17866.087 17290.625 30823.546 14729.480 15716.510 5422.881 16556.538 22354.231 15736.212 10369.612 29794.529 13612.786 16833.698 30134.894 9542.417 17023.860 15356.014 22204.750 15681.810 16158.260 10132.331 25585.959 23966.649 17298.605 19192.713 16285.133 28548.700 5832.076 2216.087 16907.365 17284.514 17457.493 28853.487 22921.107 16850.223 8830.270 30566.682 15640.959 17328.792 27924.528 8772.713 18397.612 20876.447 27989.918 15113.304 24668.188 27877.971 26420.803 20843.548 18205.708 15279.549 22299.568 17021.282 29299.977 37784.978 15498.336 18535.639 36770.030 9808.209 15525.167 22959.663 0.000 17646.643 17566.286 18549.192 16914.793 19988.508 12986.715 18232.886 17394.449
62492.876 11969.811 24079.533 12016.522 14735.410 15927.444 11557.557 5520.759 10421.459 12353.011 39186.243 12019.806 12236.572 12607.934 6185.947 10371.658 11193.425 32021.385 8385.850 10654.463 14255.750 2785.069 29750.061 11728.211 32923.267 932.841 41350.291 9481.279 2525.925 5468.664 30811.966 7319.237 30584.095 8667.536 12270.395 10859.406 39453.364 11468.284 10790.126 37591.864 560.003 2829.469 10229.556 10209.451 9600.354 11901.272 14219.865 6093.956 11527.558 20728.762 14629.263 20983.608 11284.700 9786.684 11066.598 8052.672 8701.401 20556.827 12643.857 33514.286 3283.011 14875.215 20727.684 11683.887 6442.532 8447.818 10526.309 32485.270 9053.446 11006.374 32825.634 14917.459 19714.600 9463.086 6316.015 9491.877 10419.652 14328.806 28276.700 8077.915 7124.920 7333.604 10520.591 31239.440 16460.559 17520.889 11898.108 11976.033 4499.358 15304.071 12801.836 12629.012 24185.739 33257.422 9792.045 20019.533 30615.268 11860.652 21088.352 11487.680 30680.659 9512.827 12823.082 30568.711 29111.544 6335.333 20896.449 8445.692 10802.798 12148.631 42762.445 40475.718 8124.141 21226.380 39460.771 11055.208 14683.873 12840.392 17038.566 0.000 12591.721 21239.933 12042.142 17903.030 8450.000 4653.736 1992.194
59119.513 1024.653 32453.143 9380.624 11500.617 17635.939 3764.655 14919.480 2570.445 22919.749 44368.049 742.466 716.639 8195.083 13103.059 8541.274 2023.566 40394.995 4259.462 2811.890 11516.590 11237.894 38123.671 1029.529 41296.877 12845.030 49723.902 3941.696 13001.902 9253.045 39185.576 15939.719 38957.705 6550.436 283.418 7855.297 43526.249 9986.517 2947.552 45965.474 12641.726 10361.558 2550.056 17344.062 3222.744 919.115 10985.072 8801.164 1539.552 29102.372 18216.388 29357.218 1614.907 7393.324 8430.700 4541.800 4831.136 28930.437 656.880 41887.897 11035.455 4474.123 19048.479 1695.880 15778.667 4999.172 8293.803 40858.880 4275.499 3163.800 41199.244 10092.726 28088.211 3221.045 15032.917 3732.516 2541.635 9504.073 36650.310 16698.397 19140.259 10344.063 2503.056 39613.051 18794.624 16388.216 552.885 1030.876 9916.456 18993.119 11320.070 832.779 22869.949 41631.033 2997.052 28393.143 38988.879 8623.277 29461.962 8618.767 39054.269 3306.353 14807.819 38942.322 37485.154 13147.774 29270.059 5151.866 11641.892 846.675 41231.416 48849.329 5143.914 29599.990 47834.381 7787.188 4282.781 11358.625 17465.484 13802.674 0.000 29613.543 764.802 7501.937 4799.220 11764.459 12533.392
50319.420 29273.266 5187.463 31065.304 22676.770 33006.529 27642.512 20805.881 27822.599 9947.211 19883.874 28887.432 29142.647 25103.832 25083.304 29420.439 27392.672 14792.295 26038.889 28144.321 22141.196 21587.342 12520.971 28595.837 13770.302 19837.504 22197.326 27487.887 17448.115 24517.445 13582.876 24094.927 13355.005 27716.317 29274.627 23276.408 20150.995 30517.066 28279.983 18438.899 19938.070 20289.712 27656.630 25698.111 27144.392 28768.898 22488.304 25142.737 28395.185 1338.776 30742.299 1892.746 28152.326 28835.466 30115.380 25870.051 26526.794 4390.504 29339.097 14211.918 19523.977 30299.125 21545.245 28551.513 21480.596 26637.842 23410.596 13182.901 25275.318 28496.231 13672.669 24733.925 4365.850 27007.124 21720.833 27332.920 27820.793 25323.840 9159.625 23996.707 15747.973 26382.385 27947.666 14010.350 13718.182 19616.817 28902.340 29279.489 23548.139 31450.991 31850.618 28851.687 22099.439 16054.251 27303.491 3149.036 13386.178 23827.397 2005.213 30536.462 13451.569 26775.837 31790.690 13339.621 13261.421 25232.690 1750.939 26525.362 29851.580 29016.257 23460.076 21322.753 26314.165 4227.295 20307.806 23781.456 30107.783 31889.173 17725.061 19378.067 29614.758 0.000 28909.768 34102.277 24649.248 23551.094 20986.420
58354.711 1817.756 31688.342 10086.783 10735.816 17948.359 2999.854 14686.195 2337.160 22686.464 43603.248 933.805 282.764 7430.281 12869.775 8951.986 1258.764 39630.194 4026.178 3549.015 10751.788 11004.609 37358.870 1428.026 40532.076 12573.562 48959.100 4405.113 12768.618 9019.761 38420.775 15706.435 38192.904 6650.493 747.765 7090.495 42761.447 10299.273 3684.677 45200.673 12408.442 10128.274 3013.473 17110.778 2989.459 1110.454 10220.270 8567.879 1286.357 28337.571 18418.272 28592.416 1561.356 7894.995 9136.859 4308.516 4597.852 28165.636 921.742 41123.095 10802.171 4235.681 18283.677 1442.686 15545.383 4848.312 7529.001 40094.079 4004.031 3900.925 40434.443 9327.925 27323.409 3333.715 14799.632 4195.933 2308.351 8739.272 35885.508 16465.113 18906.975 10472.570 2530.261 38848.249 18029.822 15623.415 951.382 1823.979 9683.172 19195.002 11632.826 850.224 22105.148 40866.231 2763.767 27628.342 38224.077 7858.475 28697.161 9324.925 38289.467 3073.069 15009.703 38177.520 36720.352 12914.490 28505.257 4941.636 11894.864 156.375 40466.614 48084.527 4993.054 28835.188 47069.580 7022.387 4044.339 11671.381 16700.682 13531.205 1162.760 28848.741 0.000 7263.496 4098.823 11531.175 12261.924
61277.206 8064.216 36845.543 16449.975 14520.072 24705.290 7262.120 21464.939 9115.904 28389.094 46525.742 7715.549 7244.626 10927.220 19648.519 15610.625 7699.863 44787.395 10804.922 9881.241 14536.044 16707.239 42516.071 8209.770 45689.277 18483.909 54116.302 11011.047 18471.248 15798.505 43577.976 22485.179 43350.106 13429.237 7297.022 11475.892 45683.942 17055.868 10016.903 50357.874 18111.072 15830.903 9619.407 23889.522 9768.203 7892.198 14004.526 15346.623 8065.101 33494.772 25197.016 33749.618 8340.100 14462.675 15500.051 11087.260 11376.596 33322.838 7133.914 46280.297 16504.801 5324.081 21810.701 8221.430 22324.127 11627.056 11914.398 45251.280 9477.058 10233.151 45591.645 11499.965 32480.611 10112.459 21578.377 10801.867 9087.095 11558.867 41042.710 23243.857 24609.605 17251.314 9309.005 44005.451 23181.147 19180.405 7733.126 8070.439 16461.916 25973.746 18389.421 6693.512 25632.171 46023.433 9542.511 32785.543 43381.279 12083.934 33854.363 15688.118 43446.669 9851.813 21788.447 43334.722 41877.554 19693.234 33662.459 11720.381 18673.608 7374.662 43389.109 53241.729 11771.798 33992.390 52226.781 11407.784 5132.739 18427.976 20439.207 19286.013 7409.575 34005.943 7737.885 0.000 9558.162 18251.524 18507.005
57494.824 4675.607 28042.868 10073.215 9143.439 17721.590 3159.146 13399.898 3213.725 19284.281 42743.361 4289.773 4544.987 7013.380 11725.075 8878.386 2795.013 35984.720 3120.071 3535.446 9036.111 7602.426 33713.396 3998.178 36886.602 9379.097 45313.627 4344.726 9366.435 7875.061 34775.301 14420.137 34547.430 6576.893 4676.968 5264.852 41901.561 10225.673 3671.109 41555.199 9006.259 6726.090 3047.756 15966.078 2697.100 4171.238 8627.893 7423.180 3797.525 24692.097 17724.509 24946.943 3554.667 7821.395 9123.291 3167.219 3691.745 24520.162 4741.437 37477.622 7399.988 6476.803 16663.746 3953.853 14259.085 4492.192 4931.754 36448.605 659.169 3887.357 36788.969 9252.517 23677.936 3260.115 13513.335 4135.546 3211.918 8663.864 32240.035 15178.815 15504.792 9327.870 3338.791 35202.776 14384.349 13881.093 4304.681 4681.830 8457.083 18501.240 11559.225 4254.028 20485.217 37220.758 2694.617 23982.868 34578.604 6266.098 25051.687 9311.357 34643.994 2166.962 14315.941 34532.046 33074.879 11769.790 24859.784 4035.530 11821.263 4418.598 39606.727 44439.053 4565.401 25189.715 43424.106 5460.654 6285.461 11597.781 13398.770 10181.200 5017.098 25203.268 4312.109 9504.618 0.000 9374.037 9629.518
64739.542 11217.244 26656.617 9502.225 16982.076 13635.786 12223.846 4581.427 9677.707 14930.095 41763.326 11269.348 11484.829 14854.600 4273.943 7857.361 11392.491 34598.469 8283.539 9901.897 16502.416 4192.140 32327.145 10984.459 35500.351 3070.475 43927.375 8226.435 5519.706 3504.210 33389.050 5601.667 33161.179 7308.379 11518.652 13106.072 42030.447 8953.987 10037.559 40168.948 3332.872 5815.757 9477.813 8297.447 8856.602 11157.520 16466.531 4056.650 10783.806 23305.845 12362.637 23560.691 10540.948 7272.387 8552.301 8498.975 7604.433 23133.911 11892.114 36091.370 6269.300 15135.059 22974.349 10940.135 5440.615 7192.974 12772.975 35062.354 9472.028 10253.807 35402.718 17164.125 22291.684 8598.666 4694.865 8237.034 9675.900 16575.472 30853.783 6360.345 9702.004 4819.307 9768.849 33816.524 18805.805 19767.555 11146.365 11223.467 2131.164 13071.329 10287.539 11877.270 26432.405 35834.506 9048.293 22596.617 33192.352 14107.318 23665.436 8973.383 33257.742 8769.075 10308.785 33145.795 31688.627 4406.716 23473.532 7190.849 8288.501 11404.879 45339.529 43052.802 6869.297 23803.463 42037.855 13301.874 14943.717 10326.095 19285.232 4028.118 11839.154 23817.016 11291.684 18162.874 9554.641 0.000 2447.803
63023.266 11595.722 24974.917 11140.157 15265.801 15030.900 12072.559 4848.710 10056.185 13248.395 40081.627 11647.826 11863.307 13138.324 5289.404 9495.292 11583.690 32916.769 8571.473 10280.374 14786.141 2247.605 30645.445 11362.937 33818.651 1231.116 42245.675 8604.913 3680.347 4592.298 31707.350 6422.693 31479.479 7791.170 11897.130 11389.797 40348.748 10591.919 10416.037 38487.248 1493.514 3752.359 9856.291 9312.907 9235.079 11535.997 14750.256 5217.590 11162.284 21624.146 13732.720 21878.992 10919.426 8910.319 10190.233 8535.012 7982.911 21452.211 12270.592 34409.670 4205.901 15326.258 21258.074 11318.613 5770.483 7571.452 11056.699 33380.654 9320.741 10632.285 33721.018 15447.849 20609.984 8977.144 5419.472 8615.512 10054.378 14859.196 29172.084 7181.371 8020.304 6457.238 10147.327 32134.824 17089.529 18051.280 11524.843 11601.945 3622.992 14407.527 11925.471 12255.748 24716.130 34152.806 9426.771 20914.917 31510.652 12391.043 21983.736 10611.315 31576.043 9147.553 11946.717 31464.095 30006.928 5438.789 21791.833 7569.326 9926.433 11783.357 43657.829 41371.102 7247.775 22121.764 40356.155 11585.598 15134.916 11964.026 17568.956 2188.759 12217.632 22135.317 11670.162 18354.073 8980.390 3757.193 0.000
NODE_COORD_SECTION
1 -37724.446539 -4036.005968
2 365.727568 -2816.971124
3 -12023.499402 21219.394636
4 6485.356139 -283.228738
5 -9103.490123 917.510114
6 11973.154313 6024.849721
7 -2797.193065 -2073.573913
8 2494.143362 9185.021598
9 346.839653 -1445.179832
10 -5095.890904 15328.611640
11 -23977.372777 13437.658794
12 -547.311387 -2760.632958
13 -505.632964 -2986.448929
14 -6813.042886 -819.796459
15 5381.735548 7292.905793
16 5800.256239 996.295273
17 -1432.057362 -2264.790212
18 -7835.568508 29073.353091
19 541.440595 218.142592
20 1187.156611 -1471.162618
21 -8972.916913 1145.842983
22 213.841350 5121.761251
23 -6299.689482 24799.603835
24 -345.327326 -2461.450986
25 -19986.533042 23353.569945
26 87.995339 7206.572554
27 -26160.038363 29110.479259
28 1655.140240 -131.236400
29 -1981.533959 7559.401738
30 2277.699302 4172.573725
31 -4994.471204 26005.245234
32 5269.242605 9688.783591
33 -11007.467633 26746.341049
34 3786.911043 1119.651298
35 -276.059896 -3068.329899
36 -6067.754549 451.111611
37 -25497.408743 14751.210353
38 7262.484210 1617.605277
39 1285.992506 -1030.432987
40 -23919.358539 23167.461011
41 195.989180 7113.866663
42 -1223.041100 5142.474510
43 697.518466 -1286.526401
44 7347.305303 9930.546910
45 506.686118 -679.891112
46 -465.700791 -2617.494001
47 -9123.705470 1103.763063
48 2820.949843 3811.540689
49 -447.604300 -2341.267065
50 -9338.429575 17395.305332
51 11438.550830 7521.767490
52 -9305.603288 17333.227669
53 -262.570402 -2091.456650
54 4786.475772 1163.365781
55 6210.239974 447.885948
56 409.382662 448.303926
57 833.333040 524.877953
58 -8110.823676 19602.843481
59 -133.339057 -3214.841631
60 -21143.664234 19432.708704
61 -1912.627882 5539.220952
62 -2979.135498 -4490.505176
63 -15071.475211 4764.755574
64 -538.396360 -2472.397589
65 2867.778667 10189.873686
66 1456.459389 708.291014
67 -5607.549875 794.127336
68 -20285.493280 19267.292120
69 -1246.813903 -108.659131
70 734.435664 -2004.433420
71 -19917.802753 23397.164495
72 -8353.586727 -1098.237488
73 -7766.871873 18542.214065
74 975.421707 -604.621575
75 3241.786773 9612.257136
76 1689.129571 -313.352974
77 134.451037 -1224.240430
78 -8084.796531 -1106.748581
79 -15432.869784 20786.342228
80 5484.747369 10322.690919
81 -1124.597149 12491.054866
82 4448.878150 3818.340056
83 444.687016 -1422.224358
84 -7336.195843 28052.774920
85 -9601.088557 9156.713104
86 -12748.638764 4478.571990
87 -254.491139 -2663.924640
88 305.073496 -2849.358561
89 2734.665329 5108.992066
90 11956.332265 7908.668340
91 8363.741855 2065.353612
92 -501.371262 -3433.171176
93 -18384.739249 5354.870332
94 -3751.956194 26774.224619
95 608.072642 -834.187048
96 -9019.191101 19230.235205
97 -6830.344475 27336.176022
98 -6777.912959 368.716457
99 -9080.052526 17068.980169
100 6121.206453 -12.991999
101 -6271.562118 27583.284901
102 203.651530 -605.916925
103 9601.098478 4855.904743
104 -6766.004490 27285.321448
105 -570.531839 20666.452962
106 5298.398112 6427.943556
107 -9345.169598 16899.588607
108 1082.456103 779.753848
109 7584.247596 3182.867329
110 -592.507317 -2897.458146
111 -24458.712880 10122.978804
112 -25091.982455 26880.402154
113 1454.522181 852.303697
114 -8844.740492 20581.516073
115 -22129.767012 28018.788726
116 -6129.363994 -9.608231
117 -3066.454360 -4368.783505
118 8505.156776 2103.086014
119 -11819.250382 5597.338690
120 -188.043068 7331.466882
121 -112.772219 -3065.919482
122 -10325.492361 17626.750460
123 -562.246794 -2777.241267
124 -550.423296 -6367.980519
125 -1632.680250 124.534157
126 2098.871808 6645.921726
127 837.631735 6843.855142
DEMAND_SECTION
1 0
2 38
3 45
4 28
5 86
6 40
7 35
8 58
9 22
10 46
11 45
12 44
13 44
14 51
15 79
16 47
17 23
18 32
19 32
20 18
21 73
22 8
23 13
24 47
25 3
26 70
27 12
28 22
29 92
30 32
31 10
32 66
33 5
34 22
35 7
36 52
37 32
38 22
39 19
40 21
41 94
42 46
43 48
44 76
45 50
46 17
47 76
48 47
49 45
50 15
51 54
52 11
53 29
54 14
55 14
56 43
57 8
58 29
59 21
60 31
61 6
62 35
63 85
64 18
65 57
66 29
67 54
68 7
69 12
70 20
71 25
72 85
73 24
74 35
75 68
76 14
77 44
78 79
79 47
80 59
81 97
82 8
83 13
84 36
85 36
86 89
87 10
88 43
89 8
90 57
91 32
92 30
93 57
94 47
95 28
96 26
97 11
98 68
99 35
100 9
101 1
102 13
103 30
104 23
105 58
106 19
107 47
108 41
109 22
110 5
111 41
112 20
113 23
114 14
115 3
116 84
117 14
118 23
119 78
120 67
121 2
122 25
123 16
124 44
125 34
126 9
127 12
DEPOT_SECTION
1
-1
EOF
