NAME : mamut-reykjavik-n138-k10-poi
COMMENT : Mamut2026 euclidean metric; city reykjavik; No of trucks: 10 (lower bound, fleet not fixed); 3-decimal seconds/meters; ENU ref in mamut-reykjavik-n138-k10-poi.vrp.json
TYPE : CVRP
DIMENSION : 139
EDGE_WEIGHT_TYPE : EXPLICIT
EDGE_WEIGHT_FORMAT : FULL_MATRIX
CAPACITY : 568
EDGE_WEIGHT_SECTION
0.000 6588.063 4747.758 3543.104 3979.603 1691.668 3553.859 1472.543 2237.142 7143.131 5467.082 8827.856 4422.885 523.491 3054.892 3817.708 1851.201 21847.994 2688.001 6220.903 956.343 3318.137 2792.131 9953.196 7006.339 5166.502 22158.627 2730.781 4621.600 4907.272 2555.303 5433.124 1847.502 3957.651 3034.007 8445.228 7567.003 5195.986 3316.056 2486.790 3372.283 3725.782 9871.053 26631.149 21887.346 3585.556 3138.470 4583.899 3454.202 21767.415 3479.690 4791.683 8491.917 3687.777 4506.052 2782.735 5175.605 3870.712 3864.350 2747.961 1637.213 3814.010 3214.176 3646.920 4543.733 3807.355 3147.717 1929.622 21905.431 4540.707 3417.863 6922.669 3781.655 3837.174 4107.649 3459.623 13107.589 3040.659 4818.226 4310.634 2189.156 8173.656 1984.140 5580.663 2196.091 3805.681 1312.964 9928.960 3484.640 1976.096 3363.002 7308.963 8276.813 3604.648 4241.398 3975.403 3794.154 3864.742 3497.982 1272.483 3464.315 6988.018 3677.360 3044.729 5408.431 3758.809 5284.658 3257.456 626.395 1605.164 8520.536 1775.080 3626.590 1547.432 2602.945 9800.339 4110.367 3881.756 3711.029 2184.680 3420.316 3692.048 5286.030 1972.176 8663.767 3356.552 6175.574 5210.901 2333.320 4002.348 11183.995 5359.957 3612.471 8417.243 3290.473 4839.390 8659.473 8486.856 6445.410
6588.063 0.000 4647.779 9374.495 9787.815 7693.607 9167.188 6240.616 4565.405 7082.828 6295.554 8995.808 2216.594 7100.963 8853.885 8872.125 7796.531 28323.125 6267.732 1508.683 5631.732 8874.681 6463.072 9435.884 7430.427 5215.672 28590.276 8291.717 4413.877 10320.813 6649.719 2244.701 5232.058 9779.854 8659.144 8386.599 3368.062 1875.790 8579.312 8064.770 9022.922 9408.739 9478.373 20545.264 28382.620 9386.919 8667.435 2078.114 9159.149 28258.843 9141.654 2124.483 8554.491 6208.420 2160.851 8500.360 1905.729 2847.685 9573.312 8449.623 5594.341 9522.349 8849.338 9038.456 2073.962 9476.852 7619.568 5401.599 28396.490 6539.618 9030.293 7619.536 9520.160 2847.992 9921.864 7922.517 6736.307 8656.662 2101.243 10223.458 7742.070 8391.702 5265.513 4618.270 6649.301 9546.891 7531.293 9480.322 9147.108 5342.716 9205.417 13108.796 8342.212 5575.579 9202.458 10040.494 9502.588 8202.943 3114.469 6600.579 9072.729 7397.522 9435.194 8654.950 4771.468 5569.569 5140.141 8881.378 6968.448 6965.730 8440.168 5499.575 9305.607 5068.030 8168.593 8991.901 7587.610 9675.181 5477.955 7661.984 3206.640 2953.481 5123.289 5430.389 8686.892 8961.300 1551.695 10497.686 8032.072 9782.015 10540.061 4850.921 9448.722 8291.296 8683.310 4893.847 8612.469 8380.236 1683.393
4747.758 4647.779 0.000 5838.451 6160.184 4772.418 5513.535 3472.012 2855.895 2955.013 8222.698 11630.846 3879.656 5053.044 5404.903 4940.855 4788.350 25968.482 2629.876 3316.936 4128.921 5246.782 2728.423 5781.915 3107.209 672.032 26355.456 4823.854 268.329 6352.905 3047.141 2414.293 2928.545 6164.248 5131.649 4395.174 3413.499 2817.655 4837.153 4683.149 5426.095 5755.938 5753.734 24956.664 25964.044 5825.340 5071.817 3990.094 5571.715 25853.760 5527.198 2731.586 4514.152 1965.462 3985.881 5082.183 2789.178 4024.749 5908.984 5034.197 3111.875 5866.686 5281.507 5267.223 3822.168 5801.893 3732.212 2818.163 25991.577 1967.834 5405.219 3208.795 5886.750 3933.844 6277.288 3927.079 11115.046 5123.422 2743.537 6611.865 4465.489 10949.769 2769.867 840.145 3278.289 5910.638 4864.197 5788.407 5531.862 2772.144 5711.800 9142.423 10978.421 6560.244 5158.078 6589.436 5850.577 4070.121 3068.177 3863.501 5435.653 3076.780 5831.700 5118.122 663.638 6662.821 690.981 5298.104 4684.156 3967.741 11162.922 2973.053 5669.872 3599.922 4743.283 5491.877 3247.698 6055.252 6565.288 4367.451 3707.448 3794.255 681.800 2777.428 4677.684 5346.314 3259.245 6438.186 4747.814 6133.803 7022.138 629.292 5902.330 4327.945 4994.896 258.530 4633.873 11111.812 3334.640
3543.104 9374.495 5838.451 0.000 442.021 1880.375 397.166 3162.746 4857.737 6874.768 8933.767 12171.516 7448.104 3127.914 528.978 1232.291 1731.488 20250.379 3284.080 8561.991 4257.322 599.947 3140.484 9180.159 6497.196 5854.751 20679.846 1086.642 5881.153 1432.484 2857.341 7623.548 4167.555 424.541 728.393 7756.377 9234.528 7642.654 1042.398 1310.190 417.098 293.502 9044.308 29825.682 20224.565 62.931 767.000 7618.028 276.252 20119.159 337.520 7299.655 7719.783 3912.035 7552.513 877.356 7615.204 7027.759 353.439 927.359 3809.023 315.217 558.594 746.713 7528.069 352.551 2132.655 3976.441 20256.390 4363.824 452.188 6275.817 264.215 6969.480 575.800 2037.814 16097.657 733.611 7325.495 849.781 1639.741 11544.099 4113.552 6584.740 2758.129 281.840 2230.500 9122.256 334.443 4034.273 182.458 3832.536 11664.589 7115.174 1429.254 754.065 300.968 2127.823 6341.949 2855.400 436.195 6495.096 170.138 737.161 6339.052 7269.647 6009.732 540.347 2923.899 2440.529 11917.082 3888.910 275.327 4585.925 1206.287 9219.361 3037.503 339.036 7229.783 1714.954 6525.931 6796.513 6021.073 3944.981 7869.874 500.324 8506.358 1769.136 1362.349 459.677 10270.535 6248.985 75.000 7775.135 865.030 5763.650 7907.435 11888.612 8705.707
3979.603 9787.815 6160.184 442.021 0.000 2322.001 649.421 3591.664 5284.835 7038.289 9353.053 12570.465 7878.228 3556.533 966.303 1354.145 2173.476 20019.507 3648.614 8949.823 4699.340 932.016 3493.695 9249.325 6637.716 6140.550 20463.130 1497.066 6215.852 1075.958 3225.826 8006.559 4593.012 32.115 1128.719 7853.206 9567.230 8041.909 1323.211 1732.524 768.621 404.414 9107.643 30253.824 19985.601 411.711 1130.790 8048.156 629.049 19882.173 653.102 7704.370 7806.058 4212.894 7983.298 1307.131 8014.176 7463.674 256.293 1355.848 4236.073 294.090 939.429 916.461 7956.247 362.964 2430.090 4395.822 20019.090 4603.370 771.442 6402.967 275.999 7404.662 135.746 2283.630 16515.552 1131.160 7730.030 453.371 2067.694 11947.332 4533.293 6886.556 3153.041 250.809 2667.989 9187.499 647.835 4452.886 624.472 3393.088 12070.115 7542.750 1421.125 581.255 309.656 2301.694 6768.026 3291.871 734.490 6637.714 352.660 1132.942 6638.191 7697.147 6295.918 909.393 3362.248 2872.543 12323.637 4312.494 496.032 5025.198 1623.311 9313.305 3234.099 112.638 7658.672 2138.798 6961.107 7231.077 6307.973 4362.206 7951.206 837.484 8893.762 1421.190 1796.868 57.558 10311.253 6545.895 369.317 7877.838 1168.284 6072.623 7993.869 12295.939 9087.277
1691.668 7693.607 4772.418 1880.375 2322.001 0.000 1862.999 1483.980 3128.377 6565.238 7147.413 10470.266 5669.187 1353.219 1373.126 2182.149 160.422 21234.810 2181.282 7039.586 2380.080 1627.825 2150.106 9210.455 6311.589 4988.419 21604.232 1060.325 4737.791 3216.724 1816.972 6142.876 2471.004 2302.852 1343.506 7710.366 8009.660 6063.058 1669.850 836.994 1681.608 2041.926 9103.128 28034.853 21242.450 1917.275 1453.695 5838.251 1768.400 21129.280 1790.638 5690.370 7721.001 3131.752 5768.434 1091.124 6037.715 5208.089 2186.065 1057.066 2111.532 2134.743 1522.508 1963.352 5762.301 2123.296 1855.853 2343.359 21267.299 3866.032 1726.342 6162.278 2106.240 5155.666 2454.283 2078.553 14370.999 1350.561 5717.011 2689.872 627.820 9824.985 2470.585 5596.130 1512.504 2131.179 416.108 9170.870 1795.677 2405.135 1698.047 5699.001 9934.505 5294.466 2599.234 2410.970 2114.548 2445.197 4599.818 1097.046 1772.877 6300.078 2002.995 1354.915 5375.621 5448.787 5132.840 1565.789 1065.279 817.080 10181.577 2221.335 1940.833 2747.881 942.754 9141.325 2974.588 2218.689 5402.187 679.925 4714.052 4988.160 5139.721 2332.998 7887.103 1664.883 6987.124 3519.245 662.972 2339.025 10397.064 5301.870 1952.697 7702.730 1619.172 4774.177 7901.291 10149.643 7217.943
3553.859 9167.188 5513.535 397.166 649.421 1862.999 0.000 3008.618 4691.695 6482.494 8995.112 12278.160 7289.268 3179.250 525.496 837.315 1704.625 20622.261 3001.549 8308.773 4199.325 292.511 2844.827 8783.825 6101.926 5505.116 21056.598 904.693 5567.165 1353.735 2580.230 7363.519 3997.726 651.396 542.377 7359.213 8919.067 7408.234 680.392 1156.258 181.683 246.905 8648.375 29655.154 20593.392 354.349 500.765 7459.061 163.956 20488.747 96.363 7075.434 7322.784 3570.953 7396.078 775.982 7380.298 6894.748 409.618 816.091 3645.535 361.268 347.684 351.314 7362.238 309.743 1787.023 3789.285 20625.863 3990.732 143.341 5879.452 373.928 6832.758 773.989 1663.306 15899.502 539.980 7100.915 1102.791 1497.774 11642.265 3927.030 6245.425 2521.502 398.637 2249.946 8726.180 94.287 3844.918 405.315 3967.455 11757.639 7152.911 1068.768 1119.341 342.991 1733.813 6170.334 2738.046 96.945 6100.033 324.358 538.809 5997.892 7307.361 5660.383 306.708 2927.715 2304.081 12007.634 3714.017 156.923 4479.397 1038.774 8822.202 2649.430 542.112 7262.432 1556.614 6389.727 6656.965 5672.152 3752.233 7473.029 212.412 8252.513 1660.675 1258.345 629.636 9876.637 5906.347 433.384 7377.991 519.247 5429.074 7510.424 11977.433 8443.441
1472.543 6240.616 3472.012 3162.746 3591.664 1483.980 3008.618 0.000 1695.604 5688.989 6547.368 9996.450 4286.588 1629.827 2635.023 2949.282 1567.825 22664.459 1216.280 5555.607 1460.526 2721.777 1331.961 8485.024 5538.002 3805.516 23018.673 2105.526 3393.736 4289.562 1136.331 4661.595 1010.017 3579.948 2474.147 6976.093 6580.458 4581.361 2527.029 1860.701 2846.536 3237.124 8401.074 26663.031 22679.717 3182.246 2512.961 4456.514 2972.249 22564.911 2966.604 4212.352 7020.766 2217.308 4391.902 2285.885 4555.777 3887.659 3399.203 2236.470 648.410 3346.792 2670.153 2958.674 4365.338 3311.869 1945.013 859.538 22702.996 3068.399 2866.127 5450.703 3335.682 3824.677 3727.336 2291.777 12946.245 2474.162 4238.894 4011.140 1524.011 9325.454 988.368 4311.645 815.349 3362.450 1442.146 8459.651 2972.119 921.259 2987.372 6973.422 9410.619 4655.457 3356.158 3802.946 3326.361 2693.776 3180.237 409.370 2911.729 5520.188 3242.831 2474.048 4113.531 4802.278 3935.609 2706.992 1228.238 726.655 9642.625 743.280 3131.535 1524.529 1973.796 8340.769 2737.183 3480.057 4733.665 1454.950 3381.972 3648.489 3939.237 849.925 7192.486 2796.530 5503.164 4535.579 1803.176 3593.370 9713.704 4052.546 3237.703 6949.622 2581.263 3521.347 7189.097 9603.765 5734.982
2237.142 4565.405 2855.895 4857.737 5284.835 3128.377 4691.695 1695.604 0.000 5655.120 5645.267 9122.927 2597.859 2692.377 4330.406 4544.276 3233.664 24062.103 2142.695 4014.548 1387.423 4401.925 2351.276 8526.042 5665.152 3423.014 24382.646 3793.114 2662.063 5939.653 2393.284 3198.883 694.208 5273.705 4162.722 7067.801 5345.170 3000.853 4168.657 3552.432 4533.974 4924.441 8476.538 24968.989 24094.998 4876.345 4192.540 2767.568 4662.609 23976.464 4654.048 2607.576 7156.264 2708.345 2705.449 3980.535 2978.222 2248.046 5087.529 3930.861 1048.823 5035.341 4357.790 4615.449 2671.663 4997.699 3385.688 928.470 24114.542 3484.918 4550.269 5669.659 5026.233 2176.310 5420.383 3729.591 11254.287 4162.058 2634.420 5706.513 3218.196 8439.164 796.018 3625.504 2259.560 5053.043 2977.474 8520.763 4659.563 882.961 4682.821 8659.150 8495.115 3846.724 4927.338 5494.642 5015.022 4092.829 1484.647 2037.773 4595.134 5639.874 4934.855 4161.501 3505.965 3968.428 3502.727 4393.440 2469.647 2421.224 8705.002 979.770 4819.187 780.934 3663.381 8282.487 3811.325 5172.923 3878.373 3146.131 1743.409 1995.529 3498.618 981.588 7327.171 4480.580 3966.643 6164.629 3498.775 5285.193 9774.025 3483.651 4932.660 7016.769 4242.880 3021.829 7300.381 8659.374 4226.768
7143.131 7082.828 2955.013 6874.768 7038.289 6565.238 6482.494 5688.989 5655.120 0.000 11166.656 14584.951 6773.889 7305.285 6615.166 5685.019 6513.492 27012.540 4512.284 5586.713 6750.440 6300.872 4470.536 2871.262 540.198 2294.396 27477.925 6142.794 3214.660 6759.094 4784.421 4917.295 5523.299 7055.295 6319.495 1440.199 4510.610 5470.321 5853.208 6118.890 6476.808 6678.263 2823.223 26542.218 26962.536 6836.590 6200.343 6867.722 6603.338 26863.410 6537.776 5505.922 1563.415 3493.186 6873.769 6391.016 5446.445 6969.449 6789.386 6356.303 5579.911 6764.925 6394.101 6147.699 6697.900 6689.793 4891.550 5325.873 26999.525 2700.038 6428.843 846.186 6806.818 6879.094 7116.164 4870.577 12894.158 6307.075 5511.156 7434.860 6049.444 13903.465 5331.104 2545.428 5136.195 6823.088 6809.804 2865.905 6540.619 5299.834 6816.408 9214.639 13933.132 9464.175 5681.677 7588.854 6756.018 4749.255 6022.137 5993.251 6439.442 518.072 6795.657 6299.187 2478.914 9574.192 2265.902 6390.448 6884.549 5899.655 14117.934 5460.547 6628.272 6321.325 6123.069 2661.762 3843.393 6960.327 9478.787 5960.819 6662.412 6744.296 2276.501 5265.311 1724.221 6393.546 5538.933 6689.724 6256.605 6992.860 4119.307 2437.401 6915.876 1375.293 6036.670 2723.803 1678.860 14066.808 5473.243
5467.082 6295.554 8222.698 8933.767 9353.053 7147.413 8995.112 6547.368 5645.267 11166.656 0.000 3482.304 4815.211 5816.409 8480.857 9280.574 7307.829 23917.241 7571.840 7161.946 5086.850 8773.953 7753.748 14003.876 11246.615 8873.300 24040.311 8196.791 7972.834 10340.446 7651.648 7054.426 6042.547 9327.505 8489.754 12604.133 9220.852 6456.475 8782.143 7953.851 8813.767 9146.974 13976.233 22901.716 24050.602 8982.989 8600.506 4813.999 8882.271 23914.223 8915.192 6178.291 12711.276 8325.277 4762.856 8234.871 6462.602 4369.139 9273.155 8203.212 6193.590 9225.286 8663.371 9109.961 4956.341 9228.097 8477.468 6313.875 24047.802 9126.824 8863.776 11279.440 9186.658 4449.129 9471.797 8816.301 10622.061 8497.214 6188.912 9621.784 7652.750 2800.653 6237.204 8810.627 7360.786 9208.780 6747.504 14011.087 8919.859 6305.860 8760.689 12518.148 2870.939 1892.595 9704.703 9228.931 9206.314 9223.616 5201.031 6572.625 8909.322 11219.226 9082.308 8501.780 8782.565 1745.098 8913.256 8706.831 6088.792 6989.724 3097.204 6246.374 9052.827 5190.628 8069.762 13698.283 9241.899 9265.491 1816.135 7642.037 4554.804 4538.693 8904.430 6384.647 12878.733 8805.485 7158.796 10655.654 7798.474 9383.993 15241.378 8795.994 8997.551 12541.942 8756.965 8444.867 12841.499 3057.219 7449.814
8827.856 8995.808 11630.846 12171.516 12570.465 10470.266 12278.160 9996.450 9122.927 14584.951 3482.304 0.000 8002.293 9118.483 11754.914 12639.013 10629.706 24705.951 11046.910 10141.907 8538.635 12079.052 11225.936 17395.722 14689.572 12291.422 24707.210 11530.047 11374.300 13599.726 11112.743 10218.203 9523.732 12542.717 11797.416 16025.035 12218.177 9600.697 12131.788 11296.625 12099.164 12407.152 17377.116 22027.455 24895.481 12225.150 11918.917 7961.737 12152.641 24752.082 12192.736 9382.555 16139.262 11807.489 7927.458 11539.965 9612.239 7664.210 12520.268 11512.999 9667.715 12475.276 11959.910 12427.191 8121.755 12486.754 11908.829 9794.173 24879.527 12606.648 12153.940 14733.770 12431.777 7751.172 12680.220 12241.786 11456.782 11806.091 9388.591 12790.930 11013.358 684.308 9718.862 12167.953 10811.728 12451.953 10059.107 17407.986 12197.042 9786.975 12006.831 15561.290 665.592 5351.920 13061.170 12372.920 12457.365 12649.990 8571.511 9993.057 12197.858 14661.461 12328.986 11811.430 12161.454 5210.940 12321.389 12003.148 9434.488 10395.841 569.871 9723.997 12319.133 8670.148 11408.595 17067.206 12709.144 12492.206 5288.814 11012.195 7926.812 7867.624 12311.547 9864.972 16304.780 12100.178 10151.046 13927.542 11131.346 12607.087 18623.614 12182.850 12229.963 15958.749 12089.438 11861.730 16263.443 630.789 10415.820
4422.885 2216.594 3879.656 7448.104 7878.228 5669.187 7289.268 4286.588 2597.859 6773.889 4815.211 8002.293 0.000 4942.933 6919.622 7120.929 5788.090 26106.753 4602.176 2444.451 3470.785 6999.708 4811.510 9484.616 6978.555 4548.408 26373.974 6389.521 3611.328 8531.598 4922.143 2241.553 3292.058 7866.361 6758.916 8198.536 4438.762 1641.675 6761.404 6146.934 7130.637 7521.219 9484.139 22378.523 26167.025 7468.542 6790.327 169.930 7258.125 26043.055 7250.736 1381.307 8334.897 4844.457 116.398 6571.977 1647.431 645.644 7684.007 6522.767 3644.212 7631.729 6954.351 7210.776 162.099 7594.868 5922.381 3513.414 26180.677 5409.672 7147.669 7088.413 7621.695 633.847 8013.909 6255.309 8714.572 6758.486 1388.485 8295.098 5810.536 7338.830 3376.590 4255.416 4836.486 7648.485 5458.616 9506.536 7256.251 3461.758 7271.475 11256.651 7337.646 3641.388 7491.641 8066.355 7611.365 6590.869 1138.569 4603.666 7192.650 6947.473 7529.324 6758.066 4295.608 3673.421 4538.139 6990.341 4851.588 5007.683 7493.488 3577.071 7415.844 2950.237 6259.027 9121.918 6150.129 7766.644 3573.288 5740.825 1004.742 740.603 4525.028 3558.367 8491.285 7077.981 2428.408 8748.390 6086.366 7879.841 10689.598 4337.219 7523.098 8120.578 6839.449 4134.504 8437.007 7438.299 2733.319
523.491 7100.963 5053.044 3127.914 3556.533 1353.219 3179.250 1629.827 2692.377 7305.285 5816.409 9118.483 4942.933 0.000 2664.613 3532.770 1511.931 21371.225 2797.701 6698.579 1472.748 2965.147 2866.298 10075.512 7132.049 5424.746 21690.276 2413.517 4947.765 4524.406 2588.412 5890.149 2226.331 3532.736 2682.031 8565.132 7984.012 5677.089 3021.511 2186.314 2998.113 3331.979 9985.012 27150.091 21406.333 3174.622 2800.819 5104.586 3066.086 21287.258 3098.821 5275.628 8600.426 3816.582 5027.052 2425.262 5655.884 4393.826 3461.533 2396.461 1960.732 3412.828 2850.481 3309.681 5062.266 3413.284 3022.074 2257.270 21425.317 4649.807 3049.167 7027.163 3376.096 4359.766 3680.573 3305.394 13630.902 2690.263 5302.309 3863.688 1928.370 8475.126 2334.520 5892.073 2221.618 3398.923 940.625 10046.264 3103.477 2310.697 2951.594 6845.958 8586.512 3987.261 3951.493 3509.792 3393.569 3699.596 4002.368 1315.487 3094.373 7115.742 3271.534 2695.337 5706.357 4141.736 5551.009 2893.921 429.919 1518.663 8834.755 2101.364 3236.940 2043.659 2295.033 9948.629 4060.542 3463.708 4102.262 1945.777 3941.336 4213.613 5553.829 2287.959 8771.052 2992.139 6652.034 4839.476 2015.920 3583.555 11294.944 5651.080 3194.288 8543.492 2971.718 5123.162 8772.717 8803.565 6916.771
3054.892 8853.885 5404.903 528.978 966.303 1373.126 525.496 2635.023 4330.406 6615.166 8480.857 11754.914 6919.622 2664.613 0.000 1184.674 1219.359 20617.033 2814.685 8060.716 3740.535 414.190 2684.924 9022.151 6266.138 5460.301 21032.141 589.409 5433.789 1859.835 2386.466 7126.919 3641.089 951.361 296.384 7570.740 8784.095 7132.491 793.614 790.894 353.128 670.906 8893.526 29297.534 20599.262 554.761 422.356 7089.540 401.495 20491.935 437.848 6785.452 7546.648 3511.061 7023.881 353.899 7105.273 6498.975 813.003 404.918 3281.913 761.618 276.088 762.671 7000.134 752.484 1765.218 3453.512 20629.429 4031.115 416.199 6061.618 734.298 6440.575 1101.598 1744.788 15573.939 308.425 6811.416 1376.121 1113.725 11120.199 3590.317 6170.532 2258.794 759.694 1744.087 8969.009 442.130 3511.810 352.508 4359.372 11236.441 6645.759 1512.190 1211.982 741.425 1926.717 5814.862 2326.661 454.440 6261.597 632.189 316.156 5928.402 6800.271 5614.297 307.153 2430.755 1911.942 11486.910 3363.505 572.935 4058.896 695.223 9032.327 2776.131 857.756 6757.197 1191.909 5997.023 6267.552 5624.811 3423.509 7701.949 381.239 8005.468 2176.970 833.465 976.154 10143.082 5841.017 603.951 7582.562 619.581 5344.072 7733.387 11457.034 8209.707
3817.708 8872.125 4940.855 1232.291 1354.145 2182.149 837.315 2949.282 4544.276 5685.019 9280.574 12639.013 7120.929 3532.770 1184.674 0.000 2026.417 21367.369 2606.965 7906.798 4304.621 772.438 2418.327 7948.251 5289.759 4858.537 21814.800 1129.828 5025.314 1454.938 2225.177 6950.492 3859.825 1370.491 971.809 6529.122 8353.436 7058.937 513.025 1346.465 898.683 1000.246 7812.080 29410.376 21330.426 1183.864 819.191 7288.879 986.841 21227.809 914.449 6753.956 6489.979 2975.444 7232.278 1203.286 7030.019 6789.166 1104.390 1210.318 3534.822 1081.052 908.654 486.033 7177.088 1005.725 1263.349 3616.489 21364.589 3277.750 834.626 5060.269 1125.187 6719.458 1438.866 1014.667 15605.125 958.841 6778.338 1767.255 1628.631 11988.553 3751.209 5625.179 2286.230 1140.090 2598.106 7890.105 915.550 3664.866 1227.738 4265.196 12093.608 7404.945 424.169 1907.425 1073.076 952.300 5984.563 2779.017 825.732 5289.059 1125.483 950.746 5373.725 7557.981 5013.634 880.693 3204.831 2336.428 12337.957 3573.567 964.992 4472.788 1239.750 7991.689 1887.866 1275.547 7503.400 1639.500 6282.720 6539.210 5026.641 3567.024 6639.219 830.893 7849.298 1631.517 1520.097 1310.302 9039.326 5278.358 1259.045 6549.690 607.557 4828.766 6677.709 12304.462 8018.039
1851.201 7796.531 4788.350 1731.488 2173.476 160.422 1704.625 1567.825 3233.664 6513.492 7307.829 10629.706 5788.090 1511.931 1219.359 2026.417 0.000 21199.775 2178.082 7118.387 2525.981 1467.653 2131.561 9136.945 6248.761 4983.339 21574.994 901.888 4762.626 3058.329 1796.827 6214.612 2567.092 2155.042 1183.353 7640.084 8052.103 6148.795 1513.665 684.114 1523.414 1886.495 9027.290 28159.246 21204.207 1766.758 1293.319 5957.442 1612.487 21091.756 1633.310 5780.056 7647.093 3104.168 5888.446 931.586 6123.102 5335.515 2032.269 897.001 2205.670 1980.705 1363.192 1802.977 5878.681 1967.733 1754.071 2426.172 21229.734 3817.571 1567.384 6093.181 1953.376 5281.697 2306.522 1959.898 14483.492 1190.327 5806.613 2548.681 509.680 9984.781 2556.145 5606.561 1513.581 1978.545 572.540 9095.907 1638.390 2487.639 1549.031 5556.079 10094.508 5454.489 2442.252 2282.077 1960.426 2317.726 4710.495 1196.112 1614.018 6237.980 1850.580 1194.638 5382.523 5608.793 5129.506 1406.419 1224.824 869.539 10341.676 2310.039 1784.798 2878.064 786.677 9076.133 2880.143 2068.991 5561.981 576.925 4839.342 5112.837 5136.886 2411.748 7812.311 1505.523 7065.420 3359.758 506.322 2189.059 10317.833 5306.723 1804.424 7634.496 1459.861 4781.455 7828.319 10309.791 7292.207
21847.994 28323.125 25968.482 20250.379 20019.507 21234.810 20622.261 22664.459 24062.103 27012.540 23917.241 24705.951 26106.753 21371.225 20617.033 21367.369 21199.775 0.000 23338.607 28068.142 22783.048 20848.769 23247.503 28861.792 26572.109 26074.732 872.869 21177.818 25958.573 20266.190 22923.378 27253.988 23536.803 20006.309 20905.798 27633.293 29241.058 27043.949 21292.466 21295.966 20665.994 20402.805 28695.038 46649.871 435.843 20277.597 20992.622 26248.979 20526.537 353.660 20583.915 26639.511 27546.302 24126.004 26166.525 20916.350 27023.462 25482.727 20274.420 20961.885 23214.020 20305.425 20784.059 20932.389 26249.721 20378.775 22372.404 23490.175 345.191 24612.780 20702.046 26310.375 20270.328 25477.158 19928.732 22285.201 34321.828 20915.919 26666.021 19600.844 21503.026 24566.569 23598.678 26764.684 22696.033 20250.919 21222.668 28781.858 20580.151 23550.818 20346.005 18153.321 24760.817 23332.853 21334.243 19503.400 20317.055 22319.041 25320.377 22255.187 20681.870 26576.607 20298.865 20922.405 26528.406 23416.053 26228.064 20776.619 21609.473 22051.765 24968.674 23345.914 20468.186 23393.871 21245.235 29042.286 23253.202 20108.009 23471.228 21601.083 25121.118 25370.033 26238.135 23497.295 27666.180 20749.898 28022.224 20370.361 21222.349 20060.039 29714.677 26444.447 20197.427 27678.978 21115.161 25934.819 27728.773 24994.863 28287.979
2688.001 6267.732 2629.876 3284.080 3648.614 2181.282 3001.549 1216.280 2142.695 4512.284 7571.840 11046.910 4602.176 2797.701 2814.685 2606.965 2178.082 23338.607 0.000 5319.698 2552.509 2716.845 210.725 7281.303 4335.826 2807.294 23726.917 2225.949 2632.364 4060.067 428.221 4368.915 1560.687 3647.458 2559.106 5771.215 5973.913 4453.104 2358.454 2064.281 2886.656 3248.452 7193.965 26810.529 23334.563 3280.145 2523.592 4766.072 3031.547 23224.115 2997.501 4147.548 5811.470 1019.640 4716.730 2477.925 4424.298 4353.231 3409.966 2428.373 1379.281 3362.694 2727.128 2815.593 4641.126 3306.117 1352.195 1281.823 23361.945 1857.247 2877.586 4239.584 3372.762 4274.518 3775.440 1665.781 12998.750 2552.654 4171.820 4100.845 1835.644 10368.983 1384.961 3435.423 669.044 3398.399 2345.512 7253.839 3002.611 1304.144 3140.685 6863.507 10442.749 5696.122 2936.630 4020.665 3344.540 1988.722 3466.373 1482.715 2914.170 4319.090 3303.510 2548.476 3207.524 5836.008 2952.341 2750.206 2373.893 1420.771 10666.285 1328.560 3152.685 2386.868 2133.527 7151.081 1690.403 3538.386 5758.587 1737.631 3858.982 4092.684 2959.481 1213.247 5982.821 2812.880 5262.824 4229.963 2119.594 3631.162 8505.678 3130.141 3352.942 5747.691 2488.937 2607.470 5981.537 10624.448 5446.043
6220.903 1508.683 3316.936 8561.991 8949.823 7039.586 8308.773 5555.607 4014.548 5586.713 7161.946 10141.907 2444.451 6698.579 8060.716 7906.798 7118.387 28068.142 5319.698 0.000 5295.163 8019.539 5495.554 7933.987 5949.495 3822.803 28378.614 7477.794 3112.694 9360.824 5732.399 958.807 4592.748 8946.100 7834.236 6879.058 2078.829 1027.904 7677.392 7273.218 8181.859 8555.106 7973.831 21662.135 28104.842 8565.583 7819.059 2395.941 8324.180 27985.611 8296.737 1436.725 7047.816 5068.281 2462.201 7708.936 1046.699 3047.338 8718.376 7657.781 4941.101 8669.684 8014.766 8135.170 2284.995 8616.393 6643.676 4696.395 28123.661 5270.715 8179.374 6149.629 8675.511 3002.480 9079.847 6915.477 7813.883 7829.707 1410.852 9398.166 6974.479 9506.620 4570.916 3166.044 5804.151 8701.682 6952.128 7976.993 8302.018 4634.575 8404.481 12171.988 9478.608 6085.784 8198.589 9270.375 8650.901 7149.596 2808.955 5949.792 8218.393 5916.575 8599.785 7826.713 3341.126 6117.089 3730.742 8042.094 6482.913 6253.949 9602.556 4822.723 8456.233 4677.694 7365.534 7495.881 6441.255 8838.096 6017.213 6885.630 3192.992 3021.323 3713.422 4707.298 7179.263 8112.539 58.550 9502.159 7271.829 8936.427 9049.916 3427.604 8633.964 6783.385 7802.687 3545.820 7104.405 9544.170 290.206
956.343 5631.732 4128.921 4257.322 4699.340 2380.080 4199.325 1460.526 1387.423 6750.440 5086.850 8538.635 3470.785 1472.748 3740.535 4304.621 2525.981 22783.048 2552.509 5295.163 0.000 3934.809 2713.931 9607.436 6681.848 4627.711 23085.764 3315.052 3965.809 5540.408 2576.151 4538.102 1230.981 4681.021 3659.126 8115.401 6725.890 4267.754 3837.250 3059.568 4022.070 4399.519 9540.827 25730.870 22826.123 4291.603 3736.649 3633.059 4124.870 22705.462 4137.595 3860.698 8182.273 3444.473 3555.975 3426.690 4248.483 2931.432 4550.685 3384.213 1207.866 4498.533 3851.727 4227.205 3589.522 4479.770 3396.884 1429.815 22843.432 4299.304 4057.278 6638.094 4474.392 2893.672 4832.500 3739.852 12167.564 3663.007 3887.002 5069.050 2725.645 7866.485 1419.709 4936.239 2274.594 4500.009 2080.835 9592.345 4142.905 1451.801 4074.868 8078.657 7950.580 3194.971 4724.259 4772.708 4478.056 4145.214 2546.451 1527.634 4104.459 6660.095 4372.718 3665.317 4791.391 3341.769 4728.425 3893.331 1415.266 1968.234 8182.200 1307.354 4295.544 625.953 3179.896 9409.088 4177.257 4594.316 3273.556 2689.538 2470.653 2743.940 4727.072 1494.047 8354.796 3990.739 5251.451 5818.918 2941.189 4714.124 10851.465 4756.305 4330.378 8076.200 3852.232 4259.318 8339.771 8143.269 5527.441
3318.137 8874.681 5246.782 599.947 932.016 1627.825 292.511 2721.777 4401.925 6300.872 8773.953 12079.052 6999.708 2965.147 414.190 772.438 1467.653 20848.769 2716.845 8019.539 3934.809 0.000 2563.955 8658.019 5935.095 5255.411 21276.252 624.168 5294.879 1605.987 2293.810 7075.281 3707.815 930.634 284.326 7217.793 8647.940 7116.797 449.206 879.059 182.949 536.287 8526.481 29363.789 20823.736 579.999 209.389 7169.458 326.215 20718.165 281.724 6783.320 7188.163 3314.133 7106.788 539.894 7088.898 6609.033 700.493 570.866 3356.629 650.783 139.532 362.209 7071.900 602.195 1533.132 3497.810 20855.421 3767.440 160.764 5721.495 656.530 6546.432 1060.502 1445.022 15607.021 277.485 6808.820 1384.009 1219.502 11438.733 3635.559 5987.789 2229.413 682.481 2027.477 8602.959 286.654 3553.268 515.609 4257.604 11551.272 6922.075 1102.324 1353.380 631.700 1570.101 5879.608 2459.597 199.056 5931.894 588.185 273.594 5741.551 7076.359 5410.445 108.259 2691.977 2022.379 11799.814 3423.689 436.780 4200.547 759.628 8680.651 2458.069 821.541 7029.163 1273.570 6103.624 6370.229 5421.854 3460.390 7341.327 99.993 7963.368 1895.600 997.028 916.895 9767.821 5651.086 658.531 7232.815 267.391 5168.118 7375.391 11768.703 8155.709
2792.131 6463.072 2728.423 3140.484 3493.695 2150.106 2844.827 1331.961 2351.276 4470.536 7753.748 11225.936 4811.510 2866.298 2684.924 2418.327 2131.561 23247.503 210.725 5495.554 2713.931 2563.955 0.000 7210.773 4270.605 2859.150 23642.174 2099.505 2748.999 3872.975 334.792 4542.068 1759.673 3493.831 2420.521 5700.484 6099.537 4640.970 2191.017 1954.983 2737.187 3091.425 7118.995 27007.389 23239.920 3133.563 2375.705 4975.168 2882.743 23130.288 2845.510 4341.035 5734.190 988.592 4926.166 2356.018 4611.998 4563.932 3251.430 2307.515 1560.730 3205.176 2582.052 2645.091 4849.539 3146.525 1157.824 1480.911 23268.042 1787.351 2724.613 4160.910 3217.708 4485.241 3618.536 1463.230 13191.413 2413.305 4365.077 3946.817 1752.468 10548.998 1587.962 3517.526 665.962 3242.980 2349.239 7180.630 2850.510 1505.905 3002.901 6680.160 10624.611 5874.133 2739.410 3883.470 3187.455 1779.810 3676.150 1553.882 2759.627 4255.210 3151.998 2408.651 3283.618 6015.248 3007.748 2602.995 2438.205 1430.768 10849.501 1519.091 2997.792 2575.699 2015.422 7094.960 1495.401 3384.504 5939.086 1654.515 4069.523 4303.406 3015.961 1413.310 5904.766 2661.359 5438.392 4036.149 2026.120 3474.075 8428.663 3202.366 3207.863 5680.668 2328.588 2687.633 5906.836 10808.095 5616.121
9953.196 9435.884 5781.915 9180.159 9249.325 9210.455 8783.825 8485.024 8526.042 2871.262 14003.876 17395.722 9484.616 10075.512 9022.151 7948.251 9136.945 28861.792 7281.303 7933.987 9607.436 8658.019 7210.773 0.000 2947.042 5140.273 29382.711 8629.435 6031.154 8721.057 7503.277 7445.628 8384.518 9272.022 8736.928 1510.382 6341.569 8044.532 8230.270 8654.413 8818.647 8940.381 184.807 27702.663 28777.652 9132.094 8599.883 9560.723 8926.274 28687.732 8855.363 8152.308 1489.892 6268.054 9576.706 8856.728 8024.540 9743.024 9020.844 8829.975 8424.569 9007.694 8771.567 8433.447 9391.800 8933.126 7419.528 8179.006 28821.550 5425.781 8761.298 3054.794 9057.733 9654.294 9299.978 7316.199 14478.301 8723.526 8153.086 9586.373 8645.181 16717.015 8190.326 5238.585 7866.491 9068.768 9497.962 101.918 8857.090 8155.635 9159.688 10739.833 16739.224 12326.052 7829.770 9827.161 9003.252 7095.547 8824.735 8760.404 8761.397 2965.178 9070.115 8715.050 5234.378 12433.577 5092.221 8758.700 9648.452 8616.178 16916.272 8309.476 8912.754 9190.192 8635.999 529.576 6297.207 9191.657 12337.301 8564.946 9470.466 9530.814 5100.603 8116.679 1326.246 8740.144 7896.011 8560.441 8812.355 9197.066 1248.046 5213.557 9206.825 1536.226 8409.653 5565.373 1309.331 16863.799 7756.002
7006.339 7430.427 3107.209 6497.196 6637.716 6311.589 6101.926 5538.002 5665.152 540.198 11246.615 14689.572 6978.555 7132.049 6266.138 5289.759 6248.761 26572.109 4335.826 5949.495 6681.848 5935.095 4270.605 2947.042 0.000 2435.211 27046.172 5818.852 3374.424 6307.485 4569.746 5228.622 5468.068 6656.144 5972.454 1439.482 4988.193 5756.093 5490.980 5813.718 6107.472 6288.429 2866.679 27037.402 26517.107 6456.193 5846.984 7082.324 6229.288 26419.267 6161.921 5757.592 1500.826 3321.202 7082.480 6060.640 5730.816 7128.671 6392.498 6028.603 5489.723 6370.682 6034.870 5761.162 6913.179 6295.316 4577.049 5252.046 26555.103 2483.360 6056.594 306.593 6414.799 7037.534 6709.677 4524.505 13359.781 5959.656 5765.037 7022.657 5770.043 14006.252 5271.168 2830.113 4930.328 6429.848 6580.252 2923.052 6164.471 5231.830 6449.094 8716.272 14043.182 9503.402 5259.119 7197.174 6362.835 4369.950 6161.562 5816.584 6064.302 32.922 6409.554 5951.539 2721.238 9619.366 2440.671 6028.421 6705.990 5685.887 14234.854 5378.162 6243.959 6291.837 5808.966 2831.301 3491.142 6564.230 9526.189 5685.022 6792.048 6893.937 2454.029 5188.069 1673.261 6025.164 5899.468 6223.348 5960.334 6590.477 4179.954 2663.067 6534.640 1411.958 5674.227 2859.076 1658.918 14185.001 5854.588
5166.502 5215.672 672.032 5854.751 6140.550 4988.419 5505.116 3805.516 3423.014 2294.396 8873.300 12291.422 4548.408 5424.746 5460.301 4858.537 4983.339 26074.732 2807.294 3822.803 4627.711 5255.411 2859.150 5140.273 2435.211 0.000 26481.333 4897.027 939.326 6218.666 3192.652 2970.973 3402.709 6148.062 5174.729 3733.940 3582.836 3425.771 4824.884 4787.250 5437.862 5740.196 5105.759 25384.374 26059.165 5834.656 5096.849 4656.507 5581.419 25951.488 5530.271 3371.960 3848.853 1949.274 4653.835 5158.557 3398.269 4695.992 5885.251 5113.308 3535.764 5846.805 5307.039 5229.497 4488.083 5778.004 3722.290 3252.883 26089.031 1658.605 5409.158 2541.051 5873.009 4605.014 6249.549 3863.099 11562.422 5165.130 3382.252 6585.602 4609.209 11609.668 3226.745 800.032 3475.917 5895.352 5130.907 5143.147 5534.543 3214.508 5744.171 8966.908 11640.388 7187.172 5025.560 6608.698 5832.273 3939.967 3735.907 4173.919 5434.897 2404.758 5828.510 5158.978 551.598 7293.645 155.391 5318.423 5033.395 4211.786 11826.692 3402.331 5661.949 4136.406 4832.274 4869.419 3049.832 6040.757 7197.188 4511.579 4372.678 4464.225 168.116 3202.833 4013.624 5355.357 3766.809 6268.856 4875.412 6108.735 6384.533 450.346 5913.727 3669.451 4993.945 429.724 3972.169 11775.886 3802.802
22158.627 28590.276 26355.456 20679.846 20463.130 21604.232 21056.598 23018.673 24382.646 27477.925 24040.311 24707.210 26373.974 21690.276 21032.141 21814.800 21574.994 872.869 23726.917 28378.614 23085.764 21276.252 23642.174 29382.711 27046.172 26481.333 0.000 21585.934 26337.510 20747.692 23315.425 27579.605 23872.961 20448.853 21323.155 28132.755 29599.090 27352.294 21722.171 21695.824 21093.887 20841.413 29217.925 46693.130 1282.501 20709.148 21414.521 26513.190 20956.082 1225.076 21015.058 26946.091 28050.257 24534.921 26430.554 21324.327 27332.473 25744.954 20716.889 21368.979 23555.987 20746.311 21207.104 21372.463 26519.281 20820.250 22792.995 23835.688 1186.827 25043.525 21132.006 26788.913 20709.521 25742.352 20376.168 22717.299 34504.209 21333.611 26972.460 20051.270 21892.961 24591.640 23941.259 27159.194 23078.422 20690.806 21576.667 29304.322 21011.444 23895.880 20769.637 18703.380 24785.439 23521.523 21796.294 19937.294 20757.309 22764.747 25614.322 22609.339 21113.391 27049.776 20734.332 21340.302 26925.641 23599.937 26633.860 21201.225 21941.740 22420.131 24987.536 23689.477 20903.710 23701.021 21649.063 29551.139 23696.665 20548.987 23658.196 21991.096 25395.136 25640.064 26643.507 23845.188 28173.265 21177.987 28333.765 20863.398 21616.069 20505.149 30256.710 26843.365 20628.903 28175.890 21543.301 26329.458 28233.805 25015.631 28603.807
2730.781 8291.717 4823.854 1086.642 1497.066 1060.325 904.693 2105.526 3793.114 6142.794 8196.791 11530.047 6389.521 2413.517 589.409 1129.828 901.888 21177.818 2225.949 7477.794 3315.052 624.168 2099.505 8629.435 5818.852 4897.027 21585.934 0.000 4848.373 2226.048 1797.779 6541.700 3099.928 1488.349 369.714 7157.793 8197.194 6556.034 617.420 255.672 741.190 1131.821 8507.676 28760.808 21163.708 1095.718 421.718 6559.392 870.435 21055.534 861.291 6213.385 7144.921 2949.103 6495.707 261.609 6528.597 5990.402 1294.497 218.308 2745.333 1242.257 564.850 919.942 6464.675 1206.349 1252.880 2899.047 21193.131 3513.400 761.624 5629.870 1233.819 5928.725 1631.820 1313.780 15018.520 368.970 6239.195 1932.690 595.334 10883.807 3036.589 5596.683 1673.796 1260.643 1474.364 8580.723 866.807 2955.947 926.792 4868.056 10992.325 6334.089 1541.701 1800.229 1221.921 1587.788 5274.486 1835.571 807.762 5812.254 1144.929 368.602 5356.391 6488.032 5050.257 601.483 2108.039 1399.625 11238.738 2817.890 1026.357 3576.717 135.601 8613.947 2337.166 1384.529 6438.108 651.974 5485.585 5753.220 5060.318 2865.144 7304.345 692.282 7422.333 2505.911 399.086 1494.098 9775.426 5270.361 1159.894 7163.468 560.550 4768.646 7330.179 11206.394 7624.301
4621.600 4413.877 268.329 5881.153 6215.852 4737.791 5567.165 3393.736 2662.063 3214.660 7972.834 11374.300 3611.328 4947.765 5433.789 5025.314 4762.626 25958.573 2632.364 3112.694 3965.809 5294.879 2748.999 6031.154 3374.424 939.326 26337.510 4848.373 0.000 6451.610 3056.861 2192.333 2785.623 6218.560 5166.671 4654.386 3353.399 2570.841 4895.374 4695.896 5472.185 5811.484 6005.938 24768.028 25958.637 5870.838 5114.272 3721.951 5618.023 25847.320 5576.284 2471.744 4775.536 2060.792 3717.585 5104.104 2542.022 3759.921 5967.086 5055.247 2993.141 5923.441 5322.799 5333.228 3554.100 5860.435 3796.937 2696.915 25985.223 2158.036 5454.467 3477.123 5941.046 3669.132 6335.734 4010.767 10922.264 5159.027 2484.319 6668.754 4463.187 10693.713 2637.635 970.443 3263.006 5965.451 4807.063 6039.319 5581.082 2647.464 5748.622 9251.145 10720.980 6324.801 5260.256 6628.555 5906.776 4177.223 2807.506 3792.740 5486.611 3343.898 5882.076 5154.092 847.382 6425.105 948.779 5341.378 4590.798 3925.935 10904.222 2852.943 5722.696 3419.317 4761.845 5732.788 3385.304 6109.263 6327.002 4365.597 3448.725 3531.059 938.216 2661.424 4938.328 5393.813 3054.544 6549.645 4750.554 6191.667 7269.027 837.508 5946.733 4585.798 5047.918 524.784 4893.254 10852.899 3146.793
4907.272 10320.813 6352.905 1432.484 1075.958 3216.724 1353.735 4289.562 5939.653 6759.094 10340.446 13599.726 8531.598 4524.406 1859.835 1454.938 3058.329 20266.190 4060.067 9360.824 5540.408 1605.987 3872.975 8721.057 6307.485 6218.666 20747.692 2226.048 6451.610 0.000 3671.095 8404.052 5247.669 1107.327 1884.892 7400.864 9756.855 8512.943 1771.003 2481.717 1535.138 1194.826 8567.729 30853.022 20209.664 1376.677 1804.342 8700.540 1458.342 20112.010 1428.232 8205.171 7330.028 4392.066 8641.278 2128.389 8484.078 8170.775 1080.686 2166.557 4907.527 1124.684 1697.012 1331.024 8594.359 1114.323 2718.136 5018.265 20247.792 4587.706 1491.675 6044.185 1169.680 8104.788 1001.940 2452.511 17055.581 1880.082 8229.705 1088.357 2819.230 12969.599 5155.008 7001.811 3700.234 1150.709 3600.973 8651.114 1423.375 5069.900 1593.121 2812.092 13088.216 8504.208 1196.087 1509.522 1142.427 2285.888 7399.953 4054.112 1444.792 6312.680 1271.474 1877.254 6748.912 8658.698 6372.205 1654.240 4281.263 3612.009 13339.740 4960.882 1287.630 5790.617 2361.507 8840.056 3175.332 1130.806 8614.613 2865.343 7664.037 7926.373 6386.235 4973.552 7462.292 1555.444 9303.258 345.452 2602.382 1028.132 9714.673 6651.128 1379.135 7438.850 1709.138 6225.126 7516.059 13310.543 9469.769
2555.303 6649.719 3047.141 2857.341 3225.826 1816.972 2580.230 1136.331 2393.284 4784.421 7651.648 11112.743 4922.143 2588.412 2386.466 2225.177 1796.827 22923.378 428.221 5732.399 2576.151 2293.810 334.792 7503.277 4569.746 3192.652 23315.425 1797.779 3056.861 3671.095 0.000 4784.517 1750.296 3224.052 2131.615 5993.862 6401.120 4851.266 1946.440 1639.108 2461.973 2827.071 7407.878 27185.319 22917.435 2854.226 2098.614 5088.383 2606.510 22807.413 2573.785 4535.643 6022.127 1316.505 5035.274 2050.202 4822.756 4634.547 2989.330 2000.778 1494.259 2941.497 2301.050 2405.481 4970.216 2886.228 1000.447 1479.326 22945.204 2090.735 2454.427 4449.620 2950.222 4559.392 3353.606 1338.551 13384.797 2125.300 4560.370 3677.403 1422.915 10439.013 1602.609 3843.815 366.838 2976.026 2026.960 7470.956 2578.939 1516.287 2712.912 6465.647 10519.986 5763.656 2575.734 3592.708 2923.111 1700.907 3783.574 1291.659 2491.757 4555.346 2879.370 2121.215 3611.864 5907.949 3340.774 2324.796 2158.563 1116.997 10748.823 1482.798 2730.234 2513.987 1706.251 7398.276 1603.030 3115.161 5835.557 1324.804 4133.118 4377.586 3348.815 1418.374 6191.884 2389.113 5675.825 3855.528 1701.124 3209.521 8715.120 3531.743 2926.559 5976.961 2070.678 3014.225 6196.800 10708.762 5863.613
5433.124 2244.701 2414.293 7623.548 8006.559 6142.876 7363.519 4661.595 3198.883 4917.295 7054.426 10218.203 2241.553 5890.149 7126.919 6950.492 6214.612 27253.988 4368.915 958.807 4538.102 7075.281 4542.068 7445.628 5228.622 2970.973 27579.605 6541.700 2192.333 8404.052 4784.517 0.000 3727.260 8003.492 6895.254 6277.531 2308.235 619.759 6727.351 6342.079 7239.461 7610.142 7466.075 22608.246 27282.836 7625.639 6876.239 2261.497 7382.476 27165.227 7353.522 889.704 6434.467 4112.650 2302.846 6776.446 606.452 2725.693 7772.971 6725.360 4064.845 7724.680 7073.752 7184.335 2107.629 7670.360 5687.693 3806.651 27303.328 4344.051 7235.456 5402.351 7731.681 2658.273 8135.781 5957.493 8759.649 6890.384 875.013 8456.170 6049.530 9561.244 3686.611 2399.584 4868.258 7757.726 6078.402 7478.544 7358.766 3744.814 7468.415 11215.622 9552.677 5765.831 7240.254 8338.164 7706.070 6190.835 2202.951 5062.301 7273.893 5195.874 7657.503 6887.178 2536.143 5819.809 2896.919 7100.257 5645.540 5346.515 9699.061 3940.345 7512.060 3912.587 6431.824 7043.468 5487.985 7895.149 5717.739 5959.135 2721.186 2620.193 2880.176 3811.737 6577.302 7169.075 900.715 8543.779 6347.297 7992.048 8612.648 2612.201 7694.993 6188.427 6855.177 2655.488 6510.396 9642.704 1082.886
1847.502 5232.058 2928.545 4167.555 4593.012 2471.004 3997.726 1010.017 694.208 5523.299 6042.547 9523.732 3292.058 2226.331 3641.089 3859.825 2567.092 23536.803 1560.687 4592.748 1230.981 3707.815 1759.673 8384.518 5468.068 3402.709 23872.961 3099.928 2785.623 5247.669 1750.296 3727.260 0.000 4582.248 3469.609 6897.324 5761.177 3600.517 3476.744 2860.493 3840.550 4230.923 8320.857 25661.190 23561.497 4185.227 3498.427 3461.754 3969.805 23444.679 3960.600 3222.015 6968.853 2300.737 3399.623 3290.200 3575.914 2929.516 4394.162 3240.289 362.297 4342.027 3664.440 3922.244 3364.864 4303.959 2726.014 278.895 23582.787 3135.723 3856.411 5436.211 4333.407 2860.655 4728.468 3073.649 11936.498 3468.809 3248.736 5016.875 2527.835 8843.050 200.445 3751.622 1581.555 4360.223 2359.421 8371.087 3966.114 263.351 3993.595 7965.170 8910.914 4185.816 4248.118 4812.962 4321.734 3448.737 2175.017 1374.009 3901.204 5445.497 4242.558 3468.170 3592.126 4320.218 3507.452 3699.889 1932.692 1736.591 9130.287 286.934 4125.744 859.143 2970.697 8180.271 3251.067 4480.959 4238.150 2454.254 2422.943 2681.041 3506.784 347.783 7141.232 3786.725 4541.996 5475.911 2811.109 4592.746 9629.931 3551.042 4242.412 6855.828 3549.163 3043.898 7123.630 9087.237 4786.202
3957.651 9779.854 6164.248 424.541 32.115 2302.852 651.396 3579.948 5273.705 7055.295 9327.505 12542.717 7866.361 3532.736 951.361 1370.491 2155.042 20006.309 3647.458 8946.100 4681.021 930.634 3493.831 9272.022 6656.144 6148.062 20448.853 1488.349 6218.560 1107.327 3224.052 8003.492 4582.248 0.000 1120.869 7874.323 9570.392 8036.386 1328.038 1721.866 764.242 408.759 9130.632 30242.618 19973.042 397.991 1127.257 8036.291 622.881 19869.455 650.324 7697.920 7827.752 4218.656 7971.242 1294.549 8008.698 7449.909 268.127 1343.605 4224.892 301.692 933.286 927.481 7944.918 373.122 2435.311 4386.402 20006.399 4614.504 769.880 6422.183 277.572 7391.170 151.480 2293.078 16506.742 1123.686 7723.612 453.390 2055.947 11919.966 4523.810 6892.666 3147.671 253.683 2646.505 9210.394 645.144 4443.631 606.657 3408.365 12042.962 7518.543 1444.921 556.551 315.791 2316.415 6757.209 3277.777 734.213 6656.011 346.510 1125.702 6644.529 7672.922 6303.414 904.344 3340.999 2859.890 12296.581 4302.148 496.381 5009.886 1613.590 9334.681 3247.946 109.398 7634.710 2128.014 6947.611 7217.804 6315.406 4353.225 7973.178 834.981 8890.100 1452.621 1783.251 88.371 10335.419 6552.433 350.762 7898.628 1170.642 6077.951 8015.569 12268.959 9084.459
3034.007 8659.144 5131.649 728.393 1128.719 1343.506 542.377 2474.147 4162.722 6319.495 8489.754 11797.416 6758.916 2682.031 296.384 971.809 1183.353 20905.798 2559.106 7834.236 3659.126 284.326 2420.521 8736.928 5972.454 5174.729 21323.155 369.714 5166.671 1884.892 2131.615 6895.254 3469.609 1120.869 0.000 7281.802 8519.131 6918.036 522.707 615.745 372.703 763.055 8609.554 29130.523 20886.563 731.946 153.966 6928.796 500.945 20779.597 492.629 6577.761 7259.528 3226.057 6864.981 257.607 6890.466 6357.407 925.160 286.564 3114.792 872.830 196.564 632.553 6834.317 838.657 1471.340 3268.345 20917.044 3735.857 399.264 5769.668 864.154 6296.201 1263.090 1449.567 15387.031 13.807 6603.497 1568.002 956.960 11156.350 3405.926 5890.625 2031.072 890.978 1743.695 8684.593 498.138 3325.095 582.387 4499.284 11268.452 6637.812 1342.871 1462.982 852.452 1643.956 5644.198 2196.441 446.300 5967.704 776.197 22.500 5647.334 6792.104 5329.015 235.782 2407.792 1764.402 11516.786 3187.602 657.413 3937.659 500.405 8742.809 2481.771 1016.098 6745.015 1019.448 5852.936 6121.011 5339.735 3234.010 7415.574 331.760 7778.537 2178.587 718.196 1124.706 9862.977 5559.134 799.796 7292.693 368.661 5065.638 7446.061 11485.555 7977.360
8445.228 8386.599 4395.174 7756.377 7853.206 7710.366 7359.213 6976.093 7067.801 1440.199 12604.133 16025.035 8198.536 8565.132 7570.740 6529.122 7640.084 27633.293 5771.215 6879.058 8115.401 7217.793 5700.484 1510.382 1439.482 3733.940 28132.755 7157.793 4654.386 7400.864 5993.862 6277.531 6897.324 7874.323 7281.802 0.000 5552.017 6850.195 6782.848 7172.535 7383.221 7527.622 1427.421 27387.193 27562.659 7710.848 7148.594 8288.082 7496.453 27468.999 7426.654 6910.060 194.527 4758.851 8296.647 7390.571 6827.586 8406.525 7617.413 7361.906 6926.569 7600.885 7326.607 7011.203 8118.242 7525.742 5935.065 6685.756 27603.834 3915.423 7328.104 1548.601 7648.829 8316.348 7912.372 5847.923 13898.308 7268.586 6913.908 8210.349 7152.038 15343.462 6701.533 3950.369 6356.708 7661.443 7992.583 1483.743 7428.694 6664.203 7725.426 9597.779 15373.322 10891.109 6442.729 8425.761 7595.122 5648.700 7461.882 7250.042 7331.033 1458.951 7654.512 7260.220 3904.381 11003.100 3705.743 7316.057 8138.083 7107.558 15558.074 6813.661 7493.504 7713.279 7158.715 1463.117 4820.889 7789.194 10908.350 7070.231 8102.509 8182.866 3716.170 6622.438 300.478 7303.081 6834.986 7270.126 7326.893 7802.709 2740.592 3868.433 7787.221 108.791 6964.153 4163.523 239.060 15506.915 6737.433
7567.003 3368.062 3413.499 9234.528 9567.230 8009.660 8919.067 6580.458 5345.170 4510.610 9220.852 12218.177 4438.762 7984.012 8784.095 8353.436 8052.103 29241.058 5973.913 2078.829 6725.890 8647.940 6099.537 6341.569 4988.193 3582.836 29599.090 8197.194 3353.399 9756.855 6401.120 2308.235 5761.177 9570.392 8519.131 5552.017 0.000 2823.737 8245.369 8037.250 8825.485 9162.816 6414.888 22057.860 29251.561 9224.200 8467.666 4417.473 8971.318 29137.966 8929.238 3179.245 5739.835 5378.165 4475.418 8451.180 2825.162 4988.523 9317.447 8401.861 6058.734 9274.348 8676.138 8679.027 4287.030 9210.576 7142.965 5772.630 29276.008 5240.462 8807.374 5253.683 9292.827 4928.924 9686.027 7340.195 8386.402 8511.620 3160.687 10019.765 7790.351 11584.754 5673.816 2783.016 6582.345 9317.070 8022.423 6401.198 8934.015 5713.498 9101.291 12531.784 11555.404 8045.191 8560.823 9981.476 9257.892 7471.096 4508.012 6989.771 8839.190 4957.287 9234.847 8506.762 3034.043 8090.860 3437.545 8694.777 7688.576 7192.704 11676.820 5922.235 9074.864 6103.285 8107.330 5854.975 6613.727 9461.167 7989.363 7693.740 5025.080 4908.696 3421.587 5759.250 5839.484 8746.966 2073.836 9828.215 8082.257 9542.182 7349.230 3134.783 9300.129 5446.217 8399.865 3531.824 5750.153 11618.207 1802.358
5195.986 1875.790 2817.655 7642.654 8041.909 6063.058 7408.234 4581.361 3000.853 5470.321 6456.475 9600.697 1641.675 5677.089 7132.491 7058.937 6148.795 27043.949 4453.104 1027.904 4267.754 7116.797 4640.970 8044.532 5756.093 3425.771 27352.294 6556.034 2570.841 8512.943 4851.266 619.759 3600.517 8036.386 6918.036 6850.195 2823.737 0.000 6795.546 6341.992 7273.414 7653.051 8061.027 22392.375 27082.150 7649.836 6912.790 1650.256 7413.508 26962.589 7390.246 409.544 7002.834 4336.201 1695.694 6779.036 29.951 2165.200 7817.276 6727.887 3954.658 7767.472 7103.112 7255.202 1501.144 7717.509 5798.395 3722.654 27100.623 4670.837 7275.194 5914.198 7769.825 2105.211 8173.931 6089.788 8557.983 6914.344 384.134 8485.882 6033.291 8944.933 3593.104 2930.576 4888.876 7796.298 5957.480 8075.412 7395.615 3661.254 7480.171 11315.618 8935.130 5221.456 7373.947 8336.430 7748.217 6354.766 1791.731 4968.156 7315.816 5723.604 7689.976 6911.874 3039.336 5267.771 3370.079 7132.516 5470.455 5291.094 9080.456 3841.743 7552.074 3651.339 6439.082 7649.100 5716.548 7929.548 5166.165 5947.319 2227.129 2090.129 3354.140 3739.152 7149.046 7207.241 985.959 8674.813 6329.041 8031.736 9219.036 3106.009 7715.707 6763.392 6910.963 3071.153 7084.818 9024.007 1273.754
3316.056 8579.312 4837.153 1042.398 1323.211 1669.850 680.392 2527.029 4168.657 5853.208 8782.143 12131.788 6761.404 3021.511 793.614 513.025 1513.665 21292.466 2358.454 7677.392 3837.250 449.206 2191.017 8230.270 5490.980 4824.884 21722.171 617.420 4895.374 1771.003 1946.440 6727.351 3476.744 1328.038 522.707 6782.848 8245.369 6795.546 0.000 835.696 629.510 919.321 8100.929 29096.774 21265.889 1015.396 374.358 6930.475 766.146 21160.711 709.079 6473.634 6756.478 2891.056 6870.832 717.960 6767.184 6401.338 1072.092 716.595 3137.963 1029.544 544.504 459.766 6825.551 965.214 1107.343 3248.002 21297.909 3321.433 590.430 5280.391 1051.016 6334.767 1440.658 996.495 15315.534 508.900 6498.692 1774.752 1131.011 11482.779 3384.955 5565.410 1936.730 1074.371 2085.640 8176.639 713.010 3300.124 964.346 4529.569 11589.073 6910.842 930.150 1790.888 1013.556 1135.033 5631.071 2320.671 611.890 5487.399 1003.659 500.207 5317.700 7064.260 4980.134 537.656 2699.537 1875.529 11834.179 3189.926 837.302 4040.594 727.141 8245.155 2009.945 1219.475 7011.380 1151.972 5894.507 6156.082 4991.871 3204.162 6911.045 545.335 7620.645 2008.567 1007.362 1296.864 9349.482 5226.048 1095.424 6796.192 183.492 4749.948 6943.415 11801.100 7804.229
2486.790 8064.770 4683.149 1310.190 1732.524 836.994 1156.258 1860.701 3552.432 6118.890 7953.851 11296.625 6146.934 2186.314 790.894 1346.465 684.114 21295.966 2064.281 7273.218 3059.568 879.059 1954.983 8654.413 5813.718 4787.250 21695.824 255.672 4695.896 2481.717 1639.108 6342.079 2860.493 1721.866 615.745 7172.535 8037.250 6341.992 835.696 0.000 988.338 1378.216 8536.825 28521.389 21286.485 1325.356 677.379 6316.848 1111.614 21177.228 1108.083 5994.559 7166.583 2847.596 6252.509 437.111 6314.823 5741.935 1539.324 386.006 2503.763 1486.811 812.309 1172.233 6223.983 1454.330 1238.151 2666.304 21314.943 3459.897 1012.928 5635.706 1474.985 5680.976 1868.009 1365.601 14787.533 616.910 6020.523 2159.856 341.517 10648.341 2803.470 5469.265 1477.478 1501.751 1253.073 8608.363 1113.584 2724.087 1141.016 5113.641 10755.395 6087.745 1765.833 1997.170 1466.327 1685.658 5035.503 1581.950 1059.509 5805.709 1382.514 617.638 5232.442 6241.534 4939.102 850.831 1866.835 1148.657 11001.013 2580.319 1272.481 3323.315 120.332 8623.287 2358.110 1620.521 6190.683 406.301 5237.646 5506.021 4948.491 2634.865 7328.230 944.065 7218.162 2760.636 185.925 1732.967 9813.598 5148.770 1384.683 7174.336 805.515 4639.596 7350.638 10968.234 7424.965
3372.283 9022.922 5426.095 417.098 768.621 1681.608 181.683 2846.536 4533.974 6476.808 8813.767 12099.164 7130.637 2998.113 353.128 898.683 1523.414 20665.994 2886.656 8181.859 4022.070 182.949 2737.187 8818.647 6107.472 5437.862 21093.887 741.190 5472.185 1535.138 2461.973 7239.461 3840.550 764.242 372.703 7383.221 8825.485 7273.414 629.510 988.338 0.000 390.632 8685.788 29500.827 20640.834 399.259 363.485 7300.500 145.842 20535.286 120.102 6936.681 7351.473 3495.889 7236.878 596.376 7245.661 6730.109 553.639 637.866 3486.427 501.627 176.382 434.208 7205.402 465.992 1715.657 3636.787 20672.538 3949.687 67.844 5891.487 497.337 6668.892 900.658 1625.992 15752.855 372.373 6962.301 1216.723 1329.333 11462.648 3774.459 6169.182 2384.542 524.025 2068.306 8762.721 125.618 3693.120 342.367 4126.917 11577.670 6971.231 1183.881 1170.836 481.435 1739.091 6014.705 2567.992 101.313 6104.602 418.043 372.592 5923.170 7125.681 5592.869 141.555 2746.179 2136.962 11827.498 3557.972 285.217 4308.896 873.006 8846.278 2635.085 656.481 7080.753 1392.052 6225.634 6493.669 5604.244 3601.383 7503.726 84.189 8125.863 1842.181 1082.319 759.372 9922.700 5832.874 476.900 7399.376 449.416 5348.925 7538.857 11797.194 8320.590
3725.782 9408.739 5755.938 293.502 404.414 2041.926 246.905 3237.124 4924.441 6678.263 9146.974 12407.152 7521.219 3331.979 670.906 1000.246 1886.495 20402.805 3248.452 8555.106 4399.519 536.287 3091.425 8940.381 6288.429 5740.196 20841.413 1131.821 5811.484 1194.826 2827.071 7610.142 4230.923 408.759 763.055 7527.622 9162.816 7653.051 919.321 1378.216 390.632 0.000 8802.217 29890.797 20371.586 230.924 741.511 7691.078 274.720 20267.509 270.536 7319.087 7486.501 3809.916 7627.493 974.488 7625.160 7120.150 164.583 1019.185 3877.007 114.581 566.999 531.956 7595.787 81.581 2026.558 4026.016 20404.535 4213.193 378.525 6060.315 133.163 7059.126 527.169 1888.548 16139.969 762.978 7344.615 857.378 1718.746 11775.751 4163.722 6483.985 2765.321 155.237 2414.839 8880.926 265.020 4082.119 411.322 3736.306 11893.859 7315.475 1151.934 910.644 96.091 1930.815 6404.861 2955.896 337.241 6287.393 135.818 763.221 6235.920 7469.993 5895.531 531.040 3101.471 2526.553 12145.203 3948.134 105.747 4696.072 1263.459 8989.818 2856.765 300.625 7427.382 1782.504 6615.825 6884.021 5907.468 3990.031 7634.592 447.446 8498.878 1520.683 1465.458 382.767 10020.375 6143.906 284.709 7548.973 764.286 5669.198 7674.289 12115.906 8690.169
9871.053 9478.373 5753.734 9044.308 9107.643 9103.128 8648.375 8401.074 8476.538 2823.223 13976.233 17377.116 9484.139 9985.012 8893.526 7812.080 9027.290 28695.038 7193.965 7973.831 9540.827 8526.481 7118.995 184.807 2866.679 5105.759 29217.925 8507.676 6005.938 8567.729 7407.878 7466.075 8320.857 9130.632 8609.554 1427.421 6414.888 8061.027 8100.929 8536.825 8685.788 8802.217 0.000 27837.141 28609.731 8995.688 8471.438 9563.180 8791.977 28520.133 8720.837 8159.785 1385.873 6183.796 9577.593 8732.879 8040.530 9731.128 8880.713 8706.812 8353.497 8868.254 8641.240 8297.658 9393.943 8793.844 7303.759 8111.441 28653.859 5336.988 8627.913 2958.517 8918.697 9641.995 9156.681 7193.978 14584.504 8596.103 8161.171 9440.890 8533.351 16697.506 8125.665 5232.162 7772.083 8929.401 9395.518 88.376 8722.488 8089.289 9026.361 10568.692 16721.838 12286.443 7687.292 9686.225 8864.086 6966.843 8805.666 8670.644 8627.320 2886.357 8932.493 8587.598 5219.035 12395.579 5063.010 8627.751 9557.197 8518.678 16900.999 8240.088 8776.017 9132.323 8516.451 672.865 6178.796 9051.243 12299.818 8454.103 9450.423 9515.968 5071.940 8048.416 1217.144 8607.743 7934.851 8403.537 8696.365 9055.076 1313.295 5194.731 9070.013 1465.039 8279.673 5532.754 1212.465 16848.868 7801.134
26631.149 20545.264 24956.664 29825.682 30253.824 28034.853 29655.154 26663.031 24968.989 26542.218 22901.716 22027.455 22378.523 27150.091 29297.534 29410.376 28159.246 46649.871 26810.529 21662.135 25730.870 29363.789 27007.389 27702.663 27037.402 25384.374 46693.130 28760.808 24768.028 30853.022 27185.319 22608.246 25661.190 30242.618 29130.523 27387.193 22057.860 22392.375 29096.774 28521.389 29500.827 29890.797 27837.141 0.000 46815.497 29845.117 29154.638 22208.656 29630.931 46674.973 29620.778 22669.373 27581.702 26712.609 22275.327 28948.909 22422.036 22828.459 30054.440 28899.425 26017.763 30002.446 29324.939 29553.228 22297.740 29962.836 28162.724 25865.984 46805.493 26922.845 29514.848 27308.905 29994.504 22879.419 30389.369 28467.711 13848.689 29129.535 22645.860 30673.340 28186.811 22105.514 25728.234 24629.714 27160.078 30021.324 27794.212 27790.424 29626.287 25810.691 29649.591 33619.277 21912.222 23901.520 29746.678 30440.751 29982.216 28745.230 23486.340 26981.062 29559.064 27007.132 29903.702 29128.753 24851.806 23782.552 25266.550 29359.848 27145.913 27385.767 21716.171 25942.950 29785.885 25289.960 28631.884 27173.316 28092.165 30141.901 23756.195 28115.089 23320.801 23046.783 25249.077 25904.082 27642.655 29445.227 21720.626 31039.134 28464.524 30253.933 28285.149 24949.317 29900.655 27278.428 29189.358 25169.043 27543.766 21685.915 21622.889
21887.346 28382.620 25964.044 20224.565 19985.601 21242.450 20593.392 22679.717 24094.998 26962.536 24050.602 24895.481 26167.025 21406.333 20599.262 21330.426 21204.207 435.843 23334.563 28104.842 22826.123 20823.736 23239.920 28777.652 26517.107 26059.165 1282.501 21163.708 25958.637 20209.664 22917.435 27282.836 23561.497 19973.042 20886.563 27562.659 29251.561 27082.150 21265.889 21286.485 20640.834 20371.586 28609.731 46815.497 0.000 20250.557 20970.724 26310.762 20500.506 149.108 20556.922 26678.807 27472.964 24109.930 26228.435 20902.475 27061.315 25545.854 20241.028 20948.487 23235.708 20272.937 20761.626 20899.996 26308.715 20345.898 22350.496 23509.789 95.675 24583.963 20675.669 26252.795 20238.851 25538.742 19892.651 22256.697 34422.814 20896.486 26705.383 19563.221 21499.033 24745.415 23619.842 26755.704 22695.633 20219.048 21238.843 28696.788 20553.074 23570.650 20323.502 18055.741 24939.787 23434.404 21288.706 19475.506 20284.929 22282.598 25366.922 22270.694 20654.600 26522.135 20269.539 20902.849 26517.975 23519.945 26212.896 20753.290 21637.299 22059.526 25150.172 23366.666 20438.722 23434.269 21233.529 28965.502 23217.608 20075.593 23573.559 21596.991 25178.245 25429.139 26223.204 23515.603 27590.894 20724.574 28058.367 20306.803 21216.383 20025.237 29617.164 26433.096 20170.482 27609.876 21089.591 25926.080 27654.719 25175.487 28321.733
3585.556 9386.919 5825.340 62.931 411.711 1917.275 354.349 3182.246 4876.345 6836.590 8982.989 12225.150 7468.542 3174.622 554.761 1183.864 1766.758 20277.597 3280.145 8565.583 4291.603 579.999 3133.563 9132.094 6456.193 5834.656 20709.148 1095.718 5870.838 1376.677 2854.226 7625.639 4185.227 397.991 731.946 7710.848 9224.200 7649.836 1015.396 1325.356 399.259 230.924 8995.688 29845.117 20250.557 0.000 757.867 7638.472 253.893 20145.451 306.367 7308.718 7673.193 3894.099 7573.355 896.615 7622.288 7052.187 296.101 945.792 3827.521 255.286 553.206 699.675 7547.381 289.872 2112.450 3991.105 20282.637 4335.460 425.944 6233.252 206.997 6993.325 547.239 2008.250 16112.102 736.049 7334.495 836.979 1658.313 11596.964 4128.400 6567.785 2762.954 226.862 2272.623 9073.820 302.557 4048.594 223.117 3804.761 11717.001 7161.747 1371.312 775.653 240.118 2088.120 6360.081 2880.238 404.327 6454.335 108.489 738.907 6321.539 7316.239 5989.742 530.570 2965.041 2461.906 11969.278 3905.586 220.803 4613.603 1218.628 9173.711 3001.998 303.220 7275.825 1731.217 6549.767 6819.887 6001.216 3958.669 7822.821 480.037 8509.817 1711.907 1385.413 422.540 10220.010 6231.032 80.247 7730.212 841.251 5747.927 7860.886 11940.649 8707.459
3138.470 8667.435 5071.817 767.000 1130.790 1453.695 500.765 2512.961 4192.540 6200.343 8600.506 11918.917 6790.327 2800.819 422.356 819.191 1293.319 20992.622 2523.592 7819.059 3736.649 209.389 2375.705 8599.883 5846.984 5096.849 21414.521 421.718 5114.272 1804.342 2098.614 6876.239 3498.427 1127.257 153.966 7148.594 8467.666 6912.790 374.358 677.379 363.485 741.511 8471.438 29154.638 20970.724 757.867 0.000 6960.076 507.960 20864.401 477.824 6577.804 7124.298 3150.837 6897.424 392.584 6884.965 6400.411 906.085 410.074 3147.324 855.509 210.416 509.658 6862.527 809.819 1379.847 3288.686 21001.763 3634.860 362.989 5640.785 857.213 6337.638 1261.564 1330.450 15399.206 140.546 6603.355 1580.064 1015.754 11275.885 3426.435 5821.333 2024.335 883.610 1860.491 8546.848 483.144 3344.235 647.593 4466.974 11386.603 6743.100 1196.731 1518.102 835.990 1504.597 5670.278 2254.438 405.428 5842.729 781.404 132.181 5576.447 6897.230 5251.557 227.341 2513.393 1815.792 11634.186 3214.310 639.414 3994.747 557.169 8610.303 2358.668 1019.052 6848.642 1066.851 5894.898 6161.327 5262.623 3251.487 7279.598 294.501 7763.016 2085.773 807.468 1118.981 9722.043 5487.055 832.710 7160.657 214.695 4998.907 7311.045 11602.504 7957.266
4583.899 2078.114 3990.094 7618.028 8048.156 5838.251 7459.061 4456.514 2767.568 6867.722 4813.999 7961.737 169.930 5104.586 7089.540 7288.879 5957.442 26248.979 4766.072 2395.941 3633.059 7169.458 4975.168 9560.723 7082.324 4656.507 26513.190 6559.392 3721.951 8700.540 5088.383 2261.497 3461.754 8036.291 6928.796 8288.082 4417.473 1650.256 6930.475 6316.848 7300.500 7691.078 9563.180 22208.656 26310.762 7638.472 6960.076 0.000 7428.026 26186.506 7420.598 1426.315 8426.821 4995.627 82.755 6741.906 1659.000 769.840 7853.881 6692.697 3814.073 7801.606 7124.217 7380.064 169.854 7764.702 6088.467 3682.473 26324.086 5549.912 7317.481 7197.513 7791.599 772.040 8183.837 6420.731 8547.719 6928.358 1430.428 8465.003 5980.464 7302.058 3545.572 4340.285 5004.827 7818.389 5626.252 9584.222 7426.114 3630.647 7441.386 11426.460 7296.480 3700.207 7658.801 8235.939 7781.243 6754.788 1305.196 4773.379 7362.449 7051.039 7699.244 6927.932 4388.823 3725.623 4641.757 7160.191 5017.086 5177.600 7447.585 3746.674 7585.708 3116.968 6428.920 9191.732 6307.000 7936.570 3626.509 5910.734 1163.746 894.786 4628.310 3727.147 8581.950 7247.793 2383.746 8916.688 6256.277 8049.759 10760.640 4433.396 7693.022 8208.796 7008.882 4246.191 8526.228 7391.840 2685.995
3454.202 9159.149 5571.715 276.252 629.049 1768.400 163.956 2972.249 4662.609 6603.338 8882.271 12152.641 7258.125 3066.086 401.495 986.841 1612.487 20526.537 3031.547 8324.180 4124.870 326.215 2882.743 8926.274 6229.288 5581.419 20956.082 870.435 5618.023 1458.342 2606.510 7382.476 3969.805 622.881 500.945 7496.453 8971.318 7413.508 766.146 1111.614 145.842 274.720 8791.977 29630.931 20500.506 253.893 507.960 7428.026 0.000 20395.164 72.788 7075.389 7462.294 3640.343 7363.893 700.805 7385.817 6852.159 429.563 746.293 3614.328 376.924 310.459 503.966 7334.270 355.494 1859.133 3769.290 20532.385 4087.573 176.113 6010.364 363.624 6791.742 762.716 1761.711 15887.698 502.764 7101.060 1073.988 1450.628 11519.042 3906.868 6313.938 2524.800 390.434 2144.580 8869.398 72.504 3826.031 243.688 4002.403 11635.877 7046.934 1232.232 1027.701 356.334 1859.350 6144.596 2685.081 165.471 6226.843 276.537 504.262 6067.747 7201.442 5736.474 282.229 2829.318 2258.206 11886.613 3688.154 172.478 4424.350 999.236 8959.566 2764.050 516.458 7158.118 1517.385 6348.318 6617.107 5747.908 3734.886 7613.499 226.224 8268.251 1776.703 1192.521 623.764 10023.968 5977.299 332.346 7513.923 589.301 5494.034 7649.825 11856.906 8463.819
21767.415 28258.843 25853.760 20119.159 19882.173 21129.280 20488.747 22564.911 23976.464 26863.410 23914.223 24752.082 26043.055 21287.258 20491.935 21227.809 21091.756 353.660 23224.115 27985.611 22705.462 20718.165 23130.288 28687.732 26419.267 25951.488 1225.076 21055.534 25847.320 20112.010 22807.413 27165.227 23444.679 19869.455 20779.597 27468.999 29137.966 26962.589 21160.711 21177.228 20535.286 20267.509 28520.133 46674.973 149.108 20145.451 20864.401 26186.506 20395.164 0.000 20451.817 26559.013 27380.036 24002.320 26104.153 20794.236 26941.825 25421.325 20137.483 20840.137 23119.524 20169.170 20655.423 20796.231 26184.994 20242.230 22244.226 23394.061 138.109 24479.444 20570.419 26155.623 20134.832 25414.507 19789.759 22152.027 34291.646 20789.568 26585.575 19460.699 21388.511 24603.171 23503.782 26646.493 22584.329 20115.126 21123.789 28607.126 20447.989 23454.876 20217.298 17969.248 24797.531 23302.971 21188.257 19370.574 20181.072 22179.891 25245.629 22155.821 20549.567 26424.157 20164.992 20795.961 26409.099 23388.126 26105.128 20647.303 21519.756 21946.358 25007.637 23250.687 20334.217 23314.170 21124.791 28873.551 23114.722 19971.799 23442.000 21486.496 25054.861 25305.377 26115.380 23400.158 27498.500 20619.070 27939.250 20211.010 21106.306 19922.032 29531.049 26324.433 20065.349 27515.804 20984.161 25816.793 27561.991 25033.049 28203.117
3479.690 9141.654 5527.198 337.520 653.102 1790.638 96.363 2966.604 4654.048 6537.776 8915.192 12192.736 7250.736 3098.821 437.848 914.449 1633.310 20583.915 2997.501 8296.737 4137.595 281.724 2845.510 8855.363 6161.921 5530.271 21015.058 861.291 5576.284 1428.232 2573.785 7353.522 3960.600 650.324 492.629 7426.654 8929.238 7390.246 709.079 1108.083 120.102 270.536 8720.837 29620.778 20556.922 306.367 477.824 7420.598 72.788 20451.817 0.000 7054.359 7391.987 3591.435 7356.981 710.920 7362.450 6849.963 433.663 753.857 3606.525 381.772 296.464 431.198 7325.457 346.426 1808.571 3756.509 20589.003 4029.245 121.980 5942.069 379.583 6788.818 783.799 1702.242 15871.987 492.447 7079.951 1103.624 1448.905 11557.811 3894.192 6265.652 2501.515 406.097 2172.784 8798.334 5.516 3812.773 316.344 4006.835 11673.815 7076.081 1161.216 1081.825 361.662 1792.045 6134.700 2687.047 98.706 6159.623 306.501 492.694 6018.956 7230.564 5685.413 261.017 2854.008 2256.627 11924.134 3677.965 165.144 4427.733 993.003 8889.754 2699.992 541.670 7186.380 1512.054 6345.544 6613.640 5696.968 3720.929 7542.987 184.672 8240.669 1740.870 1199.396 641.584 9952.163 5928.103 386.492 7444.428 536.333 5446.989 7579.544 11894.147 8434.338
4791.683 2124.483 2731.586 7299.655 7704.370 5690.370 7075.434 4212.352 2607.576 5505.922 6178.291 9382.555 1381.307 5275.628 6785.452 6753.956 5780.056 26639.511 4147.548 1436.725 3860.698 6783.320 4341.035 8152.308 5757.592 3371.960 26946.091 6213.385 2471.744 8205.171 4535.643 889.704 3222.015 7697.920 6577.761 6910.060 3179.245 409.544 6473.634 5994.559 6936.681 7319.087 8159.785 22669.373 26678.807 7308.718 6577.804 1426.315 7075.389 26559.013 7054.359 0.000 7055.408 4103.987 1455.735 6431.611 393.493 1836.516 7483.572 6380.545 3579.219 7433.261 6764.954 6933.347 1262.450 7385.097 5498.368 3356.274 26697.035 4501.675 6940.700 5896.872 7433.805 1768.588 7837.261 5798.914 8851.230 6574.520 26.847 8145.555 5680.880 8719.899 3224.461 2962.030 4553.932 7460.399 5573.980 8178.414 7059.767 3295.362 7134.752 11000.453 8717.683 4877.675 7079.950 7984.949 7413.788 6078.673 1385.429 4593.844 6982.098 5725.566 7351.915 6572.335 3038.594 4930.554 3334.136 6795.409 5075.701 4927.583 8871.492 3470.221 7217.163 3245.832 6094.091 7774.855 5478.308 7591.824 4828.520 5596.675 1847.903 1733.087 3319.206 3376.372 7206.614 6872.269 1395.375 8376.919 5975.244 7695.880 9344.714 3094.530 7373.183 6827.291 6583.646 2989.663 7146.943 8815.995 1682.651
8491.917 8554.491 4514.152 7719.783 7806.058 7721.001 7322.784 7020.766 7156.264 1563.415 12711.276 16139.262 8334.897 8600.426 7546.648 6489.979 7647.093 27546.302 5811.470 7047.816 8182.273 7188.163 5734.190 1489.892 1500.826 3848.853 28050.257 7144.921 4775.536 7330.028 6022.127 6434.467 6968.853 7827.752 7259.528 194.527 5739.835 7002.834 6756.478 7166.583 7351.473 7486.501 1385.873 27581.702 27472.964 7673.193 7124.298 8426.821 7462.294 27380.036 7391.987 7055.408 0.000 4804.149 8434.035 7374.429 6979.886 8532.364 7572.798 7346.889 6988.589 7557.524 7299.254 6973.616 8256.969 7482.558 5930.888 6752.519 27514.680 3954.223 7295.341 1573.285 7606.286 8441.935 7862.279 5832.601 14089.918 7246.211 7059.746 8156.549 7155.352 15457.110 6771.993 4093.717 6386.475 7618.307 8010.681 1450.729 7393.894 6732.552 7693.299 9490.333 15488.928 10987.079 6391.468 8380.792 7552.257 5621.483 7582.299 7286.503 7297.035 1523.440 7614.568 7237.784 4039.295 11100.691 3826.931 7287.597 8172.354 7132.812 15675.544 6877.958 7454.939 7791.152 7149.524 1511.394 4810.453 7744.311 11006.540 7075.057 8221.015 8306.251 3837.918 6688.358 172.549 7272.037 7003.208 7191.461 7323.666 7754.908 2694.622 3999.977 7748.935 303.275 6936.918 4278.537 187.825 15624.718 6909.645
3687.777 6208.420 1965.462 3912.035 4212.894 3131.752 3570.953 2217.308 2708.345 3493.186 8325.277 11807.489 4844.457 3816.582 3511.061 2975.444 3104.168 24126.004 1019.640 5068.281 3444.473 3314.133 988.592 6268.054 3321.202 1949.274 24534.921 2949.103 2060.792 4392.066 1316.505 4112.650 2300.737 4218.656 3226.057 4758.851 5378.165 4336.201 2891.056 2847.596 3495.889 3809.916 6183.796 26712.609 24109.930 3894.099 3150.837 4995.627 3640.343 24002.320 3591.435 4103.987 4804.149 0.000 4960.805 3210.708 4306.281 4725.436 3959.392 3165.942 2236.672 3918.818 3361.217 3310.844 4849.671 3852.055 1783.936 2045.039 24139.853 859.781 3469.790 3235.940 3941.969 4638.700 4326.484 1962.073 12866.304 3216.582 4124.720 4662.152 2692.144 11125.111 2101.340 2674.507 1652.526 3965.105 3337.699 6242.360 3595.862 2041.390 3797.499 7190.395 11187.201 6482.474 3199.650 4666.034 3903.444 2116.914 3759.674 2502.130 3497.365 3303.743 3892.646 3210.513 2427.523 6614.594 2103.242 3373.841 3393.430 2417.576 11401.414 2145.166 3727.846 3159.655 2887.649 6132.078 1380.918 4110.351 6530.459 2596.053 4267.627 4462.568 2113.812 1975.359 4976.027 3414.120 5009.799 4489.597 2945.865 4183.960 7496.515 2336.985 3972.600 4733.071 3055.611 1860.817 4971.916 11356.812 5143.722
4506.052 2160.851 3985.881 7552.513 7983.298 5768.434 7396.078 4391.902 2705.449 6873.769 4762.856 7927.458 116.398 5027.052 7023.881 7232.278 5888.446 26166.525 4716.730 2462.201 3555.975 7106.788 4926.166 9576.706 7082.480 4653.835 26430.554 6495.707 3717.585 8641.278 5035.274 2302.846 3399.623 7971.242 6864.981 8296.647 4475.418 1695.694 6870.832 6252.509 7236.878 7627.493 9577.593 22275.327 26228.435 7573.355 6897.424 82.755 7363.893 26104.153 7356.981 1455.735 8434.035 4960.805 0.000 6676.745 1703.243 687.090 7790.127 6627.644 3750.639 7737.811 7060.557 7319.638 195.247 7701.358 6035.601 3623.018 26241.729 5524.681 7254.339 7194.368 7727.415 689.831 8119.003 6368.986 8621.582 6864.648 1461.258 8399.038 5915.639 7266.019 3486.380 4351.171 4947.345 7754.196 5553.787 9599.364 7362.496 3571.737 7375.569 11363.287 7262.442 3629.186 7603.893 8167.742 7717.428 6705.368 1251.913 4705.927 7299.411 7051.317 7634.731 6864.289 4395.021 3656.421 4641.842 7096.711 4942.248 5111.985 7415.758 3685.031 7522.064 3043.551 6364.939 9211.003 6266.368 7871.814 3557.002 5846.516 1085.747 815.337 4628.597 3668.553 8589.889 7184.655 2448.818 8859.221 6190.503 7985.272 10779.322 4437.885 7627.512 8218.107 6947.882 4241.216 8534.985 7360.270 2752.018
2782.735 8500.360 5082.183 877.356 1307.131 1091.124 775.982 2285.885 3980.535 6391.016 8234.871 11539.965 6571.977 2425.262 353.899 1203.286 931.586 20916.350 2477.925 7708.936 3426.690 539.894 2356.018 8856.728 6060.640 5158.557 21324.327 261.609 5104.104 2128.389 2050.202 6776.446 3290.200 1294.549 257.607 7390.571 8451.180 6779.036 717.960 437.111 596.376 974.488 8732.879 28948.909 20902.475 896.615 392.584 6741.906 700.805 20794.236 710.920 6431.611 7374.429 3210.708 6676.745 0.000 6751.851 6157.307 1129.889 51.176 2931.770 1077.309 431.769 889.812 6651.186 1054.016 1505.897 3100.467 20931.840 3770.356 636.716 5867.357 1059.035 6097.903 1442.877 1542.656 15221.343 266.847 6457.582 1726.860 762.402 10899.146 3237.390 5857.060 1909.280 1085.464 1487.817 8806.679 716.223 3158.616 705.116 4697.370 11011.481 6385.299 1588.825 1561.764 1056.718 1786.236 5464.649 1986.916 683.616 6054.582 961.929 272.745 5617.104 6539.651 5311.751 474.906 2156.341 1565.430 11259.960 3011.712 869.736 3724.579 346.258 8848.668 2573.147 1196.258 6493.288 838.597 5654.362 5924.107 5321.789 3070.050 7532.690 574.004 7653.786 2428.179 492.200 1311.721 9995.385 5531.274 952.220 7398.002 596.302 5028.754 7560.186 11228.824 7859.307
5175.605 1905.729 2789.178 7615.204 8014.176 6037.715 7380.298 4555.777 2978.222 5446.445 6462.602 9612.239 1647.431 5655.884 7105.273 7030.019 6123.102 27023.462 4424.298 1046.699 4248.483 7088.898 4611.998 8024.540 5730.816 3398.269 27332.473 6528.597 2542.022 8484.078 4822.756 606.452 3575.914 8008.698 6890.466 6827.586 2825.162 29.951 6767.184 6314.823 7245.661 7625.160 8040.530 22422.036 27061.315 7622.288 6884.965 1659.000 7385.817 26941.825 7362.450 393.493 6979.886 4306.281 1703.243 6751.851 0.000 2164.918 7789.370 6700.699 3929.710 7739.590 7075.432 7226.825 1508.426 7689.548 5769.378 3696.935 27079.863 4641.142 7247.337 5888.222 7742.026 2103.968 8146.153 6060.543 8587.426 6886.751 368.706 8458.276 6006.428 8955.892 3567.585 2905.976 4861.135 7768.493 5933.265 8055.152 7367.818 3635.503 7452.854 11286.947 8946.692 5220.228 7344.744 8309.442 7720.345 6325.234 1777.935 4943.020 7287.923 5698.343 7662.276 6884.267 3013.494 5267.384 3343.110 7104.785 5447.867 5265.026 9092.685 3816.444 7524.229 3631.452 6411.774 7630.132 5686.640 7901.826 5165.713 5920.353 2220.028 2086.306 3327.200 3713.153 7126.349 7179.407 1003.812 8645.681 6302.254 8003.923 9200.157 3079.797 7688.230 6740.974 6882.807 3042.839 7062.339 9036.306 1289.210
3870.712 2847.685 4024.749 7027.759 7463.674 5208.089 6894.748 3887.659 2248.046 6969.449 4369.139 7664.210 645.644 4393.826 6498.975 6789.166 5335.515 25482.727 4353.231 3047.338 2931.432 6609.033 4563.932 9743.024 7128.671 4695.992 25744.954 5990.402 3759.921 8170.775 4634.547 2725.693 2929.516 7449.909 6357.407 8406.525 4988.523 2165.200 6401.338 5741.935 6730.109 7120.150 9731.128 22828.459 25545.854 7052.187 6400.411 769.840 6852.159 25421.325 6849.963 1836.516 8532.364 4725.436 687.090 6157.307 2164.918 0.000 7280.905 6109.345 3263.401 7228.328 6553.876 6841.714 804.146 7196.041 5630.991 3176.209 25558.865 5367.727 6751.904 7212.693 7214.422 91.426 7599.347 5972.892 9237.402 6358.043 1850.685 7868.650 5401.693 6990.287 3044.010 4507.052 4506.757 7241.059 4968.801 9758.771 6855.468 3130.928 6848.415 10854.223 7003.972 3057.660 7174.851 7617.421 7207.802 6328.630 990.015 4172.363 6797.807 7098.680 7118.939 6358.295 4512.719 3102.572 4706.769 6591.589 4335.851 4593.962 7175.597 3216.102 7014.413 2461.524 5857.306 9404.982 5969.871 7353.328 3000.970 5338.490 506.868 263.463 4695.346 3229.517 8693.600 6682.430 3026.451 8404.310 5666.808 7469.007 10964.728 4541.217 7102.648 8334.379 6465.803 4269.844 8645.585 7122.567 3332.957
3864.350 9573.312 5908.984 353.439 256.293 2186.065 409.618 3399.203 5087.529 6789.386 9273.155 12520.268 7684.007 3461.533 813.003 1104.390 2032.269 20274.420 3409.966 8718.376 4550.685 700.493 3251.430 9020.844 6392.498 5885.251 20716.889 1294.497 5967.086 1080.686 2989.330 7772.971 4394.162 268.127 925.160 7617.413 9317.447 7817.276 1072.092 1539.324 553.639 164.583 8880.713 30054.440 20241.028 296.101 906.085 7853.881 429.563 20137.483 433.663 7483.572 7572.798 3959.392 7790.127 1129.889 7789.370 7280.905 0.000 1175.752 4039.829 52.642 729.740 660.204 7759.003 107.355 2177.593 4190.036 20274.421 4347.208 543.103 6160.181 89.273 7220.209 368.648 2027.450 16304.467 925.528 7509.093 703.027 1879.212 11891.467 4327.729 6632.533 2929.757 74.428 2551.835 8960.065 428.155 4246.220 513.938 3574.378 12011.080 7447.690 1203.543 808.366 73.229 2048.646 6568.344 3114.604 501.531 6392.122 191.433 926.029 6383.928 7602.205 6040.628 694.633 3241.527 2686.985 12263.140 4111.610 268.589 4853.893 1425.412 9078.538 2979.858 172.003 7560.799 1944.318 6776.839 7045.338 6052.730 4154.235 7719.225 612.013 8662.109 1415.968 1621.878 224.820 10091.089 6291.431 308.769 7640.692 922.960 5819.568 7760.623 12234.347 8852.755
2747.961 8449.623 5034.197 927.359 1355.848 1057.066 816.091 2236.470 3930.861 6356.303 8203.212 11512.999 6522.767 2396.461 404.918 1210.318 897.001 20961.885 2428.373 7657.781 3384.213 570.866 2307.515 8829.975 6028.603 5113.308 21368.979 218.308 5055.247 2166.557 2000.778 6725.360 3240.289 1343.605 286.564 7361.906 8401.861 6727.887 716.595 386.006 637.866 1019.185 8706.812 28899.425 20948.487 945.792 410.074 6692.697 746.293 20840.137 753.857 6380.545 7346.889 3165.942 6627.644 51.176 6700.699 6109.345 1175.752 0.000 2882.062 1123.131 469.696 914.471 6601.686 1098.244 1468.565 3049.931 20977.753 3731.025 675.434 5836.947 1105.960 6049.741 1491.589 1514.337 15170.912 294.107 6406.512 1777.015 712.666 10871.259 3186.894 5810.218 1858.306 1132.469 1457.532 8780.367 759.214 3108.027 755.797 4745.059 10982.973 6351.486 1601.999 1612.876 1102.537 1766.811 5414.867 1939.710 722.532 6022.332 1009.605 298.952 5570.558 6505.793 5266.382 512.326 2121.662 1516.777 11231.126 2961.565 914.083 3678.194 295.790 8819.351 2542.945 1244.734 6458.896 788.052 5606.213 5875.791 5276.355 3019.357 7505.547 611.142 7602.634 2463.651 446.301 1359.718 9971.031 5484.936 1002.165 7368.716 605.966 4981.723 7532.483 11199.793 7808.224
1637.213 5594.341 3111.875 3809.023 4236.073 2111.532 3645.535 648.410 1048.823 5579.911 6193.590 9667.715 3644.212 1960.732 3281.913 3534.822 2205.670 23214.020 1379.281 4941.101 1207.866 3356.629 1560.730 8424.569 5489.723 3535.764 23555.987 2745.333 2993.141 4907.527 1494.259 4064.845 362.297 4224.892 3114.792 6926.569 6058.734 3954.658 3137.963 2503.763 3486.427 3877.007 8353.497 26017.763 23235.708 3827.521 3147.324 3814.073 3614.328 23119.524 3606.525 3579.219 6988.589 2236.672 3750.639 2931.770 3929.710 3263.401 4039.829 2882.062 0.000 3987.571 3310.149 3579.234 3720.222 3950.733 2437.566 296.782 23257.632 3091.642 3503.718 5437.716 3977.945 3197.308 4371.639 2787.449 12297.845 3114.302 3605.889 4657.963 2169.403 8989.994 385.443 3946.826 1278.472 4004.747 2013.921 8406.816 3612.041 350.374 3634.376 7612.648 9064.523 4316.852 3930.087 4451.171 3967.219 3173.362 2532.968 1014.668 3548.835 5468.785 3886.253 3113.861 3771.699 4456.784 3650.932 3346.142 1632.448 1375.054 9288.946 140.663 3771.636 1021.301 2615.108 8241.607 3053.476 4124.196 4379.651 2097.476 2756.595 3019.182 3651.892 334.964 7161.134 3434.035 4889.742 5142.345 2450.926 4236.647 9665.743 3722.761 3883.934 6890.393 3204.287 3202.570 7148.613 9247.451 5129.729
3814.010 9522.349 5866.686 315.217 294.090 2134.743 361.268 3346.792 5035.341 6764.925 9225.286 12475.276 7631.729 3412.828 761.618 1081.052 1980.705 20305.425 3362.694 8669.684 4498.533 650.783 3205.176 9007.694 6370.682 5846.805 20746.311 1242.257 5923.441 1124.684 2941.497 7724.680 4342.027 301.692 872.830 7600.885 9274.348 7767.472 1029.544 1486.811 501.627 114.581 8868.254 30002.446 20272.937 255.286 855.509 7801.606 376.924 20169.170 381.772 7433.261 7557.524 3918.818 7737.811 1077.309 7739.590 7228.328 52.642 1123.131 3987.571 0.000 677.588 627.062 7706.849 75.393 2136.145 4138.277 20306.144 4313.521 492.562 6139.913 58.425 7167.660 413.418 1991.422 16253.233 873.292 7458.800 745.417 1826.635 11845.881 4275.961 6592.467 2879.583 61.349 2501.685 8947.381 376.271 4194.522 468.463 3626.856 11965.159 7398.593 1198.321 826.907 20.594 2021.043 6516.291 3061.962 451.727 6370.059 147.588 873.858 6344.116 7553.110 6002.166 642.789 3190.909 2634.398 12217.063 4059.565 216.917 4801.261 1373.016 9062.443 2950.457 197.419 7511.474 1891.884 6724.285 6992.813 6014.193 4102.624 7704.551 561.181 8613.454 1457.858 1569.272 268.945 10081.384 6251.846 278.569 7623.468 877.325 5778.609 7745.343 12188.158 8804.671
3214.176 8849.338 5281.507 558.594 939.429 1522.508 347.684 2670.153 4357.790 6394.101 8663.371 11959.910 6954.351 2850.481 276.088 908.654 1363.192 20784.059 2727.128 8014.766 3851.727 139.532 2582.052 8771.567 6034.870 5307.039 21207.104 564.850 5322.799 1697.012 2301.050 7073.752 3664.440 933.286 196.564 7326.607 8676.138 7103.112 544.504 812.309 176.382 566.999 8641.240 29324.939 20761.626 553.206 210.416 7124.217 310.459 20655.423 296.464 6764.954 7299.254 3361.217 7060.557 431.769 7075.432 6553.876 729.740 469.696 3310.149 677.588 0.000 498.326 7029.270 642.165 1588.902 3461.432 20792.768 3840.052 205.834 5824.877 671.194 6492.594 1072.756 1527.937 15578.530 195.991 6790.620 1383.705 1153.505 11321.129 3599.077 6031.727 2214.492 697.983 1915.896 8717.305 301.979 3517.905 438.126 4303.296 11434.718 6816.050 1241.684 1308.069 657.311 1678.034 5838.732 2392.772 252.993 6031.134 586.995 196.293 5786.862 6970.432 5461.773 43.462 2587.786 1960.965 11683.819 3382.017 461.507 4133.902 696.670 8789.074 2550.849 826.870 6924.426 1215.703 6049.350 6317.334 5472.861 3426.385 7453.318 142.402 7958.892 1996.778 910.669 932.756 9886.117 5697.469 626.023 7340.323 362.454 5209.196 7486.298 11653.056 8155.337
3646.920 9038.456 5267.223 746.713 916.461 1963.352 351.314 2958.674 4615.449 6147.699 9109.961 12427.191 7210.776 3309.681 762.671 486.033 1802.977 20932.389 2815.593 8135.170 4227.205 362.209 2645.091 8433.447 5761.162 5229.497 21372.463 919.942 5333.228 1331.024 2405.481 7184.335 3922.244 927.481 632.553 7011.203 8679.027 7255.202 459.766 1172.233 434.208 531.956 8297.658 29553.228 20899.996 699.675 509.658 7380.064 503.966 20796.231 431.198 6933.347 6973.616 3310.844 7319.638 889.812 7226.825 6841.714 660.204 914.471 3579.234 627.062 498.326 0.000 7276.879 554.363 1536.461 3698.212 20933.206 3687.073 366.714 5535.833 663.057 6776.394 1020.374 1368.515 15774.591 622.969 6958.415 1356.303 1501.623 11784.803 3835.505 5981.137 2393.514 681.695 2369.641 8375.568 431.867 3751.187 746.979 4070.754 11895.851 7251.363 751.646 1442.034 615.365 1399.258 6082.530 2727.720 348.534 5759.749 648.509 617.137 5731.763 7405.432 5384.888 459.868 3022.293 2284.148 12143.573 3635.830 483.280 4461.085 1052.520 8474.048 2325.004 824.438 7356.317 1540.918 6335.120 6598.415 5397.162 3655.833 7123.428 382.902 8078.345 1592.320 1314.084 880.950 9525.332 5638.589 776.204 7030.735 378.576 5171.658 7161.299 12111.959 8260.359
4543.733 2073.962 3822.168 7528.069 7956.247 5762.301 7362.238 4365.338 2671.663 6697.900 4956.341 8121.755 162.099 5062.266 7000.134 7177.088 5878.681 26249.721 4641.126 2284.995 3589.522 7071.900 4849.539 9391.800 6913.179 4488.083 26519.281 6464.675 3554.100 8594.359 4970.216 2107.629 3364.864 7944.918 6834.317 8118.242 4287.030 1501.144 6825.551 6223.983 7205.402 7595.787 9393.943 22297.740 26308.715 7547.381 6862.527 169.854 7334.270 26184.994 7325.457 1262.450 8256.969 4849.671 195.247 6651.186 1508.426 804.146 7759.003 6601.686 3720.222 7706.849 7029.270 7276.879 0.000 7668.757 5969.461 3578.779 26322.650 5394.093 7221.111 7029.128 7697.893 786.792 8091.832 6299.519 8612.747 6833.595 1267.474 8376.153 5889.072 7460.706 3441.399 4170.547 4895.719 7724.703 5560.076 9415.123 7330.971 3525.730 7352.342 11329.500 7456.671 3801.351 7543.422 8153.908 7686.545 6629.323 1194.481 4690.312 7265.797 6881.872 7606.459 6832.991 4219.007 3832.191 4472.685 7064.753 4961.223 5088.811 7609.334 3648.239 7490.601 3056.883 6335.044 9023.678 6168.075 7844.404 3732.243 5817.692 1135.029 879.688 4459.198 3621.411 8412.099 7151.430 2269.695 8806.453 6167.471 7956.825 10592.419 4263.693 7603.031 8038.983 6907.176 4078.491 8356.393 7553.760 2574.175
3807.355 9476.852 5801.893 352.551 362.964 2123.296 309.743 3311.869 4997.699 6689.793 9228.097 12486.754 7594.868 3413.284 752.484 1005.725 1967.733 20378.775 3306.117 8616.393 4479.770 602.195 3146.525 8933.126 6295.316 5778.004 20820.250 1206.349 5860.435 1114.323 2886.228 7670.360 4303.959 373.122 838.657 7525.742 9210.576 7717.509 965.214 1454.330 465.992 81.581 8793.844 29962.836 20345.898 289.872 809.819 7764.702 355.494 20242.230 346.426 7385.097 7482.558 3852.055 7701.358 1054.016 7689.548 7196.041 107.355 1098.244 3950.733 75.393 642.165 554.363 7668.757 0.000 2070.366 4097.335 20379.189 4241.389 448.029 6064.522 126.029 7134.728 475.463 1920.696 16208.974 838.039 7410.570 810.276 1795.277 11855.723 4235.068 6525.178 2831.174 135.749 2496.417 8872.919 340.945 4153.180 486.096 3661.983 11974.034 7396.963 1126.994 902.298 70.690 1946.459 6477.362 3033.416 404.409 6294.704 183.454 837.931 6276.575 7551.481 5933.379 604.879 3183.017 2602.946 12225.472 4020.748 184.293 4773.979 1338.792 8987.352 2876.429 271.398 7508.912 1857.780 6691.499 6959.406 5945.471 4060.746 7629.686 517.617 8560.064 1441.617 1544.378 332.014 10007.727 6184.085 329.102 7548.246 817.950 5712.256 7670.376 12196.238 8749.829
3147.717 7619.568 3732.212 2132.655 2430.090 1855.853 1787.023 1945.013 3385.688 4891.550 8477.468 11908.829 5922.381 3022.074 1765.218 1263.349 1754.071 22372.404 1352.195 6643.676 3396.884 1533.132 1157.824 7419.528 4577.049 3722.290 22792.995 1252.880 3796.937 2718.136 1000.447 5687.693 2726.014 2435.311 1471.340 5935.065 7142.965 5798.395 1107.343 1238.151 1715.657 2026.558 7303.759 28162.724 22350.496 2112.450 1379.847 6088.467 1859.133 22244.226 1808.571 5498.368 5930.888 1783.936 6035.601 1505.897 5769.378 5630.991 2177.593 1468.565 2437.566 2136.145 1588.902 1536.461 5969.461 2070.366 0.000 2462.894 22381.583 2267.800 1687.206 4397.555 2158.359 5556.712 2545.547 350.161 14349.091 1460.502 5522.488 2880.620 1246.369 11242.526 2590.985 4458.429 1161.264 2181.669 2214.380 7374.584 1812.918 2504.100 2027.012 5528.358 11332.960 6584.985 1584.849 2886.475 2120.475 748.869 4783.826 1917.984 1713.904 4569.439 2108.857 1453.602 4211.092 6733.712 3877.341 1598.127 2615.537 1542.608 11568.242 2448.106 1943.911 3436.977 1232.782 7385.162 1130.666 2326.812 6668.049 1178.574 5128.189 5375.041 3888.783 2405.514 6093.286 1633.070 6586.214 2878.556 1392.827 2402.376 8585.202 4119.861 2191.453 5936.354 1272.334 3642.641 6114.511 11530.596 6756.642
1929.622 5401.599 2818.163 3976.441 4395.822 2343.359 3789.285 859.538 928.470 5325.873 6313.875 9794.173 3513.414 2257.270 3453.512 3616.489 2426.172 23490.175 1281.823 4696.395 1429.815 3497.810 1480.911 8179.006 5252.046 3252.883 23835.688 2899.047 2696.915 5018.265 1479.326 3806.651 278.895 4386.402 3268.345 6685.756 5772.630 3722.654 3248.002 2666.304 3636.787 4026.016 8111.441 25865.984 23509.789 3991.105 3288.686 3682.473 3769.290 23394.061 3756.509 3356.274 6752.519 2045.039 3623.018 3100.467 3696.935 3176.209 4190.036 3049.931 296.782 4138.277 3461.432 3698.212 3578.779 4097.335 2462.894 0.000 23532.164 2888.765 3649.306 5210.490 4132.282 3104.772 4530.768 2808.971 12121.230 3266.758 3382.728 4826.155 2340.735 9114.015 137.750 3651.995 1331.144 4159.100 2276.179 8163.291 3762.008 61.885 3805.534 7754.229 9183.158 4452.095 3998.879 4639.862 4118.163 3179.760 2384.629 1255.763 3693.312 5230.280 4043.938 3265.625 3478.912 4587.877 3365.432 3495.492 1924.277 1571.620 9403.449 156.179 3921.461 1124.537 2772.830 7986.439 2972.218 4283.371 4506.879 2261.883 2670.977 2923.992 3365.990 70.810 6925.037 3579.740 4644.086 5238.852 2630.556 4393.046 9422.431 3431.263 4050.977 6646.997 3328.524 2913.216 6909.970 9360.659 4877.629
21905.431 28396.490 25991.577 20256.390 20019.090 21267.299 20625.863 22702.996 24114.542 26999.525 24047.802 24879.527 26180.677 21425.317 20629.429 21364.589 21229.734 345.191 23361.945 28123.661 22843.432 20855.421 23268.042 28821.550 26555.103 26089.031 1186.827 21193.131 25985.223 20247.792 22945.204 27303.328 23582.787 20006.399 20917.044 27603.834 29276.008 27100.623 21297.909 21314.943 20672.538 20404.535 28653.859 46805.493 95.675 20282.637 21001.763 26324.086 20532.385 138.109 20589.003 26697.035 27514.680 24139.853 26241.729 20931.840 27079.863 25558.865 20274.421 20977.753 23257.632 20306.144 20792.768 20933.206 26322.650 20379.189 22381.583 23532.164 0.000 24616.546 20707.627 26291.309 20271.848 25552.091 19926.585 22289.149 34427.572 20927.009 26723.597 19597.459 21526.346 24732.006 23641.889 26784.208 22722.229 20252.126 21261.879 28740.870 20585.172 23592.980 20354.643 18102.007 24926.353 23438.820 21324.631 19507.732 20318.062 22316.689 25383.548 22293.907 20686.742 26560.023 20302.092 20933.398 26546.778 23523.837 26242.682 20784.618 21657.858 22084.377 25136.142 23388.794 20471.310 23452.175 21262.451 29007.937 23251.553 20108.778 23577.804 21624.329 25192.561 25443.028 26252.940 23538.256 27633.003 20756.316 28077.305 20346.360 21244.101 20058.912 29663.724 26462.090 20202.539 27650.745 21121.397 25954.515 27696.583 25161.665 28341.192
4540.707 6539.618 1967.834 4363.824 4603.370 3866.032 3990.732 3068.399 3484.918 2700.038 9126.824 12606.648 5409.672 4649.807 4031.115 3277.750 3817.571 24612.780 1857.247 5270.715 4299.304 3767.440 1787.351 5425.781 2483.360 1658.605 25043.525 3513.400 2158.036 4587.706 2090.735 4344.051 3135.723 4614.504 3735.857 3915.423 5240.462 4670.837 3321.433 3459.897 3949.687 4213.193 5336.988 26922.845 24583.963 4335.460 3634.860 5549.912 4087.573 24479.444 4029.245 4501.675 3954.223 859.781 5524.681 3770.356 4641.142 5367.727 4347.208 3731.025 3091.642 4313.521 3840.052 3687.073 5394.093 4241.389 2267.800 2888.765 24616.546 0.000 3911.740 2382.643 4346.136 5278.250 4702.480 2327.584 13078.883 3724.574 4519.073 5036.264 3363.399 11923.137 2935.327 2457.605 2448.632 4366.410 4111.957 5397.292 4032.951 2880.648 4276.152 7314.320 11979.993 7301.254 3403.221 5109.381 4300.949 2334.123 4381.979 3334.624 3931.136 2467.863 4314.454 3717.384 2206.468 7430.194 1807.070 3844.178 4223.130 3207.726 12189.720 2995.742 4145.247 3991.279 3477.174 5308.525 1413.078 4510.544 7343.828 3272.448 4938.042 5108.682 1822.393 2820.102 4125.592 3865.568 5212.548 4621.957 3585.487 4566.202 6648.480 2105.680 4415.668 3894.016 3500.287 1769.361 4124.527 12143.919 5299.957
3417.863 9030.293 5405.219 452.188 771.442 1726.342 143.341 2866.127 4550.269 6428.843 8863.776 12153.940 7147.669 3049.167 416.199 834.626 1567.384 20702.046 2877.586 8179.374 4057.278 160.764 2724.613 8761.298 6056.594 5409.158 21132.006 761.624 5454.467 1491.675 2454.427 7235.456 3856.411 769.880 399.264 7328.104 8807.374 7275.194 590.430 1012.928 67.844 378.525 8627.913 29514.848 20675.669 425.944 362.989 7317.481 176.113 20570.419 121.980 6940.700 7295.341 3469.790 7254.339 636.716 7247.337 6751.904 543.103 675.434 3503.718 492.562 205.834 366.714 7221.111 448.029 1687.206 3649.306 20707.627 3911.740 0.000 5839.013 496.226 6690.038 900.475 1585.645 15761.772 396.692 6966.240 1223.261 1354.444 11516.563 3787.039 6143.930 2387.064 522.322 2116.913 8705.022 126.667 3705.165 398.450 4108.984 11631.020 7018.679 1116.048 1201.515 473.121 1687.019 6029.521 2594.704 47.186 6053.967 427.842 395.473 5897.313 7173.093 5564.277 163.960 2791.529 2160.855 11880.556 3572.990 277.004 4336.057 895.539 8791.208 2588.737 660.814 7127.537 1413.592 6246.965 6514.343 5575.798 3612.779 7447.177 69.689 8123.238 1793.816 1116.107 757.190 9863.194 5806.533 505.634 7344.842 415.359 5325.115 7482.788 11850.062 8316.007
6922.669 7619.536 3208.795 6275.817 6402.967 6162.278 5879.452 5450.703 5669.659 846.186 11279.440 14733.770 7088.413 7027.163 6061.618 5060.269 6093.181 26310.375 4239.584 6149.629 6638.094 5721.495 4160.910 3054.794 306.593 2541.051 26788.913 5629.870 3477.123 6044.185 4449.620 5402.351 5436.211 6422.183 5769.668 1548.601 5253.683 5914.198 5280.391 5635.706 5891.487 6060.315 2958.517 27308.905 26252.795 6233.252 5640.785 7197.513 6010.364 26155.623 5942.069 5896.872 1573.285 3235.940 7194.368 5867.357 5888.222 7212.693 6160.181 5836.947 5437.716 6139.913 5824.877 5535.833 7029.128 6064.522 4397.555 5210.490 26291.309 2382.643 5839.013 0.000 6185.243 7121.333 6471.470 4326.335 13613.926 5756.676 5905.515 6780.862 5607.196 14049.826 5237.494 3004.172 4813.613 6199.570 6444.225 3021.349 5944.445 5193.713 6233.692 8426.734 14090.868 9515.216 5013.752 6966.819 6132.686 4152.396 6237.138 5713.384 5845.033 328.321 6183.403 5748.444 2875.048 9634.390 2564.147 5816.818 6599.069 5561.581 14286.332 5331.121 6019.092 6271.590 5625.753 2987.858 3294.210 6332.132 9542.607 5524.527 6860.290 6973.151 2578.689 5144.851 1743.952 5809.881 6098.464 5951.883 5787.139 6354.754 4267.798 2809.145 6311.099 1541.511 5463.102 2954.854 1747.205 14237.236 6065.184
3781.655 9520.160 5886.750 264.215 275.999 2106.240 373.928 3335.682 5026.233 6806.818 9186.658 12431.777 7621.695 3376.096 734.298 1125.187 1953.376 20270.328 3372.762 8675.511 4474.392 656.530 3217.708 9057.733 6414.799 5873.009 20709.521 1233.819 5941.046 1169.680 2950.222 7731.681 4333.407 277.572 864.154 7648.829 9292.827 7769.825 1051.016 1474.985 497.337 133.163 8918.697 29994.504 20238.851 206.997 857.213 7791.599 363.624 20134.832 379.583 7433.805 7606.286 3941.969 7727.415 1059.035 7742.026 7214.422 89.273 1105.960 3977.945 58.425 671.194 663.057 7697.893 126.029 2158.359 4132.282 20271.848 4346.136 496.226 6185.243 0.000 7154.296 404.409 2021.693 16249.702 865.533 7459.408 729.204 1813.423 11803.260 4269.895 6616.183 2881.095 26.824 2468.847 8997.694 374.210 4188.882 426.317 3639.827 11923.057 7362.694 1252.931 782.509 55.388 2060.698 6508.165 3045.669 458.592 6413.978 104.582 866.676 6368.240 7517.202 6028.337 638.834 3159.521 2620.660 12175.210 4051.667 220.081 4783.542 1362.859 9110.645 2988.038 168.525 7476.142 1880.902 6710.831 6979.859 6040.253 4097.497 7753.688 563.079 8619.392 1505.232 1551.198 262.079 10133.314 6276.324 222.272 7670.941 893.141 5800.945 7794.097 12146.485 8812.201
3837.174 2847.992 3933.844 6969.480 7404.662 5155.666 6832.758 3824.677 2176.310 6879.094 4449.129 7751.172 633.847 4359.766 6440.575 6719.458 5281.697 25477.158 4274.518 3002.480 2893.672 6546.432 4485.241 9654.294 7037.534 4605.014 25742.352 5928.725 3669.132 8104.788 4559.392 2658.273 2860.655 7391.170 6296.201 8316.348 4928.924 2105.211 6334.767 5680.976 6668.892 7059.126 9641.995 22879.419 25538.742 6993.325 6337.638 772.040 6791.742 25414.507 6788.818 1768.588 8441.935 4638.700 689.831 6097.903 2103.968 91.426 7220.209 6049.741 3197.308 7167.660 6492.594 6776.394 786.792 7134.728 5556.712 3104.772 25552.091 5278.250 6690.038 7121.333 7154.296 0.000 7540.370 5897.905 9273.908 6296.689 1783.525 7811.505 5341.123 7076.788 2971.883 4418.939 4435.774 7180.962 4921.559 9669.818 6794.326 3058.734 6790.487 10794.094 7091.255 3116.285 7103.648 7563.773 7147.151 6251.957 899.327 4114.382 6735.830 7007.557 7059.231 6296.847 4423.366 3164.453 4616.143 6530.081 4293.658 4533.636 7263.603 3147.465 6953.409 2411.537 5795.936 9317.278 5886.945 7294.107 3062.621 5276.969 443.559 181.945 4604.755 3157.240 8603.270 6620.513 2980.162 8336.396 5607.924 7409.458 10876.569 4451.466 7044.406 8244.353 6400.934 4178.762 8555.406 7210.677 3286.722
4107.649 9921.864 6277.288 575.800 135.746 2454.283 773.989 3727.336 5420.383 7116.164 9471.797 12680.220 8013.909 3680.573 1101.598 1438.866 2306.522 19928.732 3775.440 9079.847 4832.500 1060.502 3618.536 9299.978 6709.677 6249.549 20376.168 1631.820 6335.734 1001.940 3353.606 8135.781 4728.468 151.480 1263.090 7912.372 9686.027 8173.931 1440.658 1868.009 900.658 527.169 9156.681 30389.369 19892.651 547.239 1261.564 8183.837 762.716 19789.759 783.799 7837.261 7862.279 4326.484 8119.003 1442.877 8146.153 7599.347 368.648 1491.589 4371.639 413.418 1072.756 1020.374 8091.832 475.463 2545.547 4530.768 19926.585 4702.480 900.475 6471.470 404.409 7540.370 0.000 2388.768 16650.115 1265.303 7862.892 336.071 2203.384 12058.905 4668.267 6998.963 3285.101 378.168 2796.932 9237.051 778.455 4587.751 758.035 3257.795 12182.644 7665.576 1471.020 561.381 431.102 2390.319 6903.485 3427.472 861.979 6710.242 486.925 1266.933 6750.068 7819.922 6404.939 1041.854 3491.565 3008.290 12436.585 4447.820 623.722 5160.430 1758.497 9370.981 3324.971 247.525 7782.148 2274.299 7096.814 7366.805 6417.155 4496.932 8005.947 967.488 9023.713 1346.786 1932.539 144.473 10353.270 6657.295 502.201 7938.636 1290.701 6186.937 8050.031 12409.217 9216.151
3459.623 7922.517 3927.079 2037.814 2283.630 2078.553 1663.306 2291.777 3729.591 4870.577 8816.301 12241.786 6255.309 3305.394 1744.788 1014.667 1959.898 22285.201 1665.781 6915.477 3739.852 1445.022 1463.230 7316.199 4524.505 3863.099 22717.299 1313.780 4010.767 2452.511 1338.551 5957.493 3073.649 2293.078 1449.567 5847.923 7340.195 6089.788 996.495 1365.601 1625.992 1888.548 7193.978 28467.711 22256.697 2008.250 1330.450 6420.731 1761.711 22152.027 1702.242 5798.914 5832.601 1962.073 6368.986 1542.656 6060.543 5972.892 2027.450 1514.337 2787.449 1991.422 1527.937 1368.515 6299.519 1920.696 350.161 2808.971 22289.149 2327.584 1585.645 4326.335 2021.693 5897.905 2388.768 0.000 14645.920 1437.002 5822.647 2724.539 1452.348 11576.920 2935.968 4620.922 1511.425 2042.701 2460.046 7267.144 1705.869 2849.187 1958.411 5263.735 11668.875 6924.179 1284.889 2781.800 1978.011 408.215 5117.086 2248.737 1603.949 4519.355 1987.259 1429.034 4370.429 7073.421 4018.468 1527.633 2909.163 1857.154 11905.125 2796.736 1818.201 3786.994 1329.768 7306.148 1033.420 2187.564 7008.711 1400.921 5470.984 5716.112 4030.948 2750.711 5991.461 1541.810 6857.679 2587.988 1539.980 2249.362 8462.214 4276.213 2088.486 5855.481 1177.741 3818.741 6018.156 11867.869 7019.538
13107.589 6736.307 11115.046 16097.657 16515.552 14370.999 15899.502 12946.245 11254.287 12894.158 10622.061 11456.782 8714.572 13630.902 15573.939 15605.125 14483.492 34321.828 12998.750 7813.883 12167.564 15607.021 13191.413 14478.301 13359.781 11562.422 34504.209 15018.520 10922.264 17055.581 13384.797 8759.649 11936.498 16506.742 15387.031 13898.308 8386.402 8557.983 15315.534 14787.533 15752.855 16139.969 14584.504 13848.689 34422.814 16112.102 15399.206 8547.719 15887.698 34291.646 15871.987 8851.230 14089.918 12866.304 8621.582 15221.343 8587.426 9237.402 16304.467 15170.912 12297.845 16253.233 15578.530 15774.591 8612.747 16208.974 14349.091 12121.230 34427.572 13078.883 15761.772 13613.926 16249.702 9273.908 16650.115 14645.920 0.000 15384.942 8826.930 16947.384 14460.348 11162.290 11984.109 10824.593 13384.290 16276.479 14172.400 14553.729 15877.459 12063.544 15926.222 19845.066 11008.907 10989.065 15928.961 16748.574 16233.349 14912.180 9773.183 13289.851 15804.629 13328.233 16163.199 15383.471 11038.542 10906.366 11450.116 15611.311 13563.130 13672.898 10936.773 12211.163 16036.351 11664.674 14893.549 13957.262 14245.023 16402.982 10850.604 14382.892 9701.238 9426.405 11432.589 12153.543 14175.959 15692.583 7872.350 17227.562 14746.757 16511.215 15285.956 11134.280 16172.206 13790.582 15418.502 11331.741 14082.138 10882.679 7780.475
3040.659 8656.662 5123.422 733.611 1131.160 1350.561 539.980 2474.162 4162.058 6307.075 8497.214 11806.091 6758.486 2690.263 308.425 958.841 1190.327 20915.919 2552.654 7829.707 3663.007 277.485 2413.305 8723.526 5959.656 5165.130 21333.611 368.970 5159.027 1880.082 2125.300 6890.384 3468.809 1123.686 13.807 7268.586 8511.620 6914.344 508.900 616.910 372.373 762.978 8596.103 29129.535 20896.486 736.049 140.546 6928.358 502.764 20789.568 492.447 6574.520 7246.211 3216.582 6864.648 266.847 6886.751 6358.043 925.528 294.107 3114.302 873.292 195.991 622.969 6833.595 838.039 1460.502 3266.758 20927.009 3724.574 396.692 5756.676 865.533 6296.689 1265.303 1437.002 15384.942 0.000 6600.241 1571.556 958.327 11164.799 3404.365 5881.687 2026.927 892.353 1751.600 8671.159 497.961 3323.404 589.686 4499.282 11276.746 6644.661 1330.963 1470.174 852.964 1630.406 5643.253 2198.238 443.582 5954.935 778.532 8.694 5638.270 6798.937 5319.451 233.929 2414.518 1765.462 11524.997 3186.585 657.446 3939.545 500.754 8729.633 2469.053 1018.524 6751.687 1019.754 5853.462 6121.390 5330.197 3232.162 7402.221 328.589 7773.978 2172.629 722.490 1126.453 9849.406 5549.978 804.619 7279.538 355.218 5056.876 7432.755 11493.715 7972.417
4818.226 2101.243 2743.537 7325.495 7730.030 5717.011 7100.915 4238.894 2634.420 5511.156 6188.912 9388.591 1388.485 5302.309 6811.416 6778.338 5806.613 26666.021 4171.820 1410.852 3887.002 6808.820 4365.077 8153.086 5765.037 3382.252 26972.460 6239.195 2484.319 8229.705 4560.370 875.013 3248.736 7723.612 6603.497 6913.908 3160.687 384.134 6498.692 6020.523 6962.301 7344.615 8161.171 22645.860 26705.383 7334.495 6603.355 1430.428 7101.060 26585.575 7079.951 26.847 7059.746 4124.720 1461.258 6457.582 368.706 1850.685 7509.093 6406.512 3605.889 7458.800 6790.620 6958.415 1267.474 7410.570 5522.488 3382.728 26723.597 4519.073 6966.240 5905.515 7459.408 1783.525 7862.892 5822.647 8826.930 6600.241 0.000 8171.316 5706.994 8726.430 3250.969 2966.741 4579.419 7485.998 5600.789 8179.516 7085.357 3321.802 7160.669 11025.324 8723.633 4894.092 7103.872 8011.067 7439.334 6101.748 1409.521 4620.507 7007.611 5732.977 7377.588 6598.045 3045.408 4946.336 3343.306 6821.039 5102.529 4954.001 8876.805 3496.806 7242.723 3272.300 6119.977 7774.383 5499.508 7617.489 4844.335 5622.733 1867.725 1750.210 3328.307 3402.730 7210.642 6897.825 1369.725 8401.044 6001.406 7721.481 9344.353 3102.053 7399.008 6830.866 6608.914 3001.476 7150.667 8821.234 1657.619
4310.634 10223.458 6611.865 849.781 453.371 2689.872 1102.791 4011.140 5706.513 7434.860 9621.784 12790.930 8295.098 3863.688 1376.121 1767.255 2548.681 19600.844 4100.845 9398.166 5069.050 1384.009 3946.817 9586.373 7022.657 6585.602 20051.270 1932.690 6668.754 1088.357 3677.403 8456.170 5016.875 453.390 1568.002 8210.349 10019.765 8485.882 1774.752 2159.856 1216.723 857.378 9440.890 30673.340 19563.221 836.979 1580.064 8465.003 1073.988 19460.699 1103.624 8145.555 8156.549 4662.152 8399.038 1726.860 8458.276 7868.650 703.027 1777.015 4657.963 745.417 1383.705 1356.303 8376.153 810.276 2880.620 4826.155 19597.459 5036.264 1223.261 6780.862 729.204 7811.505 336.071 2724.539 16947.384 1571.556 8171.316 0.000 2489.073 12177.110 4963.294 7334.870 3597.872 704.173 3009.463 9521.949 1098.464 4883.924 1023.812 3009.727 12304.673 7836.034 1769.228 447.025 761.979 2719.526 7190.929 3697.386 1187.263 7023.805 798.684 1574.009 7086.037 7990.003 6740.992 1356.093 3703.659 3287.573 12560.231 4738.564 949.027 5420.232 2054.868 9666.657 3654.922 562.504 7955.734 2564.733 7368.064 7639.420 6753.214 4794.452 8298.246 1288.295 9342.230 1414.884 2208.816 478.266 10627.003 6993.307 775.179 8238.614 1621.552 6522.473 8344.158 12534.234 9537.308
2189.156 7742.070 4465.489 1639.741 2067.694 627.820 1497.774 1524.011 3218.196 6049.444 7652.750 11013.358 5810.536 1928.370 1113.725 1628.631 509.680 21503.026 1835.644 6974.479 2725.645 1219.502 1752.468 8645.181 5770.043 4609.209 21892.961 595.334 4463.187 2819.230 1422.915 6049.530 2527.835 2055.947 956.960 7152.038 7790.351 6033.291 1131.011 341.517 1329.333 1718.746 8533.351 28186.811 21499.033 1658.313 1015.754 5980.464 1450.628 21388.511 1448.905 5680.880 7155.352 2692.144 5915.639 762.402 6006.428 5401.693 1879.212 712.666 2169.403 1826.635 1153.505 1501.623 5889.072 1795.277 1246.369 2340.735 21526.346 3363.399 1354.444 5607.196 1813.423 5341.123 2203.384 1452.348 14460.348 958.327 5706.994 2489.073 0.000 10361.367 2477.289 5266.541 1208.661 1840.129 1025.051 8602.765 1454.399 2399.385 1466.173 5453.026 10465.592 5779.956 2052.494 2304.074 1806.111 1817.540 4702.252 1240.546 1401.020 5760.180 1719.437 959.126 5034.747 5933.330 4758.771 1192.256 1579.473 807.822 10709.619 2249.790 1612.999 2981.882 459.940 8593.194 2374.879 1956.177 5880.371 98.136 4897.713 5166.497 4767.259 2312.068 7319.665 1285.569 6919.904 3093.332 297.812 2069.974 9820.708 4954.331 1714.618 7148.664 1127.924 4437.066 7337.442 10676.003 7132.044
8173.656 8391.702 10949.769 11544.099 11947.332 9824.985 11642.265 9325.454 8439.164 13903.465 2800.653 684.308 7338.830 8475.126 11120.199 11988.553 9984.781 24566.569 10368.983 9506.620 7866.485 11438.733 10548.998 16717.015 14006.252 11609.668 24591.640 10883.807 10693.713 12969.599 10439.013 9561.244 8843.050 11919.966 11156.350 15343.462 11584.754 8944.933 11482.779 10648.341 11462.648 11775.751 16697.506 22105.514 24745.415 11596.964 11275.885 7302.058 11519.042 24603.171 11557.811 8719.899 15457.110 11125.111 7266.019 10899.146 8955.892 6990.287 11891.467 10871.259 8989.994 11845.881 11321.129 11784.803 7460.706 11855.723 11242.526 9114.015 24732.006 11923.137 11516.563 14049.826 11803.260 7076.788 12058.905 11576.920 11162.290 11164.799 8726.430 12177.110 10361.367 0.000 9037.835 11491.636 10140.518 11823.826 9415.418 16728.772 11562.190 9106.342 11377.648 14974.610 194.469 4676.084 12411.352 11763.188 11827.751 11985.047 7892.340 9328.359 11560.835 13978.185 11700.063 11169.995 11483.061 4533.813 11640.442 11364.450 8783.784 9734.332 436.277 9045.032 11686.476 7990.327 10761.170 16390.858 12033.878 11867.232 4610.397 10358.323 7247.102 7191.171 11630.683 9184.802 15622.797 11461.882 9514.271 13295.210 10484.831 11982.925 17946.050 11503.728 11603.616 15277.523 11443.798 11180.007 15581.800 443.394 9782.920
1984.140 5265.513 2769.867 4113.552 4533.293 2470.585 3927.030 988.368 796.018 5331.104 6237.204 9718.862 3376.590 2334.520 3590.317 3751.209 2556.145 23598.678 1384.961 4570.916 1419.709 3635.559 1587.962 8190.326 5271.168 3226.745 23941.259 3036.589 2637.635 5155.008 1602.609 3686.611 200.445 4523.810 3405.926 6701.533 5673.816 3593.104 3384.955 2803.470 3774.459 4163.722 8125.665 25728.234 23619.842 4128.400 3426.435 3545.572 3906.868 23503.782 3894.192 3224.461 6771.993 2101.340 3486.380 3237.390 3567.585 3044.010 4327.729 3186.894 385.443 4275.961 3599.077 3835.505 3441.399 4235.068 2590.985 137.750 23641.889 2935.327 3787.039 5237.494 4269.895 2971.883 4668.267 2935.968 11984.109 3404.365 3250.969 4963.294 2477.289 9037.835 0.000 3598.888 1465.220 4296.713 2392.407 8176.303 3899.692 86.965 3942.415 7891.956 9104.698 4383.442 4132.070 4775.415 4255.843 3303.504 2247.162 1378.928 3831.053 5248.767 4181.456 3403.248 3432.618 4517.222 3334.817 3633.175 2015.860 1704.957 9323.231 253.960 4059.152 1058.328 2910.223 7989.394 3073.332 4420.855 4434.621 2398.844 2539.396 2790.866 3334.673 185.624 6944.411 3717.470 4518.937 5374.565 2766.564 4530.619 9435.275 3388.395 4188.115 6660.697 3466.038 2875.885 6927.369 9279.925 4755.005
5580.663 4618.270 840.145 6584.740 6886.556 5596.130 6245.425 4311.645 3625.504 2545.428 8810.627 12167.953 4255.416 5892.073 6170.532 5625.179 5606.561 26764.684 3435.423 3166.044 4936.239 5987.789 3517.526 5238.585 2830.113 800.032 27159.194 5596.683 970.443 7001.811 3843.815 2399.584 3751.622 6892.666 5890.625 3950.369 2783.016 2930.576 5565.410 5469.265 6169.182 6483.985 5232.162 24629.714 26755.704 6567.785 5821.333 4340.285 6313.938 26646.493 6265.652 2962.030 4093.717 2674.507 4351.171 5857.060 2905.976 4507.052 6632.533 5810.218 3946.826 6592.467 6031.727 5981.137 4170.547 6525.178 4458.429 3651.995 26784.208 2457.605 6143.930 3004.172 6616.183 4418.939 6998.963 4620.922 10824.593 5881.687 2966.741 7334.870 5266.541 11491.636 3598.888 0.000 4093.378 6639.203 5698.249 5256.933 6270.105 3604.598 6466.405 9759.876 11509.168 7219.016 5806.804 7338.418 6577.267 4718.415 3610.347 4701.879 6171.780 2797.436 6567.139 5875.945 253.062 7312.514 657.910 6045.581 5524.263 4796.402 11682.543 3807.425 6402.325 4387.514 5523.057 4899.273 3840.504 6784.504 7212.902 5168.408 4257.310 4300.479 641.376 3613.006 4245.936 6087.748 3112.816 7059.380 5543.511 6856.888 6457.676 352.503 6646.047 3869.511 5730.008 829.902 4187.943 11629.590 3110.348
2196.091 6649.301 3278.289 2758.129 3153.041 1512.504 2521.502 815.349 2259.560 5136.195 7360.786 10811.728 4836.486 2221.618 2258.794 2286.230 1513.581 22696.033 669.044 5804.151 2274.594 2229.413 665.962 7866.491 4930.328 3475.917 23078.422 1673.796 3263.006 3700.234 366.838 4868.258 1581.555 3147.671 2031.072 6356.708 6582.345 4888.876 1936.730 1477.478 2384.542 2765.321 7772.083 27160.078 22695.633 2762.954 2024.335 5004.827 2524.800 22584.329 2501.515 4553.932 6386.475 1652.526 4947.345 1909.280 4861.135 4506.757 2929.757 1858.306 1278.472 2879.583 2214.492 2393.514 4895.719 2831.174 1161.264 1331.144 22722.229 2448.632 2387.064 4813.613 2881.095 4435.774 3285.101 1511.425 13384.290 2026.927 4579.419 3597.872 1208.661 10140.518 1465.220 4093.378 0.000 2907.604 1686.358 7834.791 2506.895 1378.756 2600.583 6463.367 10225.166 5469.395 2668.106 3470.451 2860.185 1903.593 3701.819 927.731 2428.243 4915.500 2801.208 2024.205 3868.945 5615.722 3620.442 2243.652 1791.794 765.131 10456.658 1298.204 2663.745 2276.421 1563.944 7757.157 1932.747 3040.700 5546.207 1112.773 4001.028 4255.084 3627.399 1280.819 6556.433 2318.836 5748.632 3911.908 1502.902 3143.078 9079.939 3793.360 2830.397 6338.811 2034.217 3267.880 6560.653 10417.573 5950.991
3805.681 9546.891 5910.638 281.840 250.809 2131.179 398.637 3362.450 5053.043 6823.088 9208.780 12451.953 7648.485 3398.923 759.694 1140.090 1978.545 20250.919 3398.399 8701.682 4500.009 682.481 3242.980 9068.768 6429.848 5895.352 20690.806 1260.643 5965.451 1150.709 2976.026 7757.726 4360.223 253.683 890.978 7661.443 9317.070 7796.298 1074.371 1501.751 524.025 155.237 8929.401 30021.324 20219.048 226.862 883.610 7818.389 390.434 20115.126 406.097 7460.399 7618.307 3965.105 7754.196 1085.464 7768.493 7241.059 74.428 1132.469 4004.747 61.349 697.983 681.695 7724.703 135.749 2181.669 4159.100 20252.126 4366.410 522.322 6199.570 26.824 7180.962 378.168 2042.701 16276.479 892.353 7485.998 704.173 1840.129 11823.826 4296.713 6639.203 2907.604 0.000 2492.804 9008.506 400.710 4215.696 448.098 3613.178 11943.844 7385.707 1259.496 767.380 67.076 2078.002 6534.985 3072.173 484.287 6429.141 128.382 893.490 6391.152 7540.212 6050.691 665.539 3183.795 2647.328 12196.100 4078.490 245.794 4809.914 1389.666 9123.078 3006.317 145.410 7499.323 1907.684 6737.493 7006.546 6062.638 4124.302 7765.428 589.379 8645.552 1487.441 1577.603 235.491 10142.708 6299.142 234.539 7683.883 917.657 5824.304 7806.125 12167.449 8838.190
1312.964 7531.293 4864.197 2230.500 2667.989 416.108 2249.946 1442.146 2977.474 6809.804 6747.504 10059.107 5458.616 940.625 1744.087 2598.106 572.540 21222.668 2345.512 6952.128 2080.835 2027.477 2349.239 9497.962 6580.252 5130.907 21576.667 1474.364 4807.063 3600.973 2026.960 6078.402 2359.421 2646.505 1743.695 7992.583 8022.423 5957.480 2085.640 1253.073 2068.306 2414.839 9395.518 27794.212 21238.843 2272.623 1860.491 5626.252 2144.580 21123.789 2172.784 5573.980 8010.681 3337.699 5553.787 1487.817 5933.265 4968.801 2551.835 1457.532 2013.921 2501.685 1915.896 2369.641 5560.076 2496.417 2214.380 2276.179 21261.879 4111.957 2116.913 6444.225 2468.847 4921.559 2796.932 2460.046 14172.400 1751.600 5600.789 3009.463 1025.051 9415.418 2392.407 5698.249 1686.358 2492.804 0.000 9461.409 2177.618 2337.645 2050.148 6016.042 9526.211 4903.315 3014.657 2695.111 2481.905 2837.212 4420.797 1032.775 2162.735 6567.230 2364.506 1756.480 5487.331 5057.793 5270.530 1959.354 695.001 924.741 9774.018 2138.477 2316.694 2511.821 1358.500 9411.467 3313.948 2569.313 5013.751 1061.830 4484.058 4759.416 5276.173 2278.428 8178.417 2058.066 6901.272 3910.306 1078.392 2689.940 10695.549 5418.924 2300.233 7980.697 2031.508 4887.542 8188.859 9742.528 7143.367
9928.960 9480.322 5788.407 9122.256 9187.499 9170.870 8726.180 8459.651 8520.763 2865.905 14011.087 17407.986 9506.536 10046.264 8969.009 7890.105 9095.907 28781.858 7253.839 7976.993 9592.345 8602.959 7180.630 101.918 2923.052 5143.147 29304.322 8580.723 6039.319 8651.114 7470.956 7478.544 8371.087 9210.394 8684.593 1483.743 6401.198 8075.412 8176.639 8608.363 8762.721 8880.926 88.376 27790.424 28696.788 9073.820 8546.848 9584.222 8869.398 28607.126 8798.334 8178.414 1450.729 6242.360 9599.364 8806.679 8055.152 9758.771 8960.065 8780.367 8406.816 8947.381 8717.305 8375.568 9415.123 8872.919 7374.584 8163.291 28740.870 5397.292 8705.022 3021.349 8997.694 9669.818 9237.051 7267.144 14553.729 8671.159 8179.516 9521.949 8602.765 16728.772 8176.303 5256.933 7834.791 9008.506 9461.409 0.000 8800.010 8140.630 9103.460 10656.313 16752.148 12326.526 7767.372 9765.852 8943.124 7042.292 8836.510 8731.556 8704.663 2942.103 9011.025 8662.664 5247.870 12434.962 5098.044 8704.030 9618.734 8582.628 16930.357 8292.703 8854.254 9180.150 8588.701 618.141 6250.531 9130.690 12338.972 8523.146 9481.738 9544.940 5106.732 8100.553 1283.768 8684.518 7938.500 8487.913 8767.323 9135.029 1259.140 5225.136 9148.281 1516.466 8355.609 5569.367 1274.156 16878.072 7801.694
3484.640 9147.108 5531.862 334.443 647.835 1795.677 94.287 2972.119 4659.563 6540.619 8919.859 12197.042 7256.251 3103.477 442.130 915.550 1638.390 20580.151 3002.611 8302.018 4142.905 286.654 2850.510 8857.090 6164.471 5534.543 21011.444 866.807 5581.082 1423.375 2578.939 7358.766 3966.114 645.144 498.138 7428.694 8934.015 7395.615 713.010 1113.584 125.618 265.020 8722.488 29626.287 20553.074 302.557 483.144 7426.114 72.504 20447.989 5.516 7059.767 7393.894 3595.862 7362.496 716.223 7367.818 6855.468 428.155 759.214 3612.041 376.271 301.979 431.867 7330.971 340.945 1812.918 3762.008 20585.172 4032.951 126.667 5944.445 374.210 6794.326 778.455 1705.869 15877.459 497.961 7085.357 1098.464 1454.399 11562.190 3899.692 6270.105 2506.895 400.710 2177.618 8800.010 0.000 3818.270 316.190 4001.320 11678.239 7080.906 1160.467 1077.878 356.166 1794.637 6140.212 2692.517 102.042 6162.199 301.534 498.210 6023.379 7235.390 5689.691 266.518 2858.981 2262.124 11928.579 3683.476 159.630 4433.192 998.514 8891.789 2703.068 536.451 7191.240 1517.565 6351.050 6619.149 5701.254 3726.421 7544.835 189.837 8245.946 1736.277 1204.786 636.194 9953.553 5932.501 382.729 7446.541 540.633 5451.517 7581.458 11898.607 8439.568
1976.096 5342.716 2772.144 4034.273 4452.886 2405.135 3844.918 921.259 882.961 5299.834 6305.860 9786.975 3461.758 2310.697 3511.810 3664.866 2487.639 23550.818 1304.144 4634.575 1451.801 3553.268 1505.905 8155.635 5231.830 3214.508 23895.880 2955.947 2647.464 5069.900 1516.287 3744.814 263.351 4443.631 3325.095 6664.203 5713.498 3661.254 3300.124 2724.087 3693.120 4082.119 8089.289 25810.691 23570.650 4048.594 3344.235 3630.647 3826.031 23454.876 3812.773 3295.362 6732.552 2041.390 3571.737 3158.616 3635.503 3130.928 4246.220 3108.027 350.374 4194.522 3517.905 3751.187 3525.730 4153.180 2504.100 61.885 23592.980 2880.648 3705.165 5193.713 4188.882 3058.734 4587.751 2849.187 12063.544 3323.404 3321.802 4883.924 2399.385 9106.342 86.965 3604.598 1378.756 4215.696 2337.645 8140.630 3818.270 0.000 3863.721 7809.089 9174.265 4448.159 4045.328 4699.314 4174.436 3217.193 2331.344 1317.631 3749.046 5209.790 4100.875 3322.206 3433.665 4582.921 3325.483 3551.768 1981.299 1632.317 9393.608 210.364 3977.668 1120.590 2830.147 7959.616 2993.657 4340.400 4501.083 2320.022 2626.350 2877.687 3325.795 98.659 6905.035 3635.630 4582.250 5288.654 2689.715 4449.794 9399.737 3387.134 4108.763 6624.562 3382.237 2870.846 6889.119 9350.536 4815.744
3363.002 9205.417 5711.800 182.458 624.472 1698.047 405.315 2987.372 4682.821 6816.408 8760.689 12006.831 7271.475 2951.594 352.508 1227.738 1549.031 20346.005 3140.685 8404.481 4074.868 515.609 3002.901 9159.688 6449.094 5744.171 20769.637 926.792 5748.622 1593.121 2712.912 7468.415 3993.595 606.657 582.387 7725.426 9101.291 7480.171 964.346 1141.016 342.367 411.322 9026.361 29649.591 20323.502 223.117 647.593 7441.386 243.688 20217.298 316.344 7134.752 7693.299 3797.499 7375.569 705.116 7452.854 6848.415 513.938 755.797 3634.376 468.463 438.126 746.979 7352.342 486.096 2027.012 3805.534 20354.643 4276.152 398.450 6233.692 426.317 6790.487 758.035 1958.411 15926.222 589.686 7160.669 1023.812 1466.173 11377.648 3942.415 6466.405 2600.583 448.098 2050.148 9103.460 316.190 3863.721 0.000 4013.891 11497.160 6938.677 1473.755 880.599 450.755 2081.312 6167.310 2676.141 402.095 6446.101 322.508 594.537 6222.097 7093.171 5898.826 431.989 2743.015 2263.841 11749.203 3715.963 347.245 4405.017 1041.095 9188.498 2973.678 520.817 7052.714 1543.699 6346.962 6617.824 5909.839 3775.148 7845.325 423.951 8349.051 1925.072 1185.110 641.338 10261.252 6133.094 255.964 7741.696 781.422 5642.800 7880.714 11720.410 8550.970
7308.963 13108.796 9142.423 3832.536 3393.088 5699.001 3967.455 6973.422 8659.150 9214.639 12518.148 15561.290 11256.651 6845.958 4359.372 4265.196 5556.079 18153.321 6863.507 12171.988 8078.657 4257.604 6680.160 10739.833 8716.272 8966.908 18703.380 4868.056 9251.145 2812.092 6465.647 11215.622 7965.170 3408.365 4499.284 9597.779 12531.784 11315.618 4529.569 5113.641 4126.917 3736.306 10568.692 33619.277 18055.741 3804.761 4466.974 11426.460 4002.403 17969.248 4006.835 11000.453 9490.333 7190.395 11363.287 4697.370 11286.947 10854.223 3574.378 4745.059 7612.648 3626.856 4303.296 4070.754 11329.500 3661.983 5528.358 7754.229 18102.007 7314.320 4108.984 8426.734 3639.827 10794.094 3257.795 5263.735 19845.066 4499.282 11025.324 3009.727 5453.026 14974.610 7891.956 9759.876 6463.367 3613.178 6016.042 10656.313 4001.320 7809.089 4013.891 0.000 15113.598 10781.760 3992.472 3336.245 3647.327 5074.284 10137.100 6684.055 4064.025 8727.674 3735.482 4499.466 9506.941 10934.512 9118.054 4266.758 6708.754 6260.467 15373.116 7681.273 3841.887 8418.218 4999.667 10956.816 5919.622 3502.411 10906.589 5518.654 10350.643 10619.508 9132.873 7715.373 9595.690 4178.672 12114.494 2704.589 5188.733 3385.787 11561.876 9407.569 3758.130 9655.866 4430.697 9003.029 9666.580 15351.424 12281.860
8276.813 8342.212 10978.421 11664.589 12070.115 9934.505 11757.639 9410.619 8495.115 13933.132 2870.939 665.592 7337.646 8586.512 11236.441 12093.608 10094.508 24760.817 10442.749 9478.608 7950.580 11551.272 10624.611 16739.224 14043.182 11640.388 24785.439 10992.325 10720.980 13088.216 10519.986 9552.677 8910.914 12042.962 11268.452 15373.322 11555.404 8935.130 11589.073 10755.395 11577.670 11893.859 16721.838 21912.222 24939.787 11717.001 11386.603 7296.480 11635.877 24797.531 11673.815 8717.683 15488.928 11187.201 7262.442 11011.481 8946.692 7003.972 12011.080 10982.973 9064.523 11965.159 11434.718 11895.851 7456.671 11974.034 11332.960 9183.158 24926.353 11979.993 11631.020 14090.868 11923.057 7091.255 12182.644 11668.875 11008.907 11276.746 8723.633 12304.673 10465.592 194.469 9104.698 11509.168 10225.166 11943.844 9526.211 16752.148 11678.239 9174.265 11497.160 15113.598 0.000 4756.579 12516.824 11892.829 11946.904 12076.835 7916.337 9421.077 11675.509 14014.883 11819.649 11281.842 11504.850 4612.107 11668.643 11478.083 8889.556 9830.229 262.671 9116.975 11803.848 8060.647 10868.842 16408.216 12112.103 11989.021 4686.009 10460.996 7272.554 7209.436 11658.644 9253.895 15654.008 11575.755 9487.433 13412.451 10593.253 12105.137 17965.761 11527.178 11724.699 15306.302 11552.618 11210.664 15611.872 256.867 9753.079
3604.648 5575.579 6560.244 7115.174 7542.750 5294.466 7152.911 4655.457 3846.724 9464.175 1892.595 5351.920 3641.388 3987.261 6645.759 7404.945 5454.489 23332.853 5696.122 6085.784 3194.971 6922.075 5874.133 12326.052 9503.402 7187.172 23521.523 6334.089 6324.801 8504.208 5763.656 5765.831 4185.816 7518.543 6637.812 10891.109 8045.191 5221.456 6910.842 6087.745 6971.231 7315.475 12286.443 23901.520 23434.404 7161.747 6743.100 3700.207 7046.934 23302.971 7076.081 4877.675 10987.079 6482.474 3629.186 6385.299 5220.228 3057.660 7447.690 6351.486 4316.852 7398.593 6816.050 7251.363 3801.351 7396.963 6584.985 4452.095 23438.820 7301.254 7018.679 9515.216 7362.694 3116.285 7665.576 6924.179 10989.065 6644.661 4894.092 7836.034 5779.956 4676.084 4383.442 7219.016 5469.395 7385.707 4903.315 12326.526 7080.906 4448.159 6938.677 10781.760 4756.579 0.000 7829.059 7460.678 7379.176 7331.357 3682.831 4682.116 7064.819 9477.390 7258.112 6648.841 7159.644 154.520 7243.269 6859.429 4230.283 5102.207 4987.264 4376.277 7218.693 3327.882 6205.007 12051.279 7357.801 7450.757 145.326 5765.445 3072.309 3145.787 7236.178 4522.871 11156.910 6958.444 6069.060 8812.491 5937.441 7570.473 13571.395 7160.810 7181.421 10835.261 6892.807 6765.101 11126.005 4948.309 6374.412
4241.398 9202.458 5158.078 1429.254 1421.125 2599.234 1068.768 3356.158 4927.338 5681.677 9704.703 13061.170 7491.641 3951.493 1512.190 424.169 2442.252 21334.243 2936.630 8198.589 4724.259 1102.324 2739.410 7829.770 5259.119 5025.560 21796.294 1541.701 5260.256 1196.087 2575.734 7240.254 4248.118 1444.921 1342.871 6442.729 8560.823 7373.947 930.150 1765.833 1183.881 1151.934 7687.292 29746.678 21288.706 1371.312 1196.731 7658.801 1232.232 21188.257 1161.216 7079.950 6391.468 3199.650 7603.893 1588.825 7344.744 7174.851 1203.543 1601.999 3930.087 1198.321 1241.684 751.646 7543.422 1126.994 1584.849 3998.879 21324.631 3403.221 1116.048 5013.752 1252.931 7103.648 1471.020 1284.889 15928.961 1330.963 7103.872 1769.228 2052.494 12411.352 4132.070 5806.804 2668.106 1259.496 3014.657 7767.372 1160.467 4045.328 1473.755 3992.472 12516.824 7829.059 0.000 2001.410 1197.543 1089.801 6353.629 3197.491 1092.217 5261.059 1287.590 1323.570 5553.988 7982.075 5179.447 1206.203 3627.580 2756.160 12761.380 3962.983 1154.771 4880.661 1656.582 7900.538 1990.444 1370.748 7927.378 2063.620 6669.119 6922.808 5193.314 3946.979 6534.936 1134.301 8140.708 1303.611 1936.322 1368.017 8890.598 5456.447 1435.142 6470.090 996.984 5029.063 6579.202 12727.984 8299.407
3975.403 10040.494 6589.436 754.065 581.255 2410.970 1119.341 3802.946 5494.642 7588.854 9228.931 12372.920 8066.355 3509.792 1211.982 1907.425 2282.077 19503.400 4020.665 9270.375 4772.708 1353.380 3883.470 9827.161 7197.174 6608.698 19937.294 1800.229 6628.555 1509.522 3592.708 8338.164 4812.962 556.551 1462.982 8425.761 9981.476 8336.430 1790.888 1997.170 1170.836 910.644 9686.225 30440.751 19475.506 775.653 1518.102 8235.939 1027.701 19370.574 1081.825 7984.949 8380.792 4666.034 8167.742 1561.764 8309.442 7617.421 808.366 1612.876 4451.171 826.907 1308.069 1442.034 8153.908 902.298 2886.475 4639.862 19507.732 5109.381 1201.515 6966.819 782.509 7563.773 561.381 2781.800 16748.574 1470.174 8011.067 447.025 2304.074 11763.188 4775.415 7338.418 3470.451 767.380 2695.111 9765.852 1077.878 4699.314 880.599 3336.245 11892.829 7460.678 2001.410 0.000 834.360 2841.264 6977.799 3463.597 1179.202 7196.414 797.489 1474.890 7092.916 7614.162 6763.701 1292.920 3382.595 3076.435 12149.228 4541.462 966.750 5158.502 1906.513 9886.807 3765.063 636.579 7582.935 2389.129 7121.393 7394.794 6775.066 4613.743 8526.888 1253.493 9215.295 1845.208 2010.310 636.161 10891.958 7002.952 695.889 8449.040 1616.651 6516.764 8568.617 12124.024 9421.012
3794.154 9502.588 5850.577 300.968 309.656 2114.548 342.991 3326.361 5015.022 6756.018 9206.314 12457.365 7611.365 3393.569 741.425 1073.076 1960.426 20317.055 3344.540 8650.901 4478.056 631.700 3187.455 9003.252 6362.835 5832.273 20757.309 1221.921 5906.776 1142.427 2923.111 7706.070 4321.734 315.791 852.452 7595.122 9257.892 7748.217 1013.556 1466.327 481.435 96.091 8864.086 29982.216 20284.929 240.118 835.990 7781.243 356.334 20181.072 361.662 7413.788 7552.257 3903.444 7717.428 1056.718 7720.345 7207.802 73.229 1102.537 3967.219 20.594 657.311 615.365 7686.545 70.690 2120.475 4118.163 20318.062 4300.949 473.121 6132.686 55.388 7147.151 431.102 1978.011 16233.349 852.964 7439.334 761.979 1806.111 11827.751 4255.843 6577.267 2860.185 67.076 2481.905 8943.124 356.166 4174.436 450.755 3647.327 11946.904 7379.176 1197.543 834.360 0.000 2011.075 6496.037 3041.380 432.664 6362.114 131.753 853.565 6329.021 7533.694 5987.626 622.673 3170.956 2613.866 12198.749 4039.316 197.003 4780.668 1352.598 9056.837 2939.674 209.637 7491.974 1871.443 6703.772 6972.318 5999.622 4082.577 7699.520 541.579 8594.688 1474.803 1548.678 286.683 10078.292 6236.845 268.078 7617.429 860.034 5763.050 7740.072 12169.803 8786.146
3864.742 8202.943 4070.121 2127.823 2301.694 2445.197 1733.813 2693.776 4092.829 4749.255 9223.616 12649.990 6590.869 3699.596 1926.717 952.300 2317.726 22319.041 1988.722 7149.596 4145.214 1570.101 1779.810 7095.547 4369.950 3939.967 22764.747 1587.788 4177.223 2285.888 1700.907 6190.835 3448.737 2316.415 1643.956 5648.700 7471.096 6354.766 1135.033 1685.658 1739.091 1930.815 6966.843 28745.230 22282.598 2088.120 1504.597 6754.788 1859.350 22179.891 1792.045 6078.673 5621.483 2116.914 6705.368 1786.236 6325.234 6328.630 2048.646 1766.811 3173.362 2021.043 1678.034 1399.258 6629.323 1946.459 748.869 3179.760 22316.689 2334.123 1687.019 4152.396 2060.698 6251.957 2390.319 408.215 14912.180 1630.406 6101.748 2719.526 1817.540 11985.047 3303.504 4718.415 1903.593 2078.002 2837.212 7042.292 1794.637 3217.193 2081.312 5074.284 12076.835 7331.357 1089.801 2841.264 2011.075 0.000 5454.654 2656.935 1694.356 4367.585 2046.576 1621.846 4465.740 7480.430 4094.285 1667.438 3308.377 2263.903 12312.928 3175.938 1879.022 4179.727 1630.091 7111.313 935.688 2217.827 7415.353 1775.406 5829.379 6070.017 4107.919 3119.244 5776.021 1657.568 7091.417 2372.692 1867.901 2259.712 8219.077 4368.544 2167.137 5662.997 1315.600 3939.303 5808.453 12275.595 7240.575
3497.982 3114.469 3068.177 6341.949 6768.026 4599.818 6170.334 3180.237 1484.647 6022.137 5201.031 8571.511 1138.569 4002.368 5814.862 5984.563 4710.495 25320.377 3466.373 2808.955 2546.451 5879.608 3676.150 8824.735 6161.562 3735.907 25614.322 5274.486 2807.506 7399.953 3783.574 2202.951 2175.017 6757.209 5644.198 7461.882 4508.012 1791.731 5631.071 5035.503 6014.705 6404.861 8805.666 23486.340 25366.922 6360.081 5670.278 1305.196 6144.596 25245.629 6134.700 1385.429 7582.299 3759.674 1251.913 5464.649 1777.935 990.015 6568.344 5414.867 2532.968 6516.291 5838.732 6082.530 1194.481 6477.362 4783.826 2384.629 25383.548 4381.979 6029.521 6237.138 6508.165 899.327 6903.485 5117.086 9773.183 5643.253 1409.521 7190.929 4702.252 7892.340 2247.162 3610.347 3701.819 6534.985 4420.797 8836.510 6140.212 2331.344 6167.310 10137.100 7916.337 3682.831 6353.629 6977.799 6496.037 5454.654 0.000 3516.742 6074.017 6132.023 6417.541 5642.512 3591.454 3759.369 3756.235 5873.841 3854.851 3905.792 8097.581 2456.735 6299.831 1960.301 5145.603 8504.493 5036.182 6655.976 3657.674 4629.250 647.094 738.770 3745.719 2426.941 7745.569 5959.860 2771.430 7613.174 4983.413 6767.683 10055.369 3611.400 6416.849 7392.898 5713.149 3307.221 7700.759 8046.031 3064.695
1272.483 6600.579 3863.501 2855.400 3291.871 1097.046 2738.046 409.370 2037.773 5993.251 6572.625 9993.057 4603.666 1315.487 2326.661 2779.017 1196.112 22255.187 1482.715 5949.792 1527.634 2459.597 1553.882 8760.404 5816.584 4173.919 22609.339 1835.571 3792.740 4054.112 1291.659 5062.301 1374.009 3277.777 2196.441 7250.042 6989.771 4968.156 2320.671 1581.950 2567.992 2955.896 8670.644 26981.062 22270.694 2880.238 2254.438 4773.379 2685.081 22155.821 2687.047 4593.844 7286.503 2502.130 4705.927 1986.916 4943.020 4172.363 3114.604 1939.710 1014.668 3061.962 2392.772 2727.720 4690.312 3033.416 1917.984 1255.763 22293.907 3334.624 2594.704 5713.384 3045.669 4114.382 3427.472 2248.737 13289.851 2198.238 4620.507 3697.386 1240.546 9328.359 1378.928 4701.879 927.731 3072.173 1032.775 8731.556 2692.517 1317.631 2676.141 6684.055 9421.077 4682.116 3197.491 3463.597 3041.380 2656.935 3516.742 0.000 2641.373 5800.256 2948.813 2199.252 4499.183 4832.538 4307.556 2432.083 891.384 445.158 9658.155 1127.352 2850.247 1741.370 1700.383 8633.778 2839.111 3181.899 4770.634 1188.870 3670.876 3942.037 4311.890 1252.235 7457.336 2525.967 5897.857 4318.595 1495.324 3298.270 9981.121 4435.564 2930.286 7228.085 2349.604 3903.638 7458.248 9621.325 6133.155
3464.315 9072.729 5435.653 436.195 734.490 1772.877 96.945 2911.729 4595.134 6439.442 8909.322 12197.858 7192.650 3094.373 454.440 825.732 1614.018 20681.870 2914.170 8218.393 4104.459 199.056 2759.627 8761.397 6064.302 5434.897 21113.391 807.762 5486.611 1444.792 2491.757 7273.893 3901.204 734.213 446.300 7331.033 8839.190 7315.816 611.890 1059.509 101.313 337.241 8627.320 29559.064 20654.600 404.327 405.428 7362.449 165.471 20549.567 98.706 6982.098 7297.035 3497.365 7299.411 683.616 7287.923 6797.807 501.531 722.532 3548.835 451.727 252.993 348.534 7265.797 404.409 1713.904 3693.312 20686.742 3931.136 47.186 5845.033 458.592 6735.830 861.979 1603.949 15804.629 443.582 7007.611 1187.263 1401.020 11560.835 3831.053 6171.780 2428.243 484.287 2162.735 8704.663 102.042 3749.046 402.095 4064.025 11675.509 7064.819 1092.217 1179.202 432.664 1694.356 6074.017 2641.373 0.000 6061.927 396.060 442.245 5924.808 7219.241 5590.079 211.134 2838.007 2207.195 11925.153 3617.604 238.520 4382.738 941.903 8794.148 2601.355 624.877 7173.806 1459.673 6292.795 6560.054 5601.693 3656.496 7448.343 115.502 8162.203 1747.737 1163.286 718.156 9860.306 5833.736 484.549 7348.461 441.777 5353.872 7484.555 11894.728 8354.185
6988.018 7397.522 3076.780 6495.096 6637.714 6300.078 6100.033 5520.188 5639.874 518.072 11219.226 14661.461 6947.473 7115.742 6261.597 5289.059 6237.980 26576.607 4319.090 5916.575 6660.095 5931.894 4255.210 2965.178 32.922 2404.758 27049.776 5812.254 3343.898 6312.680 4555.346 5195.874 5445.497 6656.011 5967.704 1458.951 4957.287 5723.604 5487.399 5805.709 6104.602 6287.393 2886.357 27007.132 26522.135 6454.335 5842.729 7051.039 6226.843 26424.157 6159.623 5725.566 1523.440 3303.743 7051.317 6054.582 5698.343 7098.680 6392.122 6022.332 5468.785 6370.059 6031.134 5759.749 6881.872 6294.704 4569.439 5230.280 26560.023 2467.863 6053.967 328.321 6413.978 7007.557 6710.242 4519.355 13328.233 5954.935 5732.977 7023.805 5760.180 13978.185 5248.767 2797.436 4915.500 6429.141 6567.230 2942.103 6162.199 5209.790 6446.101 8727.674 14014.883 9477.390 5261.059 7196.414 6362.114 4367.585 6132.023 5800.256 6061.927 0.000 6408.197 5946.836 2689.004 9593.139 2409.479 6024.918 6689.926 5671.722 14206.343 5356.827 6242.420 6268.280 5801.620 2844.273 3486.115 6563.803 9499.875 5674.891 6762.843 6864.182 2422.788 5166.448 1695.761 6022.199 5866.547 6230.273 5951.703 6590.639 4199.540 2631.057 6532.866 1429.434 5670.698 2828.966 1679.940 14156.450 5821.720
3677.360 9435.194 5831.700 170.138 352.660 2002.995 324.358 3242.831 4934.855 6795.657 9082.308 12328.986 7529.324 3271.534 632.189 1125.483 1850.580 20298.865 3303.510 8599.785 4372.718 588.185 3151.998 9070.115 6409.554 5828.510 20734.332 1144.929 5882.076 1271.474 2879.370 7657.503 4242.558 346.510 776.197 7654.512 9234.847 7689.976 1003.659 1382.514 418.043 135.818 8932.493 29903.702 20269.539 108.489 781.404 7699.244 276.537 20164.992 306.501 7351.915 7614.568 3892.646 7634.731 961.929 7662.276 7118.939 191.433 1009.605 3886.253 147.588 586.995 648.509 7606.459 183.454 2108.857 4043.938 20302.092 4314.454 427.842 6183.403 104.582 7059.231 486.925 1987.259 16163.199 778.532 7377.588 798.684 1719.437 11700.063 4181.456 6567.139 2801.208 128.382 2364.506 9011.025 301.534 4100.875 322.508 3735.482 11819.649 7258.112 1287.590 797.489 131.753 2046.576 6417.541 2948.813 396.060 6408.197 0.000 780.285 6319.946 7412.621 5983.749 557.848 3055.419 2525.845 12071.707 3961.529 169.386 4685.487 1272.068 9116.984 2967.907 240.026 7371.563 1788.780 6615.717 6885.121 5995.460 4010.014 7763.173 490.784 8543.809 1605.342 1453.671 350.551 10152.459 6228.667 149.406 7675.170 837.502 5749.681 7802.331 12042.917 8738.624
3044.729 8654.950 5118.122 737.161 1132.942 1354.915 538.809 2474.048 4161.501 6299.187 8501.780 11811.430 6758.066 2695.337 316.156 950.746 1194.638 20922.405 2548.476 7826.713 3665.317 273.594 2408.651 8715.050 5951.539 5158.978 21340.302 368.602 5154.092 1877.254 2121.215 6887.178 3468.170 1125.702 22.500 7260.220 8506.762 6911.874 500.207 617.638 372.592 763.221 8587.598 29128.753 20902.849 738.907 132.181 6927.932 504.262 20795.961 492.694 6572.335 7237.784 3210.513 6864.289 272.745 6884.267 6358.295 926.029 298.952 3113.861 873.858 196.293 617.137 6832.991 837.931 1453.602 3265.625 20933.398 3717.384 395.473 5748.444 866.676 6296.847 1266.933 1429.034 15383.471 8.694 6598.045 1574.009 959.126 11169.995 3403.248 5875.945 2024.205 893.490 1756.480 8662.664 498.210 3322.206 594.537 4499.466 11281.842 6648.841 1323.570 1474.890 853.565 1621.846 5642.512 2199.252 442.245 5946.836 780.285 0.000 5632.450 6803.107 5313.321 233.339 2418.640 1766.022 11530.040 3185.812 657.780 3940.594 501.005 8721.291 2460.989 1020.305 6755.755 1019.879 5853.646 6121.481 5324.083 3230.866 7393.774 327.038 7770.965 2169.063 725.161 1127.800 9840.832 5544.101 807.913 7271.208 346.809 5051.245 7424.335 11498.726 7969.162
5408.431 4771.468 663.638 6339.052 6638.191 5375.621 5997.892 4113.531 3505.965 2478.914 8782.565 12161.454 4295.608 5706.357 5928.402 5373.725 5382.523 26528.406 3207.524 3341.126 4791.391 5741.551 3283.618 5234.378 2721.238 551.598 26925.641 5356.391 847.382 6748.912 3611.864 2536.143 3592.126 6644.529 5647.334 3904.381 3034.043 3039.336 5317.700 5232.442 5923.170 6235.920 5219.035 24851.806 26517.975 6321.539 5576.447 4388.823 6067.747 26409.099 6018.956 3038.594 4039.295 2427.523 4395.021 5617.104 3013.494 4512.719 6383.928 5570.558 3771.699 6344.116 5786.862 5731.763 4219.007 6276.575 4211.092 3478.912 26546.778 2206.468 5897.313 2875.048 6368.240 4423.366 6750.068 4370.429 11038.542 5638.270 3045.408 7086.037 5034.747 11483.061 3432.618 253.062 3868.945 6391.152 5487.331 5247.870 6023.379 3433.665 6222.097 9506.941 11504.850 7159.644 5553.988 7092.916 6329.021 4465.740 3591.454 4499.183 5924.808 2689.004 6319.946 5632.450 0.000 7257.277 416.973 5800.275 5332.037 4580.376 11682.490 3633.371 6154.810 4257.202 5284.488 4915.773 3587.510 6536.492 7158.514 4936.649 4237.911 4297.093 399.757 3436.921 4196.097 5841.531 3286.598 6806.342 5309.616 6608.175 6463.941 101.255 6399.958 3828.353 5483.077 601.448 4143.142 11630.206 3300.926
3758.809 5569.569 6662.821 7269.647 7697.147 5448.787 7307.361 4802.278 3968.428 9574.192 1745.098 5210.940 3673.421 4141.736 6800.271 7557.981 5608.793 23416.053 5836.008 6117.089 3341.769 7076.359 6015.248 12433.577 9619.366 7293.645 23599.937 6488.032 6425.105 8658.698 5907.949 5819.809 4320.218 7672.922 6792.104 11003.100 8090.860 5267.771 7064.260 6241.534 7125.681 7469.993 12395.579 23782.552 23519.945 7316.239 6897.230 3725.623 7201.442 23388.126 7230.564 4930.554 11100.691 6614.594 3656.421 6539.651 5267.384 3102.572 7602.205 6505.793 4456.784 7553.110 6970.432 7405.432 3832.191 7551.481 6733.712 4587.877 23523.837 7430.194 7173.093 9634.390 7517.202 3164.453 7819.922 7073.421 10906.366 6798.937 4946.336 7990.003 5933.330 4533.813 4517.222 7312.514 5615.722 7540.212 5057.793 12434.962 7235.390 4582.921 7093.171 10934.512 4612.107 154.520 7982.075 7614.162 7533.694 7480.430 3759.369 4832.538 7219.241 9593.139 7412.621 6803.107 7257.277 0.000 7347.482 7013.809 4384.520 5253.602 4841.393 4514.252 7373.205 3463.355 6358.860 12154.639 7500.570 7605.201 102.271 5918.486 3140.733 3202.191 7340.140 4658.679 11270.226 7112.828 6101.762 8966.902 6091.475 7724.907 13678.171 7260.116 7335.874 10946.341 7046.655 6870.334 11238.412 4801.958 6406.364
5284.658 5140.141 690.981 6009.732 6295.918 5132.840 5660.383 3935.609 3502.727 2265.902 8913.256 12321.389 4538.139 5551.009 5614.297 5013.634 5129.506 26228.064 2952.341 3730.742 4728.425 5410.445 3007.748 5092.221 2440.671 155.391 26633.860 5050.257 948.779 6372.205 3340.774 2896.919 3507.452 6303.414 5329.015 3705.743 3437.545 3370.079 4980.134 4939.102 5592.869 5895.531 5063.010 25266.550 26212.896 5989.742 5251.557 4641.757 5736.474 26105.128 5685.413 3334.136 3826.931 2103.242 4641.842 5311.751 3343.110 4706.769 6040.628 5266.382 3650.932 6002.166 5461.773 5384.888 4472.685 5933.379 3877.341 3365.432 26242.682 1807.070 5564.277 2564.147 6028.337 4616.143 6404.939 4018.468 11450.116 5319.451 3343.306 6740.992 4758.771 11640.442 3334.817 657.910 3620.442 6050.691 5270.530 5098.044 5689.691 3325.483 5898.826 9118.054 11668.643 7243.269 5179.447 6763.701 5987.626 4094.285 3756.235 4307.556 5590.079 2409.479 5983.749 5313.321 416.973 7347.482 0.000 5473.264 5162.688 4352.937 11852.520 3516.232 5817.222 4226.561 4984.839 4808.181 3202.182 6196.097 7250.362 4661.054 4396.916 4479.365 17.535 3317.029 3989.566 5510.396 3675.352 6420.876 5026.077 6264.119 6333.557 317.618 6068.791 3637.686 5149.084 481.861 3944.576 11801.280 3701.403
3257.456 8881.378 5298.104 540.347 909.393 1565.789 306.708 2706.992 4393.440 6390.448 8706.831 12003.148 6990.341 2893.921 307.153 880.693 1406.419 20776.619 2750.206 8042.094 3893.331 108.259 2602.995 8758.700 6028.421 5318.423 21201.225 601.483 5341.378 1654.240 2324.796 7100.257 3699.889 904.344 235.782 7316.057 8694.777 7132.516 537.656 850.831 141.555 531.040 8627.751 29359.848 20753.290 530.570 227.341 7160.191 282.229 20647.303 261.017 6795.409 7287.597 3373.841 7096.711 474.906 7104.785 6591.589 694.633 512.326 3346.142 642.789 43.462 459.868 7064.753 604.879 1598.127 3495.492 20784.618 3844.178 163.960 5816.818 638.834 6530.081 1041.854 1527.633 15611.311 233.929 6821.039 1356.093 1192.256 11364.450 3633.175 6045.581 2243.652 665.539 1959.354 8704.030 266.518 3551.768 431.989 4266.758 11478.083 6859.429 1206.203 1292.920 622.673 1667.438 5873.841 2432.083 211.134 6024.918 557.848 233.339 5800.275 7013.809 5473.264 0.000 2631.063 1999.329 11727.204 3417.109 426.050 4173.352 734.333 8778.733 2547.064 797.061 6967.763 1253.127 6086.899 6354.655 5484.455 3459.961 7441.218 99.104 7986.146 1953.469 952.153 900.831 9870.759 5710.543 605.432 7330.395 354.238 5223.879 7474.735 11696.453 8181.591
626.395 6968.448 4684.156 2923.899 3362.248 1065.279 2927.715 1228.238 2469.647 6884.549 6088.792 9434.488 4851.588 429.919 2430.755 3204.831 1224.824 21609.473 2373.893 6482.913 1415.266 2691.977 2438.205 9648.452 6705.990 5033.395 21941.740 2108.039 4590.798 4281.263 2158.563 5645.540 1932.692 3340.999 2407.792 8138.083 7688.576 5470.455 2699.537 1866.835 2746.179 3101.471 9557.197 27145.913 21637.299 2965.041 2513.393 5017.086 2829.318 21519.756 2854.008 5075.701 8172.354 3393.430 4942.248 2156.341 5447.867 4335.851 3241.527 2121.662 1632.448 3190.909 2587.786 3022.293 4961.223 3183.017 2615.537 1924.277 21657.858 4223.130 2791.529 6599.069 3159.521 4293.658 3491.565 2909.163 13563.130 2414.518 5102.529 3703.659 1579.473 8783.784 2015.860 5524.263 1791.794 3183.795 695.001 9618.734 2858.981 1981.299 2743.015 6708.754 8889.556 4230.283 3627.580 3382.595 3170.956 3308.377 3854.851 891.384 2838.007 6689.926 3055.419 2418.640 5332.037 4384.520 5162.688 2631.063 0.000 1095.096 9134.680 1771.077 3001.766 1905.451 1981.698 9524.756 3638.348 3262.871 4337.239 1583.427 3862.295 4137.436 5166.104 1946.619 8342.859 2730.160 6434.435 4584.506 1709.705 3383.520 10866.754 5273.575 2994.087 8117.112 2668.354 4743.475 8345.011 9101.704 6690.241
1605.164 6965.730 3967.741 2440.529 2872.543 817.080 2304.081 726.655 2421.224 5899.655 6989.724 10395.841 5007.683 1518.663 1911.942 2336.428 869.539 22051.765 1420.771 6253.949 1968.234 2022.379 1430.768 8616.178 5685.887 4211.786 22420.131 1399.625 3925.935 3612.009 1116.997 5346.515 1736.591 2859.890 1764.402 7107.558 7192.704 5291.094 1875.529 1148.657 2136.962 2526.553 8518.678 27385.767 22059.526 2461.906 1815.792 5177.600 2258.206 21946.358 2256.627 4927.583 7132.812 2417.576 5111.985 1565.430 5265.026 4593.962 2686.985 1516.777 1375.054 2634.398 1960.965 2284.148 5088.811 2602.946 1542.608 1571.620 22084.377 3207.726 2160.855 5561.581 2620.660 4533.636 3008.290 1857.154 13672.898 1765.462 4954.001 3287.573 807.822 9734.332 1704.957 4796.402 765.131 2647.328 924.741 8582.628 2262.124 1632.317 2263.841 6260.467 9830.229 5102.207 2756.160 3076.435 2613.866 2263.903 3905.792 445.158 2207.195 5671.722 2525.845 1766.022 4580.376 5253.602 4352.937 1999.329 1095.096 0.000 10069.278 1466.247 2420.806 2179.450 1265.316 8515.035 2543.257 2761.511 5194.015 748.945 4090.176 4359.304 4358.982 1552.047 7301.976 2091.693 6200.639 3874.258 1078.757 2876.231 9823.924 4509.404 2515.529 7091.921 1905.786 3979.330 7308.635 10033.292 6425.036
8520.536 8440.168 11162.922 11917.082 12323.637 10181.577 12007.634 9642.625 8705.002 14117.934 3097.204 569.871 7493.488 8834.755 11486.910 12337.957 10341.676 24968.674 10666.285 9602.556 8182.200 11799.814 10849.501 16916.272 14234.854 11826.692 24987.536 11238.738 10904.222 13339.740 10748.823 9699.061 9130.287 12296.581 11516.786 15558.074 11676.820 9080.456 11834.179 11001.013 11827.498 12145.203 16900.999 21716.171 25150.172 11969.278 11634.186 7447.585 11886.613 25007.637 11924.134 8871.492 15675.544 11401.414 7415.758 11259.960 9092.685 7175.597 12263.140 11231.126 9288.946 12217.063 11683.819 12143.573 7609.334 12225.472 11568.242 9403.449 25136.142 12189.720 11880.556 14286.332 12175.210 7263.603 12436.585 11905.125 10936.773 11524.997 8876.805 12560.231 10709.619 436.277 9323.231 11682.543 10456.658 12196.100 9774.018 16930.357 11928.579 9393.608 11749.203 15373.116 262.671 4987.264 12761.380 12149.228 12198.749 12312.928 8097.581 9658.155 11925.153 14206.343 12071.707 11530.040 11682.490 4841.393 11852.520 11727.204 9134.680 10069.278 0.000 9339.432 12054.837 8282.187 11114.795 16580.418 12338.691 12242.096 4913.339 10704.113 7455.605 7385.498 11842.292 9474.127 15840.019 11824.994 9612.781 13663.286 10839.652 12358.399 18140.148 11706.456 11977.464 15490.020 11799.149 11397.022 15796.794 60.978 9874.687
1775.080 5499.575 2973.053 3888.910 4312.494 2221.335 3714.017 743.280 979.770 5460.547 6246.374 9723.997 3577.071 2101.364 3363.505 3573.567 2310.039 23345.914 1328.560 4822.723 1307.354 3423.689 1519.091 8309.476 5378.162 3402.331 23689.477 2817.890 2852.943 4960.882 1482.798 3940.345 286.934 4302.148 3187.602 6813.661 5922.235 3841.743 3189.926 2580.319 3557.972 3948.134 8240.088 25942.950 23366.666 3905.586 3214.310 3746.674 3688.154 23250.687 3677.965 3470.221 6877.958 2145.166 3685.031 3011.712 3816.444 3216.102 4111.610 2961.565 140.663 4059.565 3382.017 3635.830 3648.239 4020.748 2448.106 156.179 23388.794 2995.742 3572.990 5331.121 4051.667 3147.465 4447.820 2796.736 12211.163 3186.585 3496.806 4738.564 2249.790 9045.032 253.960 3807.425 1298.204 4078.490 2138.477 8292.703 3683.476 210.364 3715.963 7681.273 9116.975 4376.277 3962.983 4541.462 4039.316 3175.938 2456.735 1127.352 3617.604 5356.827 3961.529 3185.812 3633.371 4514.252 3516.232 3417.109 1771.077 1466.247 9339.432 0.000 3843.096 1058.345 2689.461 8121.874 3014.487 4200.295 4435.205 2174.383 2709.444 2967.921 3516.996 199.594 7050.504 3503.317 4770.931 5189.023 2535.693 4311.471 9551.789 3585.089 3963.679 6776.245 3263.110 3065.948 7036.763 9297.310 5008.079
3626.590 9305.607 5669.872 275.327 496.032 1940.833 156.923 3131.535 4819.187 6628.272 9052.827 12319.133 7415.844 3236.940 572.935 964.992 1784.798 20468.186 3152.685 8456.233 4295.544 436.780 2997.792 8912.754 6243.959 5661.949 20903.710 1026.357 5722.696 1287.630 2730.234 7512.060 4125.744 496.381 657.413 7493.504 9074.864 7552.074 837.302 1272.481 285.217 105.747 8776.017 29785.885 20438.722 220.803 639.414 7585.708 172.478 20334.217 165.144 7217.163 7454.939 3727.846 7522.064 869.736 7524.229 7014.413 268.589 914.083 3771.636 216.917 461.507 483.280 7490.601 184.293 1943.911 3921.461 20471.310 4145.247 277.004 6019.092 220.081 6953.409 623.722 1818.201 16036.351 657.446 7242.723 949.027 1612.999 11686.476 4059.152 6402.325 2663.745 245.794 2316.694 8854.254 159.630 3977.668 347.245 3841.887 11803.848 7218.693 1154.771 966.750 197.003 1879.022 6299.831 2850.247 238.520 6242.420 169.386 657.780 6154.810 7373.205 5817.222 426.050 3001.766 2420.806 12054.837 3843.096 0.000 4590.518 1157.816 8956.225 2799.023 386.983 7330.067 1676.850 6510.103 6778.324 5829.002 3885.732 7604.203 344.914 8400.078 1608.734 1360.286 480.223 9999.494 6063.270 294.091 7513.437 675.093 5585.856 7642.661 12025.298 8592.463
1547.432 5068.030 3599.922 4585.925 5025.198 2747.881 4479.397 1524.529 780.934 6321.325 5190.628 8670.148 2950.237 2043.659 4058.896 4472.788 2878.064 23393.871 2386.868 4677.694 625.953 4200.547 2575.699 9190.192 6291.837 4136.406 23701.021 3576.717 3419.317 5790.617 2513.987 3912.587 859.143 5009.886 3937.659 7713.279 6103.285 3651.339 4040.594 3323.315 4308.896 4696.072 9132.323 25289.960 23434.269 4613.603 3994.747 3116.968 4424.350 23314.170 4427.733 3245.832 7791.152 3159.655 3043.551 3724.579 3631.452 2461.524 4853.893 3678.194 1021.301 4801.261 4133.902 4461.085 3056.883 4773.979 3436.977 1124.537 23452.175 3991.279 4336.057 6271.590 4783.542 2411.537 5160.430 3786.994 11664.674 3939.545 3272.300 5420.232 2981.882 7990.327 1058.328 4387.514 2276.421 4809.914 2511.821 9180.150 4433.192 1120.590 4405.017 8418.218 8060.647 3327.882 4880.661 5158.502 4780.668 4179.727 1960.301 1741.370 4382.738 6268.280 4685.487 3940.594 4257.202 3463.355 4226.561 4173.352 1905.451 2179.450 8282.187 1058.345 4590.518 0.000 3441.637 8968.013 4070.762 4916.296 3382.407 2928.067 1972.579 2247.832 4223.754 1195.343 7963.177 4267.336 4633.202 6047.373 3232.380 5033.770 10437.540 4229.212 4660.483 7668.016 4082.510 3749.640 7942.195 8239.836 4906.790
2602.945 8168.593 4743.283 1206.287 1623.311 942.754 1038.774 1973.796 3663.381 6123.069 8069.762 11408.595 6259.027 2295.033 695.223 1239.750 786.677 21245.235 2133.527 7365.534 3179.896 759.628 2015.422 8635.999 5808.966 4832.274 21649.063 135.601 4761.845 2361.507 1706.251 6431.824 2970.697 1613.590 500.405 7158.715 8107.330 6439.082 727.141 120.332 873.006 1263.459 8516.451 28631.884 21233.529 1218.628 557.169 6428.920 999.236 21124.791 993.003 6094.091 7149.524 2887.649 6364.939 346.258 6411.774 5857.306 1425.412 295.790 2615.108 1373.016 696.670 1052.520 6335.044 1338.792 1232.782 2772.830 21262.451 3477.174 895.539 5625.753 1362.859 5795.936 1758.497 1329.768 14893.549 500.754 6119.977 2054.868 459.940 10761.170 2910.223 5523.057 1563.944 1389.666 1358.500 8588.701 998.514 2830.147 1041.095 4999.667 10868.842 6205.007 1656.582 1906.513 1352.598 1630.091 5145.603 1700.383 941.903 5801.620 1272.068 501.005 5284.488 6358.860 4984.839 734.333 1981.698 1265.316 11114.795 2689.461 1157.816 3441.637 0.000 8612.190 2339.072 1510.991 6308.374 519.051 5352.708 5620.666 4994.557 2740.056 7310.158 826.402 7310.269 2640.377 280.386 1622.084 9789.139 5199.645 1280.294 7162.332 687.802 4693.992 7334.171 11082.198 7514.638
9800.339 8991.901 5491.877 9219.361 9313.305 9141.325 8822.202 8340.769 8282.487 2661.762 13698.283 17067.206 9121.918 9948.629 9032.327 7991.689 9076.133 29042.286 7151.081 7495.881 9409.088 8680.651 7094.960 529.576 2831.301 4869.419 29551.139 8613.947 5732.788 8840.056 7398.276 7043.468 8180.271 9334.681 8742.809 1463.117 5854.975 7649.100 8245.155 8623.287 8846.278 8989.818 672.865 27173.316 28965.502 9173.711 8610.303 9191.732 8959.566 28873.551 8889.754 7774.855 1511.394 6132.078 9211.003 8848.668 7630.132 9404.982 9078.538 8819.351 8241.607 9062.443 8789.074 8474.048 9023.678 8987.352 7385.162 7986.439 29007.937 5308.525 8791.208 2987.858 9110.645 9317.278 9370.981 7306.148 13957.262 8729.633 7774.383 9666.657 8593.194 16390.858 7989.394 4899.273 7757.157 9123.078 9411.467 618.141 8891.789 7959.616 9188.498 10956.816 16408.216 12051.279 7900.538 9886.807 9056.837 7111.313 8504.493 8633.778 8794.148 2844.273 9116.984 8721.291 4915.773 12154.639 4808.181 8778.733 9524.756 8515.035 16580.418 8121.874 8956.225 8968.013 8612.190 0.000 6276.837 9250.231 12057.161 8509.642 9151.484 9199.740 4815.142 7926.289 1378.937 8766.088 7459.665 8697.766 8774.993 9262.499 1570.315 4903.356 9249.998 1450.668 8426.628 5287.452 1324.503 16527.202 7309.275
4110.367 7587.610 3247.698 3037.503 3234.099 2974.588 2649.430 2737.183 3811.325 3843.393 9241.899 12709.144 6150.129 4060.542 2776.131 1887.866 2880.143 23253.202 1690.403 6441.255 4177.257 2458.069 1495.401 6297.207 3491.142 3049.832 23696.665 2337.166 3385.304 3175.332 1603.030 5487.985 3251.067 3247.946 2481.771 4820.889 6613.727 5716.548 2009.945 2358.110 2635.085 2856.765 6178.796 28092.165 23217.608 3001.998 2358.668 6307.000 2764.050 23114.722 2699.992 5478.308 4810.453 1380.918 6266.368 2573.147 5686.640 5969.871 2979.858 2542.945 3053.476 2950.457 2550.849 2325.004 6168.075 2876.429 1130.666 2972.218 23251.553 1413.078 2588.737 3294.210 2988.038 5886.945 3324.971 1033.420 14245.023 2469.053 5499.508 3654.922 2374.879 12033.878 3073.332 3840.504 1932.747 3006.317 3313.948 6250.531 2703.068 2993.657 2973.678 5919.622 12112.103 7357.801 1990.444 3765.063 2939.674 935.688 5036.182 2839.111 2601.355 3486.115 2967.907 2460.989 3587.510 7500.570 3202.182 2547.064 3638.348 2543.257 12338.691 3014.487 2799.023 4070.762 2339.072 6276.837 0.000 3147.730 7426.125 2303.273 5488.879 5706.718 3216.635 2903.526 4971.228 2551.523 6382.719 3219.220 2519.591 3193.171 7456.583 3488.336 3081.867 4826.317 2193.374 3091.470 4995.131 12297.804 6507.815
3881.756 9675.181 6055.252 339.036 112.638 2218.689 542.112 3480.057 5172.923 6960.327 9265.491 12492.206 7766.644 3463.708 857.756 1275.547 2068.991 20108.009 3538.386 8838.096 4594.316 821.541 3384.504 9191.657 6564.230 6040.757 20548.987 1384.529 6109.263 1130.806 3115.161 7895.149 4480.959 109.398 1016.098 7789.194 9461.167 7929.548 1219.475 1620.521 656.481 300.625 9051.243 30141.901 20075.593 303.220 1019.052 7936.570 516.458 19971.799 541.670 7591.824 7744.311 4110.351 7871.814 1196.258 7901.826 7353.328 172.003 1244.734 4124.196 197.419 826.870 824.438 7844.404 271.398 2326.812 4283.371 20108.778 4510.544 660.814 6332.132 168.525 7294.107 247.525 2187.564 16402.982 1018.524 7617.489 562.504 1956.177 11867.232 4420.855 6784.504 3040.700 145.410 2569.313 9130.690 536.451 4340.400 520.817 3502.411 11989.021 7450.757 1370.748 636.579 209.637 2217.827 6655.976 3181.899 624.877 6563.803 240.026 1020.305 6536.492 7605.201 6196.097 797.061 3262.871 2761.511 12242.096 4200.295 386.983 4916.296 1510.991 9250.231 3147.730 0.000 7565.927 2026.816 6850.559 7120.363 6208.046 4249.673 7890.573 726.253 8782.062 1474.018 1686.661 120.650 10260.171 6444.509 269.626 7812.577 1061.354 5969.420 7932.136 12214.056 8976.003
3711.029 5477.955 6565.288 7229.783 7658.672 5402.187 7262.432 4733.665 3878.373 9478.787 1816.135 5288.814 3573.288 4102.262 6757.197 7503.400 5561.981 23471.228 5758.587 6017.213 3273.556 7029.163 5939.086 12337.301 9526.189 7197.188 23658.196 6438.108 6327.002 8614.613 5835.557 5717.739 4238.150 7634.710 6745.015 10908.350 7989.363 5166.165 7011.380 6190.683 7080.753 7427.382 12299.818 23756.195 23573.559 7275.825 6848.642 3626.509 7158.118 23442.000 7186.380 4828.520 11006.540 6530.459 3557.002 6493.288 5165.713 3000.970 7560.799 6458.896 4379.651 7511.474 6924.426 7356.317 3732.243 7508.912 6668.049 4506.879 23577.804 7343.828 7127.537 9542.607 7476.142 3062.621 7782.148 7008.711 10850.604 6751.687 4844.335 7955.734 5880.371 4610.397 4434.621 7212.902 5546.207 7499.323 5013.751 12338.972 7191.240 4501.083 7052.714 10906.589 4686.009 145.326 7927.378 7582.935 7491.974 7415.353 3657.674 4770.634 7173.806 9499.875 7371.563 6755.755 7158.514 102.271 7250.362 6967.763 4337.239 5194.015 4913.339 4435.205 7330.067 3382.407 6308.374 12057.161 7426.125 7565.927 0.000 5864.097 3038.592 3099.986 7242.952 4577.689 11175.959 7066.827 6001.685 8921.168 6042.233 7685.810 13581.646 7161.734 7296.460 10851.267 6996.069 6773.530 11143.808 4873.209 6306.405
2184.680 7661.984 4367.451 1714.954 2138.798 679.925 1556.614 1454.950 3146.131 5960.819 7642.037 11012.195 5740.825 1945.777 1191.909 1639.500 576.925 21601.083 1737.631 6885.630 2689.538 1273.570 1654.515 8564.946 5685.022 4511.579 21991.096 651.974 4365.597 2865.343 1324.804 5959.135 2454.254 2128.014 1019.448 7070.231 7693.740 5947.319 1151.972 406.301 1392.052 1782.504 8454.103 28115.089 21596.991 1731.217 1066.851 5910.734 1517.385 21486.496 1512.054 5596.675 7075.057 2596.053 5846.516 838.597 5920.353 5338.490 1944.318 788.052 2097.476 1891.884 1215.703 1540.918 5817.692 1857.780 1178.574 2261.883 21624.329 3272.448 1413.592 5524.527 1880.902 5276.969 2274.299 1400.921 14382.892 1019.754 5622.733 2564.733 98.136 10358.323 2398.844 5168.408 1112.773 1907.684 1061.830 8523.146 1517.565 2320.022 1543.699 5518.654 10460.996 5765.445 2063.620 2389.129 1871.443 1775.406 4629.250 1188.870 1459.673 5674.891 1788.780 1019.879 4936.649 5918.486 4661.054 1253.127 1583.427 748.945 10704.113 2174.383 1676.850 2928.067 519.051 8509.642 2303.273 2026.816 5864.097 0.000 4833.774 5101.636 4669.514 2231.602 7239.780 1344.215 6830.928 3133.090 390.684 2139.201 9743.114 4856.275 1789.623 7066.037 1163.944 4338.939 7256.783 10670.032 7041.797
3420.316 3206.640 3707.448 6525.931 6961.107 4714.052 6389.727 3381.972 1743.409 6662.412 4554.804 7926.812 1004.742 3941.336 5997.023 6282.720 4839.342 25121.118 3858.982 3192.992 2470.653 6103.624 4069.523 9470.466 6792.048 4372.678 25395.136 5485.585 3448.725 7664.037 4133.118 2721.186 2422.943 6947.611 5852.936 8102.509 5025.080 2227.129 5894.507 5237.646 6225.634 6615.825 9450.423 23320.801 25178.245 6549.767 5894.898 1163.746 6348.318 25054.861 6345.544 1847.903 8221.015 4267.627 1085.747 5654.362 2220.028 506.868 6776.839 5606.213 2756.595 6724.285 6049.350 6335.120 1135.029 6691.499 5128.189 2670.977 25192.561 4938.042 6246.965 6860.290 6710.831 443.559 7096.814 5470.984 9701.238 5853.462 1867.725 7368.064 4897.713 7247.102 2539.396 4257.310 4001.028 6737.493 4484.058 9481.738 6351.050 2626.350 6346.962 10350.643 7272.554 3072.309 6669.119 7121.393 6703.772 5829.379 647.094 3670.876 6292.795 6762.843 6615.717 5853.646 4237.911 3140.733 4396.916 6086.899 3862.295 4090.176 7455.605 2709.444 6510.103 1972.579 5352.708 9151.484 5488.879 6850.559 3038.592 4833.774 0.000 275.446 4386.712 2724.987 8384.983 6177.456 3163.818 7897.463 5164.365 6965.931 10701.842 4256.920 6600.859 8034.483 5959.340 3943.279 8341.260 7404.406 3467.749
3692.048 2953.481 3794.255 6796.513 7231.077 4988.160 6656.965 3648.489 1995.529 6744.296 4538.693 7867.624 740.603 4213.613 6267.552 6539.210 5112.837 25370.033 4092.684 3021.323 2743.940 6370.229 4303.406 9530.814 6893.937 4464.225 25640.064 5753.220 3531.059 7926.373 4377.586 2620.193 2681.041 7217.804 6121.011 8182.866 4908.696 2090.129 6156.082 5506.021 6493.669 6884.021 9515.968 23046.783 25429.139 6819.887 6161.327 894.786 6617.107 25305.377 6613.640 1733.087 8306.251 4462.568 815.337 5924.107 2086.306 263.463 7045.338 5875.791 3019.182 6992.813 6317.334 6598.415 879.688 6959.406 5375.041 2923.992 25443.028 5108.682 6514.343 6973.151 6979.859 181.945 7366.805 5716.112 9426.405 6121.390 1750.210 7639.420 5166.497 7191.171 2790.866 4300.479 4255.084 7006.546 4759.416 9544.940 6619.149 2877.687 6617.824 10619.508 7209.436 3145.787 6922.808 7394.794 6972.318 6070.017 738.770 3942.037 6560.054 6864.182 6885.121 6121.481 4297.093 3202.191 4479.365 6354.655 4137.436 4359.304 7385.498 2967.921 6778.324 2247.832 5620.666 9199.740 5706.718 7120.363 3099.986 5101.636 275.446 0.000 4468.334 2976.159 8468.450 6444.786 2995.779 8156.944 5434.592 7235.451 10756.327 4322.298 6871.464 8112.114 6223.249 4036.676 8421.883 7333.139 3301.730
5286.030 5123.289 681.800 6021.073 6307.973 5139.721 5672.152 3939.237 3498.618 2276.501 8904.430 12311.547 4525.028 5553.829 5624.811 5026.641 5136.886 26238.135 2959.481 3713.422 4727.072 5421.854 3015.961 5100.603 2454.029 168.116 26643.507 5060.318 938.216 6386.235 3348.815 2880.176 3506.784 6315.406 5339.735 3716.170 3421.587 3354.140 4991.871 4948.491 5604.244 5907.468 5071.940 25249.077 26223.204 6001.216 5262.623 4628.310 5747.908 26115.380 5696.968 3319.206 3837.918 2113.812 4628.597 5321.789 3327.200 4695.346 6052.730 5276.355 3651.892 6014.193 5472.861 5397.162 4459.198 5945.471 3888.783 3365.990 26252.940 1822.393 5575.798 2578.689 6040.253 4604.755 6417.155 4030.948 11432.589 5330.197 3328.307 6753.214 4767.259 11630.683 3334.673 641.376 3627.399 6062.638 5276.173 5106.732 5701.254 3325.795 5909.839 9132.873 11658.644 7236.178 5193.314 6775.066 5999.622 4107.919 3745.719 4311.890 5601.693 2422.788 5995.460 5324.083 399.757 7340.140 17.535 5484.455 5166.104 4358.982 11842.292 3516.996 5829.002 4223.754 4994.557 4815.142 3216.635 6208.046 7242.952 4669.514 4386.712 4468.334 0.000 3317.859 4000.349 5521.812 3658.047 6435.448 5034.972 6276.271 6341.582 300.248 6080.234 3647.785 5160.635 477.012 3955.040 11791.013 3683.923
1972.176 5430.389 2777.428 3944.981 4362.206 2332.998 3752.233 849.925 981.588 5265.311 6384.647 9864.972 3558.367 2287.959 3423.509 3567.024 2411.748 23497.295 1213.247 4707.298 1494.047 3460.390 1413.310 8116.679 5188.069 3202.833 23845.188 2865.144 2661.424 4973.552 1418.374 3811.737 347.783 4353.225 3234.010 6622.438 5759.250 3739.152 3204.162 2634.865 3601.383 3990.031 8048.416 25904.082 23515.603 3958.669 3251.487 3727.147 3734.886 23400.158 3720.929 3376.372 6688.358 1975.359 3668.553 3070.050 3713.153 3229.517 4154.235 3019.357 334.964 4102.624 3426.385 3655.833 3621.411 4060.746 2405.514 70.810 23538.256 2820.102 3612.779 5144.851 4097.497 3157.240 4496.932 2750.711 12153.543 3232.162 3402.730 4794.452 2312.068 9184.802 185.624 3613.006 1280.819 4124.302 2278.428 8100.553 3726.421 98.659 3775.148 7715.373 9253.895 4522.871 3946.979 4613.743 4082.577 3119.244 2426.941 1252.235 3656.496 5166.448 4010.014 3230.866 3436.921 4658.679 3317.029 3459.961 1946.619 1552.047 9474.127 199.594 3885.732 1195.343 2740.056 7926.289 2903.526 4249.673 4577.689 2231.602 2724.987 2976.159 3317.859 0.000 6860.888 3543.292 4654.601 5191.329 2603.596 4358.615 9359.687 3387.809 4019.376 6584.173 3287.533 2867.716 6846.265 9431.316 4885.191
8663.767 8686.892 4677.684 7869.874 7951.206 7887.103 7473.029 7192.486 7327.171 1724.221 12878.733 16304.780 8491.285 8771.052 7701.949 6639.219 7812.311 27666.180 5982.821 7179.263 8354.796 7341.327 5904.766 1326.246 1673.261 4013.624 28173.265 7304.345 4938.328 7462.292 6191.884 6577.302 7141.232 7973.178 7415.574 300.478 5839.484 7149.046 6911.045 7328.230 7503.726 7634.592 1217.144 27642.655 27590.894 7822.821 7279.598 8581.950 7613.499 27498.500 7542.987 7206.614 172.549 4976.027 8589.889 7532.690 7126.349 8693.600 7719.225 7505.547 7161.134 7704.551 7453.318 7123.428 8412.099 7629.686 6093.286 6925.037 27633.003 4125.592 7447.177 1743.952 7753.688 8603.270 8005.947 5991.461 14175.959 7402.221 7210.642 8298.246 7319.665 15622.797 6944.411 4245.936 6556.433 7765.428 8178.417 1283.768 7544.835 6905.035 7845.325 9595.690 15654.008 11156.910 6534.936 8526.888 7699.520 5776.021 7745.569 7457.336 7448.343 1695.761 7763.173 7393.774 4196.097 11270.226 3989.566 7441.218 8342.859 7301.976 15840.019 7050.504 7604.203 7963.177 7310.158 1378.937 4971.228 7890.573 11175.959 7239.780 8384.983 8468.450 4000.349 6860.888 0.000 7424.599 7135.257 7318.833 7486.113 7899.745 2523.898 4158.383 7898.265 397.915 7091.103 4443.347 101.493 15789.080 7036.975
3356.552 8961.300 5346.314 500.324 837.484 1664.883 212.412 2796.530 4480.580 6393.546 8805.485 12100.178 7077.981 2992.139 381.239 830.893 1505.523 20749.898 2812.880 8112.539 3990.739 99.993 2661.359 8740.144 6025.164 5355.357 21177.987 692.282 5393.813 1555.444 2389.113 7169.075 3786.725 834.981 331.760 7303.081 8746.966 7207.241 545.335 944.065 84.189 447.446 8607.743 29445.227 20724.574 480.037 294.501 7247.793 226.224 20619.070 184.672 6872.269 7272.037 3414.120 7184.655 574.004 7179.407 6682.430 612.013 611.142 3434.035 561.181 142.402 382.902 7151.430 517.617 1633.070 3579.740 20756.316 3865.568 69.689 5809.881 563.079 6620.513 967.488 1541.810 15692.583 328.589 6897.825 1288.295 1285.569 11461.882 3717.470 6087.748 2318.836 589.379 2058.066 8684.518 189.837 3635.630 423.951 4178.672 11575.755 6958.444 1134.301 1253.493 541.579 1657.568 5959.860 2525.967 115.502 6022.199 490.784 327.038 5841.531 7112.828 5510.396 99.104 2730.160 2091.693 11824.994 3503.317 344.914 4267.336 826.402 8766.088 2551.523 726.253 7066.827 1344.215 6177.456 6444.786 5521.812 3543.292 7424.599 0.000 8056.444 1854.385 1049.611 824.630 9846.242 5751.076 558.538 7318.867 365.350 5267.990 7459.371 11794.313 8249.819
6175.574 1551.695 3259.245 8506.358 8893.762 6987.124 8252.513 5503.164 3966.643 5538.933 7158.796 10151.046 2428.408 6652.034 8005.468 7849.298 7065.420 28022.224 5262.824 58.550 5251.451 7963.368 5438.392 7896.011 5899.468 3766.809 28333.765 7422.333 3054.544 9303.258 5675.825 900.715 4541.996 8890.100 7778.537 6834.986 2073.836 985.959 7620.645 7218.162 8125.863 8498.878 7934.851 21720.626 28058.367 8509.817 7763.016 2383.746 8268.251 27939.250 8240.669 1395.375 7003.208 5009.799 2448.818 7653.786 1003.812 3026.451 8662.109 7602.634 4889.742 8613.454 7958.892 8078.345 2269.695 8560.064 6586.214 4644.086 28077.305 5212.548 8123.238 6098.464 8619.392 2980.162 9023.713 6857.679 7872.350 7773.978 1369.725 9342.230 6919.904 9514.271 4518.937 3112.816 5748.632 8645.552 6901.272 7938.500 8245.946 4582.250 8349.051 12114.494 9487.433 6069.060 8140.708 9215.295 8594.688 7091.417 2771.430 5897.857 8162.203 5866.547 8543.809 7770.965 3286.598 6101.762 3675.352 7986.146 6434.435 6200.639 9612.781 4770.931 8400.078 4633.202 7310.269 7459.665 6382.719 8782.062 6001.685 6830.928 3163.818 2995.779 3658.047 4654.601 7135.257 8056.444 0.000 9444.266 7217.302 8880.261 9014.951 3372.746 8578.286 6739.609 7746.200 3488.517 7060.774 9554.502 306.565
5210.901 10497.686 6438.186 1769.136 1421.190 3519.245 1660.675 4535.579 6164.629 6689.724 10655.654 13927.542 8748.390 4839.476 2176.970 1631.517 3359.758 20370.361 4229.963 9502.159 5818.918 1895.600 4036.149 8560.441 6223.348 6268.856 20863.398 2505.911 6549.645 345.452 3855.528 8543.779 5475.911 1452.621 2178.587 7270.126 9828.215 8674.813 2008.567 2760.636 1842.181 1520.683 8403.537 31039.134 20306.803 1711.907 2085.773 8916.688 1776.703 20211.010 1740.870 8376.919 7191.461 4489.597 8859.221 2428.179 8645.681 8404.310 1415.968 2463.651 5142.345 1457.858 1996.778 1592.320 8806.453 1441.617 2878.556 5238.852 20346.360 4621.957 1793.816 5951.883 1505.232 8336.396 1346.786 2587.988 17227.562 2172.629 8401.044 1414.884 3093.332 13295.210 5374.565 7059.380 3911.908 1487.441 3910.306 8487.913 1736.277 5288.654 1925.072 2704.589 13412.451 8812.491 1303.611 1845.208 1474.803 2372.692 7613.174 4318.595 1747.737 6230.273 1605.342 2169.063 6806.342 8966.902 6420.876 1953.469 4584.506 3874.258 13663.286 5189.023 1608.734 6047.373 2640.377 8697.766 3219.220 1474.018 8921.168 3133.090 7897.463 8156.944 6435.448 5191.329 7318.833 1854.385 9444.266 0.000 2891.348 1372.925 9528.779 6707.352 1718.256 7312.519 1969.387 6298.652 7376.206 13633.606 9602.047
2333.320 8032.072 4747.814 1362.349 1796.868 662.972 1258.345 1803.176 3498.775 6256.605 7798.474 11131.346 6086.366 2015.920 833.465 1520.097 506.322 21222.349 2119.594 7271.829 2941.189 997.028 2026.120 8812.355 5960.334 4875.412 21616.069 399.086 4750.554 2602.382 1701.124 6347.297 2811.109 1783.251 718.196 7326.893 8082.257 6329.041 1007.362 185.925 1082.319 1465.458 8696.365 28464.524 21216.383 1385.413 807.468 6256.277 1192.521 21106.306 1199.396 5975.244 7323.666 2945.865 6190.503 492.200 6302.254 5666.808 1621.878 446.301 2450.926 1569.272 910.669 1314.084 6167.471 1544.378 1392.827 2630.556 21244.101 3585.487 1116.107 5787.139 1551.198 5607.924 1932.539 1539.980 14746.757 722.490 6001.406 2208.816 297.812 10484.831 2766.564 5543.511 1502.902 1577.603 1078.392 8767.323 1204.786 2689.715 1185.110 5188.733 10593.253 5937.441 1936.322 2010.310 1548.678 1867.901 4983.413 1495.324 1163.286 5951.703 1453.671 725.161 5309.616 6091.475 5026.077 952.153 1709.705 1078.757 10839.652 2535.693 1360.286 3232.380 280.386 8774.993 2519.591 1686.661 6042.233 390.684 5164.365 5434.592 5034.972 2603.596 7486.113 1049.611 7217.302 2891.348 0.000 1802.952 9976.166 5227.827 1437.343 7327.121 959.576 4713.651 7507.195 10807.312 7429.785
4002.348 9782.015 6133.803 459.677 57.558 2339.025 629.636 3593.370 5285.193 6992.860 9383.993 12607.087 7879.841 3583.555 976.154 1310.302 2189.059 20060.039 3631.162 8936.427 4714.124 916.895 3474.075 9197.066 6590.477 6108.735 20505.149 1494.098 6191.667 1028.132 3209.521 7992.048 4592.746 88.371 1124.706 7802.709 9542.182 8031.736 1296.864 1732.967 759.372 382.767 9055.076 30253.933 20025.237 422.540 1118.981 8049.759 623.764 19922.032 641.584 7695.880 7754.908 4183.960 7985.272 1311.721 8003.923 7469.007 224.820 1359.718 4236.647 268.945 932.756 880.950 7956.825 332.014 2402.376 4393.046 20058.912 4566.202 757.190 6354.754 262.079 7409.458 144.473 2249.362 16511.215 1126.453 7721.481 478.266 2069.974 11982.925 4530.619 6856.888 3143.078 235.491 2689.940 9135.029 636.194 4449.794 641.338 3385.787 12105.137 7570.473 1368.017 636.161 286.683 2259.712 6767.683 3298.270 718.156 6590.639 350.551 1127.800 6608.175 7724.907 6264.119 900.831 3383.520 2876.231 12358.399 4311.471 480.223 5033.770 1622.084 9262.499 3193.171 120.650 7685.810 2139.201 6965.931 7235.451 6276.271 4358.615 7899.745 824.630 8880.261 1372.925 1802.952 0.000 10257.487 6515.572 390.009 7827.719 1146.245 6044.227 7942.710 12330.499 9072.296
11183.995 10540.061 7022.138 10270.535 10311.253 10397.064 9876.637 9713.704 9774.025 4119.307 15241.378 18623.614 10689.598 11294.944 10143.082 9039.326 10317.833 29714.677 8505.678 9049.916 10851.465 9767.821 8428.663 1248.046 4179.954 6384.533 30256.710 9775.426 7269.027 9714.673 8715.120 8612.648 9629.931 10335.419 9862.977 2740.592 7349.230 9219.036 9349.482 9813.598 9922.700 10020.375 1313.295 28285.149 29617.164 10220.010 9722.043 10760.640 10023.968 29531.049 9952.163 9344.714 2694.622 7496.515 10779.322 9995.385 9200.157 10964.728 10091.089 9971.031 9665.743 10081.384 9886.117 9525.332 10592.419 10007.727 8585.202 9422.431 29663.724 6648.480 9863.194 4267.798 10133.314 10876.569 10353.270 8462.214 15285.956 9849.406 9344.353 10627.003 9820.708 17946.050 9435.275 6457.676 9079.939 10142.708 10695.549 1259.140 9953.553 9399.737 10261.252 11561.876 17965.761 13571.395 8890.598 10891.958 10078.292 8219.077 10055.369 9981.121 9860.306 4199.540 10152.459 9840.832 6463.941 13678.171 6333.557 9870.759 10866.754 9823.924 18140.148 9551.789 9999.494 10437.540 9789.139 1570.315 7456.583 10260.171 13581.646 9743.114 10701.842 10756.327 6341.582 9359.687 2523.898 9846.242 9014.951 9528.779 9976.166 10257.487 0.000 6446.603 10292.744 2775.549 9526.095 6808.466 2524.608 18087.244 8856.667
5359.957 4850.921 629.292 6248.985 6545.895 5301.870 5906.347 4052.546 3483.651 2437.401 8795.994 12182.850 4337.219 5651.080 5841.017 5278.358 5306.723 26444.447 3130.141 3427.604 4756.305 5651.086 3202.366 5213.557 2663.067 450.346 26843.365 5270.361 837.508 6651.128 3531.743 2612.201 3551.042 6552.433 5559.134 3868.433 3134.783 3106.009 5226.048 5148.770 5832.874 6143.906 5194.731 24949.317 26433.096 6231.032 5487.055 4433.396 5977.299 26324.433 5928.103 3094.530 3999.977 2336.985 4437.885 5531.274 3079.797 4541.217 6291.431 5484.936 3722.761 6251.846 5697.469 5638.589 4263.693 6184.085 4119.861 3431.263 26462.090 2105.680 5806.533 2809.145 6276.324 4451.466 6657.295 4276.213 11134.280 5549.978 3102.053 6993.307 4954.331 11503.728 3388.395 352.503 3793.360 6299.142 5418.924 5225.136 5932.501 3387.134 6133.094 9407.569 11527.178 7160.810 5456.447 7002.952 6236.845 4368.544 3611.400 4435.564 5833.736 2631.057 6228.667 5544.101 101.255 7260.116 317.618 5710.543 5273.575 4509.404 11706.456 3585.089 6063.270 4229.212 5199.645 4903.356 3488.336 6444.509 7161.734 4856.275 4256.920 4322.298 300.248 3387.809 4158.383 5751.076 3372.746 6707.352 5227.827 6515.572 6446.603 0.000 6309.571 3794.350 5392.068 532.022 4107.411 11654.438 3391.586
3612.471 9448.722 5902.330 75.000 369.317 1952.697 433.384 3237.703 4932.660 6915.876 8997.551 12229.963 7523.098 3194.288 603.951 1259.045 1804.424 20197.427 3352.942 8633.964 4330.378 658.531 3207.863 9206.825 6534.640 5913.727 20628.903 1159.894 5946.733 1379.135 2926.559 7694.993 4242.412 350.762 799.796 7787.221 9300.129 7715.707 1095.424 1384.683 476.900 284.709 9070.013 29900.655 20170.482 80.247 832.710 7693.022 332.346 20065.349 386.492 7373.183 7748.935 3972.600 7627.512 952.220 7688.230 7102.648 308.769 1002.165 3883.934 278.569 626.023 776.204 7603.031 329.102 2191.453 4050.977 20202.539 4415.668 505.634 6311.099 222.272 7044.406 502.201 2088.486 16172.206 804.619 7399.008 775.179 1714.618 11603.616 4188.115 6646.047 2830.397 234.539 2300.233 9148.281 382.729 4108.763 255.964 3758.130 11724.699 7181.421 1435.142 695.889 268.078 2167.137 6416.849 2930.286 484.549 6532.866 149.406 807.913 6399.958 7335.874 6068.791 605.432 2994.087 2515.529 11977.464 3963.679 294.091 4660.483 1280.294 9249.998 3081.867 269.626 7296.460 1789.623 6600.859 6871.464 6080.234 4019.376 7898.265 558.538 8578.286 1718.256 1437.343 390.009 10292.744 6309.571 0.000 7806.918 920.788 5825.806 7936.651 11949.195 8777.035
8417.243 8291.296 4327.945 7775.135 7877.838 7702.730 7377.991 6949.622 7016.769 1375.293 12541.942 15958.749 8120.578 8543.492 7582.562 6549.690 7634.496 27678.978 5747.691 6783.385 8076.200 7232.815 5680.668 1536.226 1411.958 3669.451 28175.890 7163.468 4585.798 7438.850 5976.961 6188.427 6855.828 7898.628 7292.693 108.791 5446.217 6763.392 6796.192 7174.336 7399.376 7548.973 1465.039 27278.428 27609.876 7730.212 7160.657 8208.796 7513.923 27515.804 7444.428 6827.291 303.275 4733.071 8218.107 7398.002 6740.974 8334.379 7640.692 7368.716 6890.393 7623.468 7340.323 7030.735 8038.983 7548.246 5936.354 6646.997 27650.745 3894.016 7344.842 1541.511 7670.941 8244.353 7938.636 5855.481 13790.582 7279.538 6830.866 8238.614 7148.664 15277.523 6660.697 3869.511 6338.811 7683.883 7980.697 1516.466 7446.541 6624.562 7741.696 9655.866 15306.302 10835.261 6470.090 8449.040 7617.429 5662.997 7392.898 7228.085 7348.461 1429.434 7675.170 7271.208 3828.353 10946.341 3637.686 7330.395 8117.112 7091.921 15490.020 6776.245 7513.437 7668.016 7162.332 1450.668 4826.317 7812.577 10851.267 7066.037 8034.483 8112.114 3647.785 6584.173 397.915 7318.867 6739.609 7312.519 7327.121 7827.719 2775.549 3794.350 7806.918 0.000 6977.918 4098.681 322.121 15438.680 6639.891
3290.473 8683.310 4994.896 865.030 1168.284 1619.172 519.247 2581.263 4242.880 6036.670 8756.965 12089.438 6839.449 2971.718 619.581 607.557 1459.861 21115.161 2488.937 7802.687 3852.232 267.391 2328.588 8409.653 5674.227 4993.945 21543.301 560.550 5047.918 1709.138 2070.678 6855.177 3549.163 1170.642 368.661 6964.153 8399.865 6910.963 183.492 805.515 449.416 764.286 8279.673 29189.358 21089.591 841.251 214.695 7008.882 589.301 20984.161 536.333 6583.646 6936.918 3055.611 6947.882 596.302 6882.807 6465.803 922.960 605.966 3204.287 877.325 362.454 378.576 6907.176 817.950 1272.334 3328.524 21121.397 3500.287 415.359 5463.102 893.141 6400.934 1290.701 1177.741 15418.502 355.218 6608.914 1621.552 1127.924 11443.798 3466.038 5730.008 2034.217 917.657 2031.508 8355.609 540.633 3382.237 781.422 4430.697 11552.618 6892.807 996.984 1616.651 860.034 1315.600 5713.149 2349.604 441.777 5670.698 837.502 346.809 5483.077 7046.655 5149.084 354.238 2668.354 1905.786 11799.149 3263.110 675.093 4082.510 687.802 8426.628 2193.374 1061.354 6996.069 1163.944 5959.340 6223.249 5160.635 3287.533 7091.103 365.350 7746.200 1969.387 959.576 1146.245 9526.095 5392.068 920.788 6977.918 0.000 4912.188 7123.941 11766.855 7933.920
4839.390 4893.847 258.530 5763.650 6072.623 4774.177 5429.074 3521.347 3021.829 2723.803 8444.867 11861.730 4134.504 5123.162 5344.072 4828.766 4781.455 25934.819 2607.470 3545.820 4259.318 5168.118 2687.633 5565.373 2859.076 429.724 26329.458 4768.646 524.784 6225.126 3014.225 2655.488 3043.898 6077.951 5065.638 4163.523 3531.824 3071.153 4749.948 4639.596 5348.925 5669.198 5532.754 25169.043 25926.080 5747.927 4998.907 4246.191 5494.034 25816.793 5446.989 2989.663 4278.537 1860.817 4241.216 5028.754 3042.839 4269.844 5819.568 4981.723 3202.570 5778.609 5209.196 5171.658 4078.491 5712.256 3642.641 2913.216 25954.515 1769.361 5325.115 2954.854 5800.945 4178.762 6186.937 3818.741 11331.741 5056.876 3001.476 6522.473 4437.066 11180.007 2875.885 829.902 3267.880 5824.304 4887.542 5569.367 5451.517 2870.846 5642.800 9003.029 11210.664 6765.101 5029.063 6516.764 5763.050 3939.303 3307.221 3903.638 5353.872 2828.966 5749.681 5051.245 601.448 6870.334 481.861 5223.879 4743.475 3979.330 11397.022 3065.948 5585.856 3749.640 4693.992 5287.452 3091.470 5969.420 6773.530 4338.939 3943.279 4036.676 477.012 2867.716 4443.347 5267.990 3488.517 6298.652 4713.651 6044.227 6808.466 532.022 5825.806 4098.681 4912.188 0.000 4401.800 11346.238 3552.573
8659.473 8612.469 4633.873 7907.435 7993.869 7901.291 7510.424 7189.097 7300.381 1678.860 12841.499 16263.443 8437.007 8772.717 7733.387 6677.709 7828.319 27728.773 5981.537 7104.405 8339.771 7375.391 5906.836 1309.331 1658.918 3972.169 28233.805 7330.179 4893.254 7516.059 6196.800 6510.396 7123.630 8015.569 7446.061 239.060 5750.153 7084.818 6943.415 7350.638 7538.857 7674.289 1212.465 27543.766 27654.719 7860.886 7311.045 8526.228 7649.825 27561.991 7579.544 7146.943 187.825 4971.916 8534.985 7560.186 7062.339 8645.585 7760.623 7532.483 7148.613 7745.343 7486.298 7161.299 8356.393 7670.376 6114.511 6909.970 27696.583 4124.527 7482.788 1747.205 7794.097 8555.406 8050.031 6018.156 14082.138 7432.755 7150.667 8344.158 7337.442 15581.800 6927.369 4187.943 6560.653 7806.125 8188.859 1274.156 7581.458 6889.119 7880.714 9666.580 15611.872 11126.005 6579.202 8568.617 7740.072 5808.453 7700.759 7458.248 7484.555 1679.940 7802.331 7424.335 4143.142 11238.412 3944.576 7474.735 8345.011 7308.635 15796.794 7036.763 7642.661 7942.195 7334.171 1324.503 4995.131 7932.136 11143.808 7256.783 8341.260 8421.883 3955.040 6846.265 101.493 7459.371 7060.774 7376.206 7507.195 7942.710 2524.608 4107.411 7936.651 322.121 7123.941 4401.800 0.000 15745.661 6959.719
8486.856 8380.236 11111.812 11888.612 12295.939 10149.643 11977.433 9603.765 8659.374 14066.808 3057.219 630.789 7438.299 8803.565 11457.034 12304.462 10309.791 24994.863 10624.448 9544.170 8143.269 11768.703 10808.095 16863.799 14185.001 11775.886 25015.631 11206.394 10852.899 13310.543 10708.762 9642.704 9087.237 12268.959 11485.555 15506.915 11618.207 9024.007 11801.100 10968.234 11797.194 12115.906 16848.868 21685.915 25175.487 11940.649 11602.504 7391.840 11856.906 25033.049 11894.147 8815.995 15624.718 11356.812 7360.270 11228.824 9036.306 7122.567 12234.347 11199.793 9247.451 12188.158 11653.056 12111.959 7553.760 12196.238 11530.596 9360.659 25161.665 12143.919 11850.062 14237.236 12146.485 7210.677 12409.217 11867.869 10882.679 11493.715 8821.234 12534.234 10676.003 443.394 9279.925 11629.590 10417.573 12167.449 9742.528 16878.072 11898.607 9350.536 11720.410 15351.424 256.867 4948.309 12727.984 12124.024 12169.803 12275.595 8046.031 9621.325 11894.728 14156.450 12042.917 11498.726 11630.206 4801.958 11801.280 11696.453 9101.704 10033.292 60.978 9297.310 12025.298 8239.836 11082.198 16527.202 12297.804 12214.056 4873.209 10670.032 7404.406 7333.139 11791.013 9431.316 15789.080 11794.313 9554.502 13633.606 10807.312 12330.499 18087.244 11654.438 11949.195 15438.680 11766.855 11346.238 15745.661 0.000 9816.121
6445.410 1683.393 3334.640 8705.707 9087.277 7217.943 8443.441 5734.982 4226.768 5473.243 7449.814 10415.820 2733.319 6916.771 8209.707 8018.039 7292.207 28287.979 5446.043 290.206 5527.441 8155.709 5616.121 7756.002 5854.588 3802.802 28603.807 7624.301 3146.793 9469.769 5863.613 1082.886 4786.202 9084.459 7977.360 6737.433 1802.358 1273.754 7804.229 7424.965 8320.590 8690.169 7801.134 21622.889 28321.733 8707.459 7957.266 2685.995 8463.819 28203.117 8434.338 1682.651 6909.645 5143.722 2752.018 7859.307 1289.210 3332.957 8852.755 7808.224 5129.729 8804.671 8155.337 8260.359 2574.175 8749.829 6756.642 4877.629 28341.192 5299.957 8316.007 6065.184 8812.201 3286.722 9216.151 7019.538 7780.475 7972.417 1657.619 9537.308 7132.044 9782.920 4755.005 3110.348 5950.991 8838.190 7143.367 7801.694 8439.568 4815.744 8550.970 12281.860 9753.079 6374.412 8299.407 9421.012 8786.146 7240.575 3064.695 6133.155 8354.185 5821.720 8738.624 7969.162 3300.926 6406.364 3701.403 8181.591 6690.241 6425.036 9874.687 5008.079 8592.463 4906.790 7514.638 7309.275 6507.815 8976.003 6306.405 7041.797 3467.749 3301.730 3683.923 4885.191 7036.975 8249.819 306.565 9602.047 7429.785 9072.296 8856.667 3391.586 8777.035 6639.891 7933.920 3552.573 6959.719 9816.121 0.000
NODE_COORD_SECTION
1 -8232.444620 -3421.170218
2 -4134.767785 -8579.815314
3 -8761.628330 -8139.345183
4 -11763.716979 -3131.853760
5 -12192.048175 -3022.696969
6 -9921.774688 -3510.087066
7 -11784.683521 -3528.465993
8 -9003.407338 -4675.761773
9 -7551.942477 -5552.301126
10 -11079.331634 -9972.471650
11 -2858.762252 -2414.929904
12 157.010085 -673.792553
13 -5187.877797 -6629.366764
14 -8636.112588 -3087.860723
15 -11286.734962 -3360.557733
16 -11934.887009 -4352.199024
17 -10080.075761 -3536.086069
18 -17928.933557 16157.209827
19 -9690.881673 -5679.114406
20 -5570.360474 -9043.708589
21 -7634.238229 -4167.320748
22 -11539.798927 -3688.447919
23 -9900.746688 -5660.090609
24 -12827.549191 -12250.164134
25 -11491.552411 -9623.347154
26 -9349.188045 -8465.535825
27 -17324.001156 16786.461173
28 -10932.230411 -3831.439572
29 -8514.784030 -8034.138191
30 -13138.404554 -3534.648626
31 -9934.599783 -5327.014274
32 -6378.878324 -8528.334360
33 -8185.296293 -5268.070354
34 -12167.796688 -3001.644468
35 -11257.389983 -3655.485360
36 -12200.934876 -10875.898034
37 -6649.192834 -10820.686814
38 -5944.472525 -8086.301768
39 -11471.329556 -4132.404871
40 -10679.000641 -3866.692000
41 -11603.369055 -3516.898648
42 -11957.588626 -3352.210683
43 -12935.227021 -12099.967748
44 14373.197911 -17499.628911
45 -18333.787344 15995.802039
46 -11809.538934 -3174.989574
47 -11350.556672 -3778.063640
48 -5037.158501 -6707.851360
49 -11686.562645 -3397.112431
50 -18199.972761 15930.024126
51 -11711.853832 -3465.365556
52 -6066.372035 -7695.320350
53 -12389.024988 -10826.269717
54 -10032.323342 -6639.886960
55 -5071.523649 -6632.569154
56 -11010.538105 -3581.825551
57 -5973.134002 -8077.607096
58 -5349.818123 -6004.361495
59 -12093.400313 -3259.243919
60 -10973.415010 -3617.051243
61 -8467.897731 -5041.364122
62 -12043.715118 -3276.638908
63 -11442.252775 -3588.678055
64 -11851.214370 -3873.422341
65 -5185.020482 -6791.440085
66 -12039.169436 -3351.894736
67 -10905.090077 -5084.025664
68 -8455.313656 -5337.878867
69 -18258.659646 16055.044056
70 -10552.730636 -7324.284006
71 -11647.119457 -3568.751228
72 -11709.223199 -9407.434184
73 -12009.237646 -3229.471589
74 -5432.002042 -6044.418075
75 -12314.611945 -2964.342615
76 -11254.619207 -5105.050048
77 1649.122849 -12032.994254
78 -11263.062953 -3668.073165
79 -6050.768612 -7717.167291
80 -12477.159990 -2670.197206
81 -10352.501097 -3966.850150
82 -406.756975 -1061.664368
83 -8333.780004 -5402.721269
84 -8735.745400 -8979.090990
85 -9746.039924 -5012.347681
86 -12032.607388 -3216.304250
87 -9542.789821 -3338.282674
88 -12903.837672 -12182.581712
89 -11716.834104 -3462.994489
90 -8419.555492 -5388.387318
91 -11586.421588 -3174.951385
92 -15362.467163 -1813.775424
93 -261.698028 -1191.186268
94 -4649.300251 -3028.027947
95 -12350.912459 -4434.914976
96 -12087.622794 -2450.898847
97 -12024.075454 -3282.835473
98 -11634.011584 -5255.719404
99 -6285.661962 -6327.356315
100 -9156.437243 -4296.069899
101 -11693.879130 -3562.421381
102 -11458.822932 -9619.789317
103 -11904.681598 -3227.121567
104 -11266.484904 -3676.065010
105 -8901.690038 -8788.034628
106 -4494.901593 -3021.901481
107 -9274.860965 -8601.997723
108 -11485.262941 -3594.929038
109 -8857.861050 -3456.177917
110 -9600.230369 -4261.238298
111 -0.768506 -1221.386092
112 -8458.935119 -5181.741613
113 -11858.902028 -3390.203502
114 -7482.079169 -4774.498537
115 -10798.841442 -3855.830970
116 -12304.864121 -12335.318875
117 -11318.226436 -6136.510207
118 -12099.820669 -3087.360534
119 -4533.949957 -3116.424015
120 -10321.634556 -4060.005582
121 -5836.226146 -5861.804937
122 -5612.643641 -6022.681173
123 -9257.986127 -8606.763685
124 -8516.962186 -5372.714746
125 -12486.807569 -10968.437845
126 -11584.287792 -3598.896965
127 -5623.178262 -9018.441409
128 -13435.261287 -3711.320929
129 -10544.043523 -3738.807033
130 -12219.638063 -3073.211564
131 -13589.195840 -13238.856701
132 -8983.417283 -8728.258077
133 -11830.385722 -3097.498007
134 -12094.832883 -10899.935516
135 -11480.285707 -3949.131582
136 -9013.626442 -8197.094295
137 -12396.096835 -11013.961491
138 -20.356058 -1279.132621
139 -5644.609084 -9324.255993
DEMAND_SECTION
1 0
2 2
3 39
4 26
5 31
6 37
7 41
8 60
9 18
10 82
11 56
12 91
13 31
14 67
15 15
16 9
17 26
18 10
19 74
20 46
21 55
22 1
23 85
24 91
25 89
26 9
27 9
28 15
29 43
30 18
31 60
32 24
33 23
34 22
35 8
36 79
37 14
38 44
39 48
40 44
41 16
42 31
43 73
44 41
45 39
46 32
47 40
48 31
49 40
50 38
51 15
52 14
53 81
54 96
55 25
56 15
57 9
58 46
59 12
60 43
61 24
62 26
63 29
64 46
65 45
66 32
67 96
68 46
69 2
70 56
71 16
72 99
73 28
74 4
75 12
76 77
77 25
78 43
79 10
80 2
81 33
82 70
83 24
84 47
85 64
86 6
87 86
88 65
89 34
90 26
91 32
92 2
93 96
94 71
95 36
96 44
97 34
98 84
99 22
100 87
101 21
102 73
103 13
104 26
105 2
106 95
107 42
108 40
109 76
110 93
111 59
112 3
113 7
114 90
115 17
116 65
117 71
118 37
119 56
120 36
121 14
122 17
123 10
124 49
125 51
126 13
127 26
128 11
129 26
130 46
131 70
132 21
133 26
134 75
135 30
136 47
137 87
138 91
139 3
DEPOT_SECTION
1
-1
EOF
