NAME : mamut-caen-n192-k64-poi
COMMENT : Mamut2026 shortest metric; city caen; No of trucks: 64 (lower bound, fleet not fixed); 3-decimal seconds/meters; ENU ref in mamut-caen-n192-k64-poi.vrp.json
TYPE : CVRP
DIMENSION : 193
EDGE_WEIGHT_TYPE : EXPLICIT
EDGE_WEIGHT_FORMAT : FULL_MATRIX
CAPACITY : 3
EDGE_WEIGHT_SECTION
0.000 6308.961 1354.920 427.478 544.074 726.519 4837.444 2187.225 3784.395 1382.219 3010.547 6419.300 1800.313 1902.348 5931.774 4121.862 4675.701 894.981 6538.304 1092.708 3885.457 3328.242 3315.954 6507.198 416.801 3773.993 578.600 1318.690 814.503 311.877 221.056 3421.364 1695.963 2453.030 282.950 3601.249 1282.599 3347.090 3675.525 917.912 2581.953 6386.810 7121.455 6023.006 4168.802 4517.064 8247.653 1693.822 3393.591 960.236 1103.759 1393.109 663.898 2969.209 624.644 176.592 2158.528 7673.097 891.814 963.499 539.187 3768.125 6448.709 490.887 1304.502 3646.115 556.524 214.494 9051.424 8178.800 516.363 639.241 2964.716 1084.375 6269.634 4522.016 4348.315 655.544 347.999 4050.496 2746.125 213.365 607.696 874.296 1484.487 2964.010 6394.570 748.217 3558.008 2160.251 7849.071 1029.077 322.325 593.292 6929.674 597.111 2959.464 674.712 144.644 4490.087 8086.124 6275.224 332.105 3327.912 3214.116 1284.311 4376.688 2832.205 701.107 3324.669 1443.178 886.723 769.947 6771.597 2058.282 8970.440 1033.289 7841.808 821.009 5329.275 1520.764 3855.933 6256.331 2279.883 1848.201 2184.460 335.327 848.420 3448.248 806.027 264.773 1080.609 1730.356 485.228 9954.407 7439.092 879.788 7748.987 2556.612 854.746 807.011 3240.582 168.395 76.601 1666.918 3501.186 5528.068 8847.001 8541.245 7766.680 6679.266 4386.985 797.114 844.505 3865.092 659.954 6617.289 428.831 2914.357 1635.777 5020.768 1215.138 7354.357 3640.140 912.856 2121.149 5959.599 3643.681 6154.102 602.954 1403.819 1239.424 331.884 6462.785 451.702 1264.303 902.684 74.552 2324.718 997.410 6693.732 8154.188 3759.405 4263.199 315.959 4693.791 795.246 340.860 6764.136 5886.972 1144.878 8062.052 684.452
6076.914 0.000 5246.355 5626.901 6342.849 6608.360 7862.023 5109.627 9701.142 7034.103 8515.328 12071.185 7328.718 7554.232 6253.042 5949.877 9410.253 6776.822 12190.188 6269.822 9390.238 5716.543 9210.862 12159.082 5816.783 7782.746 6460.442 5716.027 6696.345 6193.719 6297.970 9140.863 4360.892 6731.361 6164.792 7257.188 6306.906 7003.029 9592.271 6106.371 8233.837 12038.695 10075.029 10757.559 3226.362 5045.622 10214.194 7345.706 9288.498 6842.078 5467.596 5790.446 6545.740 6214.486 5702.367 6253.506 6946.023 13177.878 5738.327 5810.011 6421.029 5570.098 5711.676 6372.729 5701.840 7085.021 5568.989 6109.401 14332.065 14044.917 6049.117 6521.083 4772.704 5234.092 11729.659 7607.446 4312.130 6537.385 5989.532 8785.029 4420.388 6290.280 6489.538 6648.099 4999.305 4336.085 5882.202 5589.597 9209.892 7866.305 13353.852 6206.191 5956.798 6475.134 3100.484 5686.752 8464.245 6556.553 6221.558 7472.984 13590.904 11927.108 6227.012 5878.508 6167.690 6936.196 4265.921 8484.089 5891.042 9219.576 4822.742 5451.092 5959.882 12423.482 7136.483 14027.351 5522.662 13346.589 5929.206 10834.055 4900.328 7177.302 6527.716 3868.122 7500.086 7836.344 6217.169 6730.262 9100.133 5531.787 5841.302 5724.217 4487.626 6380.135 15849.314 4287.340 5240.038 13253.768 4812.573 6044.680 6688.852 4942.140 6245.309 6153.515 7242.572 7177.798 8083.486 10813.542 14193.129 9733.221 6225.023 9891.766 6149.732 6726.347 7218.915 5997.873 6295.983 5961.586 3898.774 5150.595 9771.460 6867.022 10307.931 3195.447 5759.368 3960.512 11464.380 7299.621 5816.680 6484.796 4653.035 6891.308 5973.417 12114.669 5651.125 5083.574 5435.131 6002.362 7895.432 6144.906 12345.616 13658.968 9330.499 10158.107 5790.116 7681.197 6690.153 6222.702 960.940 8442.391 7221.792 3815.202 6566.294
1353.392 5503.667 0.000 954.413 1147.193 1547.825 3717.949 1067.731 4802.427 1838.447 3319.672 6875.529 2133.062 2358.576 6241.844 3002.367 5875.891 1716.287 6994.532 1074.165 4194.581 2208.748 4280.320 6963.426 1114.614 4974.184 1399.907 520.371 1635.810 1263.177 1421.246 3945.207 890.670 3653.220 1234.250 4801.440 1111.250 4547.280 4693.557 910.715 3038.181 6843.038 8231.733 7223.197 3363.509 4198.615 7128.159 2150.050 4113.316 1781.543 522.853 594.790 1485.205 1849.715 1029.879 1376.782 3358.719 7982.222 542.671 614.355 1328.326 2648.630 6130.260 1267.491 506.183 4846.306 896.502 1178.859 10069.456 9196.832 1186.672 1460.548 1845.222 561.757 7287.666 5722.207 3228.820 1476.850 1287.363 5250.686 1629.301 1413.556 1429.003 1452.442 364.992 2024.308 6141.233 605.103 4014.236 2670.648 8158.196 1010.535 1094.353 1414.599 6124.381 756.210 3268.588 1496.018 1344.835 3370.593 8395.248 6731.452 1296.470 2208.418 4216.066 1740.539 3257.194 3288.433 960.500 4044.394 686.999 466.598 1029.340 7227.825 3258.472 9988.472 850.174 8150.932 733.549 5638.399 764.584 5056.124 6566.402 1474.590 2304.430 2640.688 1286.627 1669.727 3904.476 547.293 1168.814 1062.393 934.143 1449.593 10780.619 6319.598 567.551 8058.112 1437.118 1114.138 1628.317 2121.088 1368.586 1276.791 2046.916 4701.377 4408.573 7727.507 8997.473 6647.186 6643.607 4696.110 1487.909 1665.812 5065.282 1336.050 6714.567 1099.140 2109.064 516.282 4610.469 1671.366 8464.636 2834.846 563.712 1315.856 6268.723 4843.872 5034.608 1345.981 598.526 1695.652 1271.248 6919.013 978.637 702.507 450.637 1300.193 3392.236 949.249 7149.960 8463.312 4723.770 5227.565 1117.628 3574.297 1759.611 1292.160 5958.843 4767.478 2345.068 6942.558 1505.759
450.013 5881.483 927.442 0.000 808.503 990.948 4409.966 1759.747 4115.557 1646.648 3186.283 6683.729 1976.048 2166.777 6133.930 3694.384 5125.714 1159.410 6802.733 873.532 4061.192 2900.764 3593.449 6771.627 189.883 4224.006 843.029 891.212 1078.932 576.306 671.069 3698.858 1268.486 2903.043 547.379 4051.263 965.547 3797.103 4006.686 596.115 2846.382 6651.239 7473.652 6473.019 3741.324 4358.588 7820.175 1958.251 3671.085 1224.665 676.281 965.631 928.327 2541.732 471.900 626.605 2608.541 7848.833 464.337 536.021 803.616 3340.647 6290.233 755.316 877.025 4096.128 129.046 491.989 9382.585 8509.962 425.846 903.670 2537.238 656.897 6600.796 4972.029 3920.837 919.973 362.631 4500.509 2318.647 663.379 872.125 1138.725 1057.009 2536.533 6301.206 320.740 3822.437 2437.745 8024.807 809.901 333.526 857.721 6502.196 169.633 3135.200 939.141 594.657 4062.609 8261.859 6539.653 609.600 2900.435 3457.985 1548.740 3949.210 3096.634 273.629 3602.163 1015.700 459.245 342.469 7036.026 2508.295 9301.601 719.282 8017.543 393.531 5505.010 1093.286 4305.946 6458.487 1852.405 2112.630 2448.889 599.756 1112.849 3712.677 378.550 214.401 954.479 1302.878 762.722 10231.902 7011.614 452.310 7924.723 2129.135 427.268 1071.439 2813.104 618.408 526.614 1889.903 3951.200 5100.590 8419.523 8805.674 7339.202 6803.580 4562.721 811.745 1108.934 4315.105 674.586 6819.445 338.314 2486.879 1208.299 4801.765 1479.567 7706.555 3212.662 485.378 1693.671 6135.334 4093.695 5726.625 867.383 976.342 1503.853 346.516 6727.214 24.224 969.231 475.206 375.462 2705.366 627.469 6958.161 8329.923 4036.899 4540.694 163.215 4266.313 1072.740 605.289 6336.658 5459.495 1594.891 7634.574 948.881
529.748 6506.929 1265.614 625.446 0.000 400.633 4796.643 2146.424 3774.717 1056.332 2684.661 6093.414 1474.426 1576.461 6308.321 4081.061 4864.436 569.094 6212.418 756.846 3559.570 3287.441 3252.609 6181.312 614.770 4150.540 252.714 1109.613 488.617 232.197 597.602 3163.092 1893.932 2829.576 254.288 3977.796 946.737 3723.636 3665.847 582.050 2256.067 6060.924 7498.001 6211.742 4366.771 4955.907 8206.852 1367.935 3330.246 634.350 1111.096 1184.032 338.012 2928.409 1064.163 553.138 2535.075 7347.211 851.014 922.698 211.366 3727.324 6887.552 120.298 1095.426 4022.662 754.492 355.215 9041.746 8169.122 686.827 313.355 2923.915 1282.344 6259.956 4898.563 4307.514 329.657 787.518 4427.042 2707.994 589.912 281.810 548.410 1443.686 3103.001 6771.117 707.417 3232.122 1888.534 7523.185 693.215 594.508 267.406 7127.643 556.310 2633.578 348.825 521.191 4449.286 7760.237 5949.338 472.826 3287.112 3590.662 958.425 4335.887 2506.318 660.306 3261.324 1641.147 845.922 729.147 6445.711 2434.828 8960.762 1316.601 7515.921 780.209 5003.388 1718.732 4232.480 6632.878 2477.852 1522.315 1858.573 201.911 522.534 3122.362 765.227 704.293 1520.128 1928.325 421.883 9891.062 7398.291 1077.756 7423.101 2515.812 813.945 481.124 3199.781 544.942 453.147 1341.032 3877.733 5487.267 8806.200 8215.358 7725.879 7055.812 4061.099 1236.633 518.619 4241.638 1099.473 6993.836 599.296 3112.326 1594.976 4694.882 889.251 7730.904 3838.108 872.055 2319.117 5633.712 4020.228 6113.302 198.788 1601.788 913.537 771.404 6136.899 649.671 1594.678 861.883 604.300 2364.526 661.548 6367.845 7828.301 3696.060 4199.855 755.479 4652.990 731.901 295.655 6962.105 5846.172 1521.424 8021.251 358.566
975.479 7128.678 1747.984 1247.195 785.003 0.000 4980.795 2765.016 3524.795 875.870 2504.199 5909.062 1293.964 1314.740 6617.537 4699.652 4614.514 479.943 6028.066 1065.307 3379.108 3906.033 3002.687 5996.959 1236.518 4280.807 629.831 1591.983 655.557 741.639 1043.333 2978.740 2515.681 2959.843 757.797 4108.063 1195.071 3853.903 3415.925 1064.419 2071.714 5876.572 7807.218 5961.820 4988.520 5492.544 8504.180 1106.214 3080.324 559.096 1732.845 1666.402 593.846 3225.736 1600.123 998.869 2665.342 7166.749 1472.762 1544.447 984.694 4345.916 7424.188 905.302 1577.795 4152.929 1376.241 775.377 8791.824 7919.200 1308.576 569.190 3542.507 1904.092 6010.034 5028.830 4926.106 585.492 1317.773 4557.310 3326.586 1035.643 710.502 699.179 2062.277 3721.593 7080.333 1329.165 3047.769 1626.813 7342.722 1175.585 1216.257 739.799 7749.392 1178.059 2453.115 643.486 966.922 4746.614 7579.775 5764.985 657.765 3883.042 3899.879 668.130 4954.479 2321.966 1282.055 3011.402 2262.895 1467.671 1350.895 6261.359 2565.096 8710.840 1938.350 7335.459 1401.957 4822.926 2340.481 4362.747 6942.094 3099.600 1260.594 1674.221 810.174 469.778 2938.010 1386.975 1240.253 2050.383 2550.073 518.685 9641.140 8016.883 1699.505 7242.639 3134.403 1435.694 511.188 3818.373 990.673 898.878 1160.570 4008.000 5784.594 9103.527 8031.006 8023.207 7365.028 3880.637 1766.887 473.693 4371.906 1629.728 7303.052 1221.044 3734.074 2213.568 4514.419 735.570 8040.120 4459.857 1493.804 2940.866 5453.250 4150.495 6731.893 843.884 2223.537 733.075 1223.617 5952.546 1271.419 2216.426 1483.632 1050.031 2114.604 1143.918 6183.493 7647.839 3446.138 3949.933 1291.438 4837.142 481.979 770.623 7583.853 6143.499 1651.692 8639.843 614.401
4964.842 8052.278 3873.311 4565.863 4810.861 5016.229 0.000 3152.818 8288.305 4607.878 4774.853 9415.576 4388.290 5373.922 9567.064 2899.229 9260.729 4750.228 9369.276 4545.662 5649.762 2198.387 7392.086 9338.169 4726.064 8585.633 4961.146 4342.983 4825.193 4874.627 5032.696 6485.255 4085.723 7264.670 4845.699 8412.890 4161.872 8158.730 8179.434 4574.383 5578.229 9383.086 11843.183 10663.769 4905.537 7253.606 3910.638 5165.396 6653.364 4815.484 4134.303 4417.402 5046.444 1882.531 4641.329 4988.232 6970.168 9437.403 4365.283 4436.967 4991.994 3615.048 9185.251 4931.159 4328.795 8457.755 4507.952 4790.309 13555.333 12682.710 4798.122 5021.787 3200.798 4173.207 10773.544 9333.657 4509.269 5038.090 4898.812 8862.136 3889.666 5025.006 4726.261 4470.552 3625.057 4284.673 9196.224 4216.553 5912.029 5685.994 9613.377 4674.203 4705.802 4797.739 8735.323 4367.660 4723.770 4659.246 4956.285 744.088 9850.429 9106.195 4907.920 2028.419 7827.516 4758.649 4475.304 5221.493 4571.950 6584.442 3882.052 4078.048 4640.790 9602.569 6869.922 13474.349 4461.624 9606.113 4556.161 7093.580 3959.638 8667.573 9854.721 4283.019 5319.775 5180.736 4898.077 4703.668 6444.524 4158.743 4780.264 4673.843 4129.197 5061.043 13320.667 7399.015 4179.001 9513.293 3427.518 4725.588 4662.258 3476.664 4980.036 4888.241 4518.725 8312.827 1191.053 4509.986 11372.216 3429.665 9698.598 6151.291 5099.359 4699.753 8676.732 4947.500 9769.559 4710.590 4917.494 3346.146 6163.500 4686.712 12076.086 5578.871 4386.324 4378.792 7723.904 8455.322 4603.294 5009.649 3793.579 4710.997 4882.698 9459.061 4590.087 4142.884 4062.087 4911.643 6878.114 4612.917 8846.794 9918.493 7933.861 7976.934 4729.078 498.059 5245.488 4903.610 8507.453 1501.154 5956.518 8021.975 5066.998
2189.485 5350.309 1097.954 1790.507 2194.448 2513.912 3126.319 0.000 5638.521 2885.702 3873.537 7922.784 3180.318 3405.831 6734.103 1934.637 6711.985 2682.374 8041.788 2121.421 4748.447 1222.789 5116.413 8010.682 1950.708 5810.277 2365.993 1567.626 2601.896 2099.270 2257.340 4992.462 1258.526 4489.314 2070.343 5637.533 2158.505 5383.374 5529.650 1957.971 4085.437 7890.294 9067.826 8059.290 2482.231 4420.645 6494.846 3197.305 5160.571 2747.629 1358.946 1642.045 2451.291 1218.805 1865.973 2212.876 4194.812 8536.087 1589.926 1661.611 2326.580 1580.900 6352.290 2278.280 1553.439 5682.399 1732.595 2014.953 10905.549 10032.926 2022.765 2426.634 777.491 1397.850 8123.760 6558.300 2161.090 2442.937 2123.456 6086.780 759.203 2249.650 2395.089 2499.698 849.701 1154.209 6363.263 1441.197 5010.713 3717.904 8712.061 2057.791 1930.446 2380.685 6033.354 1592.303 3822.454 2462.105 2180.928 2737.280 8949.114 7778.708 2132.564 1222.460 5052.159 2787.795 2189.463 4320.177 1796.593 5091.650 1106.696 1302.691 1865.434 8275.081 4094.566 10824.565 1686.268 8704.798 1780.805 6192.265 1184.281 5892.217 7021.760 1450.059 3351.685 3687.943 2122.720 2635.814 4951.732 1383.387 2004.908 1898.487 1353.840 2285.686 11754.866 5251.867 1403.644 8611.977 369.387 1950.232 2594.404 1053.357 2204.679 2112.885 3094.172 5537.470 3775.261 7094.194 10044.728 6013.873 6865.638 5249.975 2324.003 2631.898 5901.376 2172.143 6936.598 1935.234 2084.533 570.789 5262.184 2718.621 9300.729 2810.315 1610.967 1545.831 6822.589 5679.966 3966.877 2390.348 1018.223 2742.907 2107.341 7966.269 1814.731 1367.528 1286.730 2136.287 4228.330 1996.505 7945.479 9017.178 5559.863 6063.658 1953.722 2945.494 2595.704 2128.253 5805.484 4134.166 3181.162 5874.827 2471.846
3743.609 10045.373 4753.573 4163.890 3701.698 3573.162 8081.265 5684.867 0.000 3976.340 5141.053 5117.896 4394.434 3316.707 7716.240 7619.504 2668.265 3580.413 6967.221 4165.777 5428.970 6825.884 1783.045 7175.552 4153.213 4329.890 3546.526 4597.572 3661.146 3658.334 3558.137 3227.653 5432.375 4346.319 3674.492 4979.842 4295.542 4725.682 108.871 4070.008 3955.960 5085.406 8777.050 3992.169 7905.214 8260.673 11604.650 3591.241 3160.714 3659.566 4649.540 4671.991 3510.541 6326.206 4368.253 3602.601 3807.571 9803.602 4389.457 4461.142 3901.389 7265.767 8887.599 3821.996 4583.385 5024.708 4292.936 3692.071 6769.963 5897.340 4225.271 3485.884 6462.359 4820.787 3988.174 5858.067 7845.957 3502.187 4035.539 3254.521 6246.438 3753.409 3759.792 3799.649 4982.129 6641.445 8179.037 4245.860 4865.028 3028.515 9979.576 4181.174 4065.933 3745.388 10666.086 4094.753 5089.969 3743.956 3634.549 7847.084 10216.629 6943.578 3574.460 6825.555 6158.699 3768.600 7874.331 4426.414 4198.749 3091.792 5179.590 4384.365 4267.590 7439.951 3707.325 6688.979 4776.897 9972.313 4318.652 7459.780 5257.176 5234.526 8040.798 6016.295 3498.367 3930.605 3726.869 3570.248 3337.823 4303.670 4008.382 4768.149 5466.768 3435.379 8395.115 10936.735 4616.200 9879.492 6054.255 4352.388 3611.658 6738.225 3613.378 3667.008 4261.040 4456.844 8885.064 12203.998 7763.198 11123.677 8463.732 6517.491 4484.653 3574.163 5243.684 4347.494 8401.755 4137.739 6650.769 5133.419 7614.890 3836.040 9009.953 7376.552 4410.498 5857.561 8090.104 5022.274 9651.745 3760.578 5140.231 3833.545 3941.383 5161.380 4188.114 5007.912 4400.327 3818.160 2865.174 4149.507 7140.596 10284.693 1193.547 2703.908 4059.568 7937.612 3027.309 3687.317 10500.548 9243.969 3418.528 11559.695 3531.095
1385.647 7273.022 1820.053 1657.363 1067.251 1075.409 4630.834 2837.085 4107.194 0.000 1628.329 5266.792 418.094 805.794 7164.220 4771.722 5063.419 809.408 5385.796 895.861 2503.238 3753.785 2823.959 5354.690 1646.687 5006.439 1020.326 1664.052 884.373 1081.260 1453.501 2336.470 2660.024 3685.475 1167.966 4833.695 992.422 4579.536 3998.324 1181.538 1429.444 5234.302 8353.901 6466.460 5132.863 5902.712 8154.219 597.268 2504.579 874.664 1986.294 1738.471 1105.624 2875.775 2010.291 1409.038 3390.974 6290.879 1669.427 1741.112 1278.617 4417.985 7834.357 1187.549 1649.865 4878.561 1786.409 1211.115 9401.985 8529.361 1718.744 1080.967 3614.576 2230.427 6620.195 5754.462 4998.175 1097.270 1727.941 5282.942 3398.655 1445.811 785.441 529.732 2134.347 3793.662 7627.016 1709.181 2405.499 1117.867 6466.852 1292.704 1626.425 856.919 7893.735 1588.227 1577.245 718.426 1377.090 4396.653 6703.905 5122.715 1328.726 3533.081 4446.562 677.476 5026.548 1679.696 1627.065 2435.657 2456.353 1846.519 1506.683 5619.089 3290.728 9321.000 2313.616 6459.589 1557.745 3947.056 2533.938 5088.379 7488.777 3243.944 751.648 1031.951 1220.343 762.848 2295.740 1765.824 1650.421 2460.551 2703.498 1270.946 9171.883 8088.952 2030.992 6366.768 3206.472 1591.481 721.438 3890.442 1400.841 1309.047 284.700 4733.632 5434.633 8753.567 7388.736 7673.246 7911.711 3004.767 2177.056 758.933 5097.538 2039.896 7849.735 1631.213 3878.418 2285.637 3638.549 184.086 8586.803 4604.201 1690.469 3085.210 4577.380 4876.127 6803.962 1126.132 2367.880 142.795 1633.785 5310.276 1681.587 2467.444 1862.480 1460.199 2936.146 1243.915 5541.223 6771.969 3723.193 3771.204 1701.607 4487.181 1304.668 1144.719 7728.197 5793.538 2377.324 8711.912 1126.179
3013.976 8794.689 3341.721 3285.692 2695.580 2703.738 4784.473 3892.982 5256.425 1628.329 0.000 5605.059 1210.234 2015.007 8792.548 5256.021 6212.650 2437.737 4795.290 2455.227 874.910 3907.423 3879.474 4764.184 3275.015 6634.767 2648.655 3185.720 2512.702 2709.589 3081.830 2759.511 4181.692 5313.804 2796.294 6462.024 2488.122 6207.864 5147.554 2764.747 1736.425 5572.568 9982.229 7615.690 6375.212 7485.219 8307.857 1979.586 2927.620 2502.992 3507.962 3260.139 2733.953 3029.414 3638.620 3037.366 5019.302 4662.550 3208.019 3279.704 2906.946 5244.854 9416.864 2815.878 3171.532 6506.889 3414.738 2839.443 10744.612 9527.714 3347.073 2709.296 4670.473 3752.095 7962.822 7382.791 6054.072 2725.598 3356.270 6505.601 4652.184 3074.140 2413.770 2158.061 3656.014 5047.191 9255.345 3312.884 1338.044 2278.606 4838.524 2864.567 3254.754 2485.247 9415.403 3216.555 51.083 2346.754 3005.419 4550.291 5075.576 4532.210 2957.054 3686.720 6074.890 2305.805 6082.445 1209.350 3230.768 2858.698 3978.021 3368.187 3110.386 5028.583 4919.056 10663.628 3835.283 4831.261 3161.448 2318.727 4055.606 6716.708 9117.106 4765.612 1975.224 1399.396 2848.671 2391.177 2718.781 3287.491 3278.749 4088.880 4225.165 2899.275 9510.149 9144.849 3552.660 4738.440 4262.369 3195.184 2349.767 4946.339 3029.170 2937.375 1428.846 6361.961 5588.272 8907.205 6798.231 7826.885 9540.040 1376.438 3805.384 2387.262 6725.866 3668.225 9478.064 3259.541 5400.086 3807.304 2565.452 1812.415 10215.132 6125.868 3229.061 4606.878 2949.052 6504.456 7777.876 2754.460 3889.548 1771.124 3262.114 5648.543 3309.916 3989.111 3384.148 3088.528 4564.475 2803.282 4071.941 5143.640 4778.707 4166.416 3329.935 4640.820 2932.997 2773.047 9249.865 5947.177 4005.652 9767.809 2754.507
6598.676 12512.904 7059.936 6870.392 6307.134 5968.922 9915.383 8076.968 5085.100 5284.549 5538.244 0.000 5702.643 4796.770 11426.851 10011.604 6152.505 5840.330 2461.815 6135.743 5138.848 9038.334 3451.857 2960.655 6859.715 8040.500 6253.028 6903.935 6015.945 6321.143 6662.104 3296.968 7899.907 7382.414 6380.994 8455.305 6265.508 8201.145 4976.229 6421.421 4225.583 32.490 12487.660 6929.853 10372.746 11115.741 12371.853 4980.610 3471.316 5919.483 7226.177 6978.354 6217.043 8160.324 7223.320 6622.066 7147.499 7529.591 6909.310 6980.995 6518.500 9657.867 12598.210 6427.432 6889.747 8500.170 6999.438 6398.573 6287.059 4405.419 6931.773 6192.387 8854.459 7470.310 5991.572 9376.072 10238.057 6208.689 6940.970 6965.132 8638.538 6658.840 6025.324 5769.615 7374.229 9033.545 11889.647 6949.064 4586.885 4938.859 7633.395 6532.587 6839.454 6096.801 13133.618 6801.256 5589.328 5958.308 6590.119 9681.202 7739.719 2805.696 6280.962 8817.630 9250.680 5582.086 10266.431 4911.491 6866.948 3402.394 7696.236 7086.402 6746.565 2974.721 7047.253 6708.582 7553.498 7363.391 6797.627 5680.325 7773.821 8709.989 11751.408 8483.827 4756.987 4809.227 6433.371 5830.165 3228.001 7005.707 6863.450 7673.580 7943.380 6141.882 4387.855 13328.835 7270.875 7605.481 8446.355 6831.364 5871.575 9130.325 6613.870 6522.075 5569.249 8167.455 10719.182 12971.201 3257.791 11890.880 12174.342 6195.743 7390.084 5834.080 8719.147 7252.925 12112.366 6844.241 9118.301 7525.519 7671.997 5423.969 12720.563 9844.083 6930.351 8325.093 6093.119 8497.737 12043.845 6366.014 7607.763 5382.678 6846.814 43.484 6894.616 7707.326 7102.363 6673.228 6567.523 6483.798 4382.974 8010.681 4449.023 2726.953 6914.635 9771.731 5907.944 6384.601 12968.080 11078.087 7014.479 13951.795 6237.598
1803.741 7622.154 2169.185 2075.457 1485.345 1493.503 4384.192 3186.217 4525.288 418.094 1210.234 5128.595 0.000 1223.888 7582.314 4855.740 5481.513 1227.503 5247.599 1244.993 2085.144 3507.143 3242.053 5216.493 2064.781 5424.533 1438.420 2013.184 1302.468 1499.354 1871.596 2198.273 3009.157 4103.570 1586.060 5251.789 1277.887 4997.630 4416.418 1554.513 1291.248 5096.105 8771.995 6884.554 5481.995 6312.684 7907.577 1009.807 2366.382 1292.758 2335.426 2087.603 1523.718 2629.133 2428.385 1827.132 3809.068 5872.784 2035.484 2107.169 1696.711 4767.117 8244.329 1605.644 1998.997 5296.655 2204.503 1629.209 9820.079 8947.455 2136.838 1499.062 3963.708 2579.559 7038.289 6172.556 5347.307 1515.364 2146.035 5701.036 3747.787 1863.906 1203.535 947.826 2483.479 4142.794 8045.111 2102.650 2243.977 1535.961 6048.758 1654.333 2044.519 1275.013 8242.867 2006.321 1159.151 1136.520 1795.184 4150.011 6285.811 4984.519 1746.820 3286.439 4864.656 1095.570 5375.680 1541.499 2020.534 2297.461 2805.485 2195.651 1900.151 5480.892 3708.822 9739.095 2662.748 6041.495 1951.213 3528.962 2883.071 5506.473 7906.871 3593.076 1165.247 893.754 1638.437 1180.942 2157.543 2114.956 2068.515 2878.645 3052.630 1689.040 9033.686 8438.085 2380.124 5948.674 3555.605 1984.950 1139.533 4239.575 1818.935 1727.141 218.612 5151.726 5187.991 8506.924 7250.539 7426.604 8329.806 2586.673 2595.150 1177.027 5515.632 2457.990 8267.829 2049.307 4227.550 2634.769 3220.455 602.180 9004.898 4953.333 2056.525 3434.342 4159.286 5294.222 7153.095 1544.226 2717.013 560.889 2051.879 5172.080 2099.682 2816.576 2211.613 1878.293 3354.240 1593.047 5282.176 6353.875 4141.287 3689.953 2119.701 4240.539 1722.763 1562.813 8077.329 5546.896 2795.418 9061.044 1544.273
1963.081 7915.598 2462.629 2234.797 1664.777 1323.180 5448.451 3479.661 3395.116 930.102 2091.651 4892.648 1348.196 0.000 7605.139 5414.297 4351.341 1194.588 5083.112 1540.372 2660.521 4571.402 2018.165 5052.006 2224.120 5268.409 1617.433 2306.628 1370.202 1678.786 2030.935 1962.326 3302.600 3947.445 1745.399 5095.665 1670.136 4841.505 3286.245 1779.064 1126.761 4860.158 8794.820 5754.381 5775.439 6480.145 8971.836 334.868 2086.358 1273.741 2628.870 2381.047 1581.448 3693.393 2587.725 1986.471 3652.944 6754.201 2266.953 2338.638 1876.143 5060.561 8411.790 1785.075 2292.440 5140.531 2363.843 1762.978 8883.303 8010.679 2296.178 1556.791 4257.152 2873.003 6101.514 6016.432 5640.751 1573.094 2305.375 4644.292 4041.231 2023.245 1425.147 1174.244 2776.922 4436.238 8067.935 2306.707 2102.816 312.073 6930.174 1890.230 2203.859 1454.444 8536.311 2165.660 2040.567 1358.131 1954.524 5214.270 7167.227 4820.032 1645.367 4350.699 4887.480 936.344 5669.124 1377.013 2224.591 2017.436 3098.929 2445.212 2104.208 5316.405 3552.697 8802.319 2925.952 6922.911 2155.270 4410.378 3176.514 5350.349 7929.696 3886.520 181.660 800.013 1797.776 1184.423 1921.596 2364.517 2227.854 3037.985 3346.073 1506.286 8656.618 8731.528 2673.568 6830.091 3849.048 2189.007 1225.832 4533.018 1978.275 1886.480 1214.801 4995.602 6252.251 9571.184 7086.053 8490.863 8352.630 3468.089 2754.489 1188.338 5359.507 2617.330 8290.654 2208.646 4520.994 2928.213 4568.651 828.598 9027.722 5246.776 2287.994 3727.786 5040.702 5138.097 7446.538 1723.657 3010.456 787.307 2211.219 4936.133 2259.021 3110.019 2461.173 2037.633 2787.212 1858.563 5238.540 7235.291 2917.399 2965.410 2279.040 5304.799 1469.581 1742.244 8370.773 6611.156 2639.293 9354.488 1602.003
6104.636 6972.750 6285.327 6231.745 6648.709 6831.154 9476.823 6653.594 7610.351 7486.854 9115.183 11309.554 7904.948 8006.983 0.000 8238.877 6323.888 6999.616 12642.940 7105.277 9990.092 7698.096 8293.963 12611.834 6416.553 4412.843 6683.236 6657.451 6919.139 6416.513 6269.406 9054.390 5754.994 4774.224 6387.586 3501.516 7197.292 3740.974 7501.481 6827.860 8686.589 11277.064 4321.153 7026.721 6005.853 2344.810 12887.033 7798.457 8987.451 7064.872 6211.406 6731.870 6768.534 7608.589 5785.632 6281.227 4988.886 13777.733 6532.499 6604.184 6643.823 7885.140 1256.790 6595.523 6643.263 3419.664 6223.288 6319.130 10601.227 10314.079 6516.115 6743.877 6754.257 5987.658 7998.821 3081.303 7437.071 6760.179 5949.140 4681.420 6086.382 6318.001 6712.332 6978.932 6393.408 6002.080 548.228 6312.130 9662.643 7875.569 13953.707 7041.646 6322.076 6697.928 4699.268 6341.051 9064.100 6779.347 6249.280 9129.467 14190.759 12379.860 6436.741 7851.886 2805.379 7388.947 7390.861 8936.840 6505.374 8918.530 6216.845 6206.094 6574.214 12876.233 5179.346 10296.513 5802.045 13946.443 6625.276 11433.910 6294.431 3130.974 426.054 5262.225 7952.837 8289.095 6439.963 6953.056 9164.560 6254.320 6119.715 5507.010 5881.729 6589.863 14586.773 9459.396 5940.451 13853.623 6478.567 6659.012 6911.646 7030.124 6273.031 6181.236 7771.554 4337.497 10167.447 13486.380 13619.497 12406.060 848.988 10491.621 5623.689 6949.141 3479.540 5637.185 787.012 6428.583 4904.225 6544.698 10845.399 7319.773 4554.055 4432.311 6553.541 5354.615 12064.234 4059.679 9661.054 6707.590 6047.138 7344.059 6018.267 11353.038 6255.969 5919.747 6190.133 6148.458 5938.295 6859.214 12798.367 14258.823 7465.690 8895.566 6068.530 9333.171 6481.962 6445.496 7427.925 10526.352 6242.593 8987.258 6789.088
4174.507 6188.464 3082.976 3775.529 4179.470 4498.934 2897.016 1985.022 7623.543 4870.724 5257.368 9898.091 4870.805 5390.853 8360.321 0.000 8697.007 4667.395 9851.790 4106.443 6132.277 1699.309 7101.435 9820.684 3935.729 7795.299 4351.015 3552.648 4586.918 4084.292 4242.361 6967.769 3176.977 6474.335 4055.365 7622.555 4143.527 7368.395 7514.672 3942.992 6060.744 9865.601 11052.848 10044.312 2833.948 6046.863 5068.273 5182.327 7135.878 4732.651 3343.968 3627.067 4436.313 2251.624 3850.995 4197.898 6179.834 9919.918 3574.948 3646.633 4311.602 838.902 7978.508 4263.302 3538.461 7667.421 3717.617 3999.975 12890.571 12017.948 4007.787 4411.656 1580.757 3382.872 10108.782 8543.322 1823.575 4427.959 4108.478 8071.802 2393.493 4234.671 4380.111 4484.720 2834.723 2788.500 7989.481 3426.219 6394.544 5702.926 10095.891 4042.812 3915.468 4365.707 7111.813 3577.325 5206.284 4447.127 4165.950 2152.928 10332.944 9588.710 4117.586 1704.324 7037.181 4772.817 1789.610 5704.008 3781.615 7066.957 3091.717 3287.713 3850.455 10085.083 6079.588 12809.587 3671.290 10088.628 3765.827 7576.095 3169.303 7877.239 8647.979 3368.510 5336.707 5663.250 4107.742 4620.835 6927.039 3368.409 3989.930 3883.509 3303.712 4270.708 13739.887 4713.322 3388.666 9995.807 1931.345 3935.254 4579.425 1383.323 4189.701 4097.907 5001.240 7522.492 2937.565 5667.621 11854.731 4587.300 8491.856 6633.806 4309.024 4616.920 7886.398 4157.165 8562.816 3920.255 3710.751 2555.811 6646.015 4703.643 11285.751 4082.699 3595.989 3464.282 8206.419 7664.987 2818.463 4375.369 3003.245 4727.929 4092.363 9941.576 3799.753 3352.549 3271.752 4121.308 6213.352 3981.527 9329.309 10401.008 7544.885 8048.680 3938.744 2464.839 4580.726 4113.275 6643.640 3296.470 5166.184 5336.281 4456.867
4118.833 10334.287 5328.112 4546.311 4509.705 4600.752 8810.636 6160.417 2606.148 5098.674 6216.071 6035.022 5516.768 4391.726 6277.352 8095.054 0.000 4702.746 7884.348 5058.339 6551.583 7301.434 3120.994 8092.679 4535.634 3362.699 4544.231 5291.882 4688.736 4277.508 3933.361 4144.779 5814.796 3535.231 4248.581 3964.725 5248.230 3758.491 2497.278 4883.543 5160.619 6002.532 7338.162 1594.625 8287.635 8269.647 12220.846 4666.259 4077.841 4781.899 5125.090 5366.301 4538.131 6942.402 4743.477 3977.825 3294.115 10878.621 4865.007 4936.692 4504.819 7741.317 7448.711 4456.519 5277.695 4057.516 4675.356 4180.125 5169.132 4881.984 4635.196 4513.474 6937.909 5203.208 2566.725 4420.512 8321.507 4529.777 4410.763 2107.392 6721.988 4128.633 4573.327 4839.928 5457.679 7082.843 6740.149 4721.410 5974.161 4103.534 11054.595 4994.709 4441.157 4558.923 10461.314 4570.303 6164.988 4640.343 4009.773 8463.280 11291.648 7860.705 4297.736 7301.105 5259.926 4890.933 8349.880 5501.433 4674.299 4008.919 5562.011 4859.915 4743.140 8357.078 3193.869 4864.417 5152.121 11038.140 4794.202 8534.799 5639.596 4267.335 6601.910 6398.716 4573.386 5005.623 4300.958 4692.581 4254.949 4779.220 4383.606 5143.373 5849.189 4450.859 9005.465 11412.285 4998.621 10954.511 6529.805 4827.938 4733.991 7213.775 3988.602 4042.232 5383.373 3489.653 9501.260 12820.193 8680.324 11739.873 7024.844 7592.510 4822.539 4696.496 4276.493 4696.638 6962.868 4547.664 7033.190 5608.969 8737.223 4958.373 7483.954 7758.972 4886.048 6239.982 9165.123 4055.083 10127.295 4568.586 5522.652 4955.879 4316.607 6078.507 4570.535 5383.136 4875.877 4193.384 2714.139 4963.042 8057.722 11359.712 2939.393 3621.034 4434.792 8666.984 3956.416 4306.492 10789.462 9860.165 3319.209 12035.245 4558.686
788.585 6721.010 1268.041 1060.301 470.189 571.183 4911.971 2285.073 4026.719 936.511 2564.839 5973.593 1354.605 1456.640 6567.158 4219.710 5116.438 0.000 6092.596 759.272 3439.749 3426.090 3474.805 6061.490 1049.625 4409.377 423.264 1112.040 175.614 484.198 856.439 3043.271 2108.012 3088.413 570.904 4236.633 949.163 3982.474 3917.848 584.476 2136.245 5941.102 7756.839 6463.743 4580.851 5305.650 8345.501 1248.114 3211.380 421.903 1434.282 1186.459 508.562 3067.058 1413.229 811.976 2793.912 7227.389 1072.365 1144.050 681.555 3865.973 7237.295 590.487 1097.853 4281.499 1189.347 614.053 9293.747 8421.124 1121.682 483.905 3062.564 1678.415 6511.958 5157.400 4446.163 500.208 1130.879 4685.880 2846.643 848.749 274.260 441.109 1582.335 3241.650 7029.954 1112.119 3112.300 1768.713 7403.363 695.642 1029.363 259.857 7341.723 991.165 2513.756 305.027 780.028 4587.935 7640.416 5829.516 731.664 3425.760 3849.500 838.604 4474.536 2386.497 1030.003 3142.458 1904.341 1250.624 909.621 6325.889 2693.666 9212.763 1751.456 7396.100 960.683 4883.567 1981.927 4491.317 6891.715 2691.932 1402.494 1738.752 623.281 310.088 3002.540 1169.929 1053.359 1863.489 2151.486 673.884 9878.683 7536.940 1478.980 7303.279 2654.460 994.419 268.678 3338.430 803.779 711.985 1221.210 4136.570 5625.916 8944.849 8095.537 7864.528 7314.649 3941.278 1579.994 306.173 4500.476 1442.834 7252.673 1034.151 3326.406 1733.625 4575.060 769.430 7989.741 4052.189 1093.407 2533.198 5513.891 4279.065 6251.950 529.070 1815.868 793.716 1036.723 6017.077 1084.525 1915.432 1266.586 863.137 2616.528 663.975 6248.024 7708.480 3948.061 4422.050 1104.545 4768.318 983.902 547.656 7176.185 5984.821 1780.262 8159.900 529.116
6565.712 12453.086 7000.118 6837.428 6247.316 6195.809 9377.261 8017.150 6946.859 5224.731 4680.988 2452.260 5627.418 5067.943 12344.285 9848.810 8014.264 5989.473 0.000 6075.925 4226.966 8500.212 5313.616 498.840 6826.751 9551.723 6200.391 6844.117 6064.438 6261.325 6633.566 4021.112 7840.089 8283.273 6348.030 9356.164 6205.690 9102.004 6837.988 6361.603 3979.788 2484.750 13533.966 9338.167 10312.928 11082.777 10166.876 5147.918 4262.994 6054.729 7166.359 6918.536 6285.689 7622.203 7190.356 6589.102 8048.358 5324.615 6849.492 6921.177 6458.682 9598.049 13014.421 6367.614 6829.929 9401.029 6966.474 6391.179 8739.318 6857.679 6898.809 6261.032 8794.641 7410.492 8443.832 10276.931 10178.239 6277.334 6908.006 8826.890 8578.720 6625.876 5965.506 5709.797 7314.411 8973.727 12807.081 6889.246 3730.597 5331.543 5428.418 6472.769 6806.490 6036.983 13073.800 6768.292 4732.071 5898.490 6557.155 9143.080 5534.742 600.720 6508.791 8279.509 9626.626 5693.368 10206.613 4665.696 6807.130 4194.072 7636.418 7026.584 6686.747 512.906 7948.112 9160.842 7493.680 5158.414 6737.809 3475.349 7714.003 9610.848 12668.842 8424.009 5028.160 4566.395 6400.407 5942.913 3935.499 6945.889 6830.486 7640.616 7883.562 6378.916 6840.114 13269.017 7211.057 5400.504 8386.537 6771.546 5901.503 9070.507 6580.906 6489.111 5509.431 9276.774 9188.522 10766.224 2848.014 9685.904 13091.776 3990.767 7357.120 5938.998 9620.006 7219.961 13029.800 6811.277 9058.483 7465.701 5467.020 5364.151 13766.868 9784.265 6870.533 8265.275 3888.142 9398.596 11984.027 6306.196 7547.945 5322.860 6813.850 2485.378 6861.652 7647.508 7042.545 6640.264 7468.382 6423.980 2177.997 5805.705 6310.782 5179.213 6881.671 9233.609 6342.210 6324.783 12908.262 9110.031 7511.923 13891.977 6306.243
1038.498 6549.978 1097.010 927.482 508.750 909.382 4681.732 2114.042 4283.467 935.789 2551.333 5972.871 1341.098 1455.918 6817.070 4048.678 5339.961 829.461 6091.875 0.000 3426.242 3255.059 3474.083 6060.768 916.806 4659.289 761.464 941.009 904.426 740.947 1106.352 3042.549 1936.981 3338.326 763.038 4486.546 661.219 4232.386 4174.596 413.445 2135.523 5940.381 8006.751 6720.491 4409.820 5240.508 8174.470 1247.392 3210.658 894.716 1263.251 1015.428 846.762 2896.026 1366.199 1061.888 3043.824 7213.883 901.334 973.019 720.116 3694.941 7172.153 629.048 926.821 4531.411 1056.528 863.965 9550.496 8677.872 988.863 822.105 2891.533 1507.384 6768.706 5407.313 4275.132 838.407 1089.554 4935.792 2675.612 1098.662 790.560 549.785 1411.303 3070.619 7183.127 941.088 3111.578 1767.991 7389.856 524.611 896.544 776.156 7170.692 858.346 2500.249 738.478 1029.941 4416.904 7626.909 5828.794 981.576 3254.729 4099.412 837.882 4303.505 2385.775 858.972 3141.736 1733.310 1079.593 738.589 6325.168 2943.578 9469.512 1590.572 7382.593 789.651 4870.060 1810.895 4741.230 7141.628 2520.901 1401.772 1738.030 710.661 782.901 3001.819 998.898 1006.329 1822.164 1980.454 930.633 9877.961 7365.909 1307.949 7289.773 2483.429 823.388 741.491 3167.399 1053.692 961.897 1220.489 4386.483 5454.884 8773.818 8094.815 7693.497 7564.562 3927.771 1538.669 778.986 4750.388 1401.509 7502.586 901.332 3155.375 1562.593 4485.424 768.708 8239.654 3881.157 922.375 2362.167 5500.384 4528.978 6080.919 707.538 1644.837 792.994 1073.440 6016.355 951.706 1744.400 1095.554 1102.385 2873.276 492.944 6247.302 7694.973 4013.093 4421.328 1057.514 4538.080 1240.651 804.405 7005.154 5813.789 2030.174 7988.869 867.316
3961.630 9742.344 4289.375 4233.346 3643.234 3651.392 5732.127 4840.636 5440.478 2575.983 947.654 5205.662 2157.889 2642.072 9740.203 6203.675 6621.219 3385.391 4200.380 3402.882 0.000 4855.078 3847.135 4169.274 4222.670 7582.422 3596.309 4133.374 3460.356 3657.243 4029.484 2407.693 5129.346 6261.458 3743.949 7409.678 3435.776 7155.518 5331.607 3712.402 1618.072 5173.172 10929.884 7945.123 7322.867 8432.874 9063.392 2722.046 2649.575 3450.647 4455.616 4207.793 3681.607 3977.068 4586.274 3985.021 5966.957 4755.843 4155.674 4227.358 3854.600 6192.508 10364.519 3763.532 4119.187 7454.544 4362.392 3787.098 10721.813 9128.318 4294.727 3656.950 5618.127 4699.749 7940.023 8330.445 7001.726 3673.253 4303.924 7132.666 5599.839 4021.794 3361.424 3105.715 4603.669 5994.846 10202.999 4260.539 938.648 2905.671 4931.817 3812.222 4202.408 3432.901 10363.057 4164.210 998.738 3294.408 3953.073 5497.946 5168.869 3937.300 3904.709 4634.374 7022.545 3253.459 7030.099 1445.781 4178.423 2580.653 4925.675 4315.841 4058.040 4433.673 5866.711 10640.829 4782.938 4924.553 4109.102 2412.020 5003.260 7664.362 10064.760 5713.266 2602.289 2103.608 3796.326 3338.831 2366.962 4235.146 4226.404 5036.534 5172.820 3846.929 9110.753 10092.503 4500.314 4831.733 5210.024 4142.838 3297.421 5893.994 3976.824 3885.030 2376.501 7309.615 6535.926 9662.740 6203.320 8582.419 10487.694 1469.731 4753.039 3334.916 7673.521 4615.879 10425.718 4207.196 6347.740 4754.959 2658.745 2760.069 11162.786 7073.523 4176.715 5554.532 3042.344 7452.110 8725.530 3702.114 4837.202 2718.778 4209.768 5249.147 4257.570 4936.766 4331.802 4036.182 5275.586 3750.936 3656.594 5236.933 4746.369 3767.020 4277.590 5588.474 3880.651 3720.701 10197.519 6894.831 4953.307 10715.463 3702.161
3418.243 5951.661 2326.712 3019.264 3423.206 3742.669 2351.035 1325.212 6867.278 3791.472 3958.446 8599.170 3571.883 4557.515 7755.877 1698.155 7940.742 3911.131 8552.869 3350.178 4833.356 0.000 6345.170 8521.763 3179.465 7039.034 3594.750 2796.384 3830.654 3328.028 3486.097 5668.848 2539.124 5718.071 3299.100 6866.291 3345.465 6612.131 6758.407 3186.728 4761.822 8566.680 10296.584 9288.048 2804.920 5442.419 5719.562 4348.989 5836.957 3976.386 2587.704 2870.803 3680.049 1049.603 3094.730 3441.633 5423.569 8620.996 2818.683 2890.368 3555.338 1589.164 7374.063 3507.038 2782.196 6911.156 2961.352 3243.710 12134.307 11261.683 3251.523 3655.392 1100.181 2626.608 9352.517 7787.058 2483.779 3671.694 3352.213 7315.537 1789.048 3478.407 3623.846 3654.146 2078.458 2184.055 7385.037 2669.954 5095.623 4869.588 8796.970 3286.548 3159.203 3609.442 6634.706 2821.061 3907.363 3690.862 3409.686 1955.457 9034.023 8289.789 3361.321 502.303 6280.917 3942.243 2512.153 4405.087 3025.350 5768.035 2335.453 2531.449 3094.191 8786.162 5323.323 12053.323 2915.025 8789.707 3009.562 6277.174 2413.039 7120.974 8043.534 2736.420 4503.369 4364.329 3351.477 3864.571 5628.118 2612.144 3233.665 3127.244 2582.598 3514.444 12504.261 5574.557 2632.401 8696.886 1326.900 3178.989 3823.161 1376.047 3433.436 3341.642 3702.319 6766.228 2999.976 6318.910 10555.809 5238.589 7887.411 5334.885 3552.760 3860.656 7130.133 3400.901 7958.371 3163.991 3106.306 1799.547 5347.094 3870.305 10529.486 3478.254 2839.725 2832.193 6907.498 6908.723 4122.186 3619.105 2246.980 3894.591 3336.099 8642.654 3043.488 2596.285 2515.487 3365.044 5457.087 3225.262 8030.388 9102.087 6788.621 7160.528 3182.479 2170.209 3824.462 3357.011 6406.836 3358.881 4409.919 6197.517 3700.603
3400.060 9428.712 3975.743 3671.776 3177.891 2836.294 7208.554 4992.775 1803.509 2898.202 3784.473 3476.381 3316.296 2028.435 8344.261 6927.411 3069.916 2707.702 5325.706 3293.066 3859.004 6133.792 0.000 5534.037 3661.099 4957.911 3054.412 3819.742 2883.316 3166.220 3463.488 1586.138 4815.714 4892.800 3182.378 5607.863 3422.830 5353.703 1694.639 3292.178 2385.994 3443.890 9405.071 4393.819 7288.553 7917.124 10731.939 2302.969 1519.199 2786.855 4141.984 3894.161 3018.427 5453.495 4024.704 3423.450 4564.038 8447.023 3780.067 3851.752 3389.257 6573.675 9515.620 3298.189 3805.555 5652.729 3800.822 3199.957 7170.509 5997.191 3733.157 2993.770 5770.266 4328.673 4388.720 6486.088 7153.865 3010.073 3742.353 3882.542 5554.345 3460.224 2938.261 2926.938 4290.036 5949.352 8807.058 3753.746 3295.062 1740.243 8622.997 3403.344 3640.837 2967.558 10049.425 3602.639 3733.390 2871.245 3391.502 6974.373 8855.826 5302.063 3082.346 6110.801 6064.050 2753.057 7182.238 3016.708 3706.635 1450.277 4612.043 3892.251 3617.322 5798.436 4463.792 7089.525 4362.930 8479.498 3668.384 6103.200 4689.628 5862.547 8668.819 5399.634 2210.095 2574.025 3234.755 2697.537 1696.308 3811.556 3664.833 4474.964 4859.187 2943.265 6753.600 10244.642 4124.086 8522.913 5362.162 3702.121 2738.947 6046.132 3415.253 3323.459 3182.902 5084.865 8012.353 11331.286 6121.682 10250.966 9091.753 5160.911 4191.468 2701.452 5871.705 4054.308 9029.776 3645.625 6034.108 4441.327 6324.884 2796.698 9637.974 6759.891 3801.108 5240.900 6733.524 5650.295 8959.652 3236.771 4523.570 2755.407 3648.197 3519.865 3696.000 4623.133 3908.213 3474.611 3621.641 3371.677 5499.081 8928.113 1112.313 1062.392 3716.019 7064.901 2709.327 3195.203 9883.887 8371.258 3815.862 10867.602 3038.981
6525.882 12413.256 6960.287 6797.598 6207.485 6155.979 9337.431 7977.319 7058.603 5184.901 4641.157 2945.857 5587.587 5028.112 12304.454 9808.979 8126.008 5949.643 493.597 6036.095 4187.136 8460.382 5425.361 0.000 6786.921 9768.599 6160.560 6804.286 6024.608 6221.494 6593.736 3981.281 7800.258 8500.149 6308.200 9573.040 6165.859 9318.880 6949.733 6321.773 3939.957 2978.347 13494.135 9449.912 10273.097 11042.946 9790.928 5108.087 4223.164 6014.898 7126.528 6878.705 6245.858 7582.372 7150.525 6549.272 8265.234 4948.666 6809.662 6881.346 6418.851 9558.219 12974.591 6327.784 6790.099 9617.905 6926.644 6351.349 9232.915 7351.276 6858.979 6221.202 8754.810 7370.661 8937.429 10493.807 10138.409 6237.504 6868.175 8938.635 8538.889 6586.046 5925.676 5669.966 7274.581 8933.896 12767.251 6849.415 3690.767 5291.712 5052.470 6432.938 6766.659 5997.153 13033.969 6728.461 4692.240 5858.660 6517.324 9103.250 5158.793 302.615 6468.960 8239.678 9586.796 5653.538 10166.782 4625.865 6767.299 4154.242 7596.587 6986.753 6646.917 264.399 8164.988 9654.439 7453.850 4782.466 6697.979 3099.400 7674.173 9827.723 12629.012 8384.178 4988.330 4526.565 6360.577 5903.083 3895.669 6906.058 6790.655 7600.786 7843.732 6339.085 7333.711 13229.186 7171.226 5024.556 8346.707 6731.715 5861.673 9030.677 6541.075 6449.281 5469.600 9493.650 8812.573 10390.276 3341.611 9309.955 13051.946 3614.818 7317.290 5899.167 9836.882 7180.130 12989.969 6771.447 9018.652 7425.871 5091.072 5324.320 13727.038 9744.435 6830.703 8225.444 3512.193 9615.472 11944.197 6266.366 7508.115 5283.029 6774.019 2978.975 6821.822 7607.678 7002.715 6600.433 7604.397 6384.149 1802.049 5429.756 6422.527 5216.589 6841.841 9193.778 6302.380 6284.953 12868.431 8734.082 7472.092 13852.146 6266.413
284.529 6209.805 1255.764 328.322 828.603 1011.048 4738.288 2088.069 4068.924 1666.748 3295.076 6703.829 2084.842 2186.877 6010.159 4022.706 4960.230 1179.510 6822.833 1201.854 4169.986 3229.086 3600.483 6791.727 0.000 4058.522 863.129 1219.534 1099.032 596.406 505.585 3705.893 1596.808 2737.559 567.479 3885.778 1293.870 3631.619 3960.054 924.437 2866.482 6671.339 7308.168 6307.535 4069.647 4366.212 8148.497 1978.351 3678.120 1244.765 1004.603 1293.953 948.427 2870.054 473.792 461.121 2443.057 7957.626 792.659 864.343 823.716 3668.969 6297.857 775.416 1205.347 3930.644 457.368 499.023 9335.953 8463.329 503.505 923.770 2865.560 985.219 6554.163 4806.545 4249.159 940.073 197.147 4335.025 2646.969 497.895 892.225 1158.825 1385.331 2864.855 6308.830 649.062 3842.537 2444.780 8133.600 1138.224 309.467 877.821 6830.519 497.955 3243.993 959.241 429.173 4390.931 8370.653 6559.753 616.634 3228.757 3292.501 1568.840 4277.532 3116.734 601.951 3609.198 1344.022 787.567 670.792 7056.126 2342.811 9254.969 882.436 8126.337 721.854 5613.804 1421.608 4140.462 6334.717 2180.727 2132.730 2468.989 619.856 1132.949 3732.777 706.872 113.921 929.757 1631.200 769.757 10238.936 7339.937 780.632 8033.516 2457.457 755.590 1091.540 3141.427 452.924 361.130 1951.447 3785.715 5428.912 8747.845 8825.774 7667.525 6757.651 4671.514 646.261 1129.034 4149.621 509.102 6695.674 415.973 2815.201 1536.621 5130.087 1499.667 7541.071 3540.984 813.700 2021.993 6244.128 3928.210 6054.947 887.483 1304.664 1523.953 181.032 6747.314 352.546 1113.451 803.528 209.977 2609.247 955.791 6978.261 8438.717 4043.934 4547.728 165.107 4594.635 1079.775 625.389 6664.980 5787.817 1429.407 7962.896 968.981
3856.537 8491.817 5065.816 4284.015 4247.409 4338.456 8548.340 5898.121 4300.240 4836.378 6464.706 7999.443 5254.472 5275.248 4186.970 7832.758 3312.466 4440.450 9638.909 4796.043 7339.616 7039.138 5036.244 9817.677 4273.338 0.000 4281.935 5029.586 4426.440 4015.212 3671.065 5869.778 5552.500 1589.612 3986.285 992.000 4985.934 1378.440 4191.370 4621.247 6032.222 7966.953 5527.151 4175.287 7914.613 6179.264 11958.550 5066.722 5802.839 4519.603 4862.794 5104.005 4275.835 6680.106 4481.181 3715.529 1804.273 11127.256 4602.711 4674.396 4242.523 7479.021 5358.328 4194.223 5015.399 1319.829 4413.060 3917.829 7749.793 7462.646 4372.900 4251.178 6675.613 4940.912 5147.387 1625.355 8059.211 4267.481 4148.467 1829.987 6459.692 3866.337 4311.031 4577.632 5195.383 6820.547 4649.766 4459.114 7008.277 5087.727 11303.230 4732.413 4178.861 4296.627 8618.844 4308.007 6413.623 4378.047 3747.477 8200.984 11540.283 9585.703 4035.440 7038.809 2562.022 4628.637 8087.584 6282.473 4412.003 5733.917 5299.715 4597.619 4480.844 10082.076 1994.734 7445.079 4873.592 11295.967 4531.906 8783.434 5377.300 1328.304 4511.527 6136.420 5221.101 5634.729 4038.662 4430.285 5979.948 4516.924 4121.310 4568.274 5586.893 4188.563 11276.662 11149.989 4736.325 11203.146 6267.509 4565.642 4471.695 6951.479 3726.306 3779.936 5121.077 1109.602 9238.964 12557.897 10434.885 11477.577 4934.461 7841.144 4056.003 4434.200 1538.806 4069.498 4872.485 4285.368 6770.894 5346.673 8474.927 4696.077 5760.054 6341.071 4623.752 5977.686 9413.758 1550.164 9864.999 4306.290 5260.356 4693.583 4054.311 8042.927 4308.239 4991.294 4613.581 3931.088 2531.729 4700.746 9812.283 11608.347 4281.078 5585.455 4172.496 8404.688 3694.120 4044.196 8946.992 9597.869 3056.913 11539.966 4296.390
571.110 6681.634 1228.665 842.826 252.714 147.919 4895.916 2245.697 3672.714 996.800 2625.128 6033.882 1414.894 1462.659 6349.683 4180.334 4762.433 416.937 6152.885 719.897 3500.038 3386.714 3150.606 6121.779 832.149 4191.902 0.000 1072.664 235.903 266.723 638.964 3103.560 2068.637 2870.938 353.428 4019.158 909.788 3764.998 3563.843 545.101 2196.534 6001.391 7539.363 6109.738 4541.476 5088.174 8306.125 1254.133 3228.243 482.192 1328.476 1147.083 85.298 3027.682 1195.754 594.500 2576.437 7287.678 1032.990 1104.674 464.080 3826.597 7019.819 373.012 1058.477 4064.024 971.872 396.577 8939.743 8067.119 904.207 60.641 3023.188 1499.723 6157.953 4939.925 4406.787 76.944 913.404 4468.404 2807.268 631.274 234.885 501.398 1542.959 3202.274 6812.479 924.796 3172.589 1774.732 7463.652 656.266 811.888 220.481 7302.347 773.690 2574.045 301.900 562.553 4548.559 7700.705 5889.805 492.241 3386.385 3632.024 816.049 4435.160 2446.786 877.686 3159.321 1858.526 1063.302 870.245 6386.178 2476.190 8858.759 1533.981 7456.389 921.307 4943.856 1936.112 4273.842 6674.240 2652.556 1408.513 1799.041 405.805 370.377 3062.829 982.606 835.883 1646.014 2112.110 353.160 9789.059 7497.565 1295.136 7363.568 2615.085 955.043 328.967 3299.055 586.304 494.509 1281.499 3919.095 5586.540 8905.473 8155.826 7825.153 7097.174 4001.567 1362.518 366.462 4283.000 1225.359 7035.198 816.675 3287.030 1694.249 4635.349 829.719 7772.266 4012.813 1054.031 2493.822 5574.180 4061.590 6212.575 311.594 1776.493 854.005 819.248 6077.366 867.050 1812.057 1079.263 645.662 2262.523 624.599 6308.313 7768.769 3594.057 4097.852 887.069 4752.263 629.898 330.181 7136.809 5945.445 1562.786 8120.524 105.852
1222.722 5789.639 524.860 827.798 1307.965 1547.149 4007.384 1357.165 4671.758 2150.833 3632.059 7187.915 2445.449 2670.962 6416.725 3291.802 5745.222 1715.610 7306.919 1348.904 4506.968 2498.182 4149.650 7275.813 983.945 4843.514 1399.230 0.000 1635.133 1132.507 1290.576 4255.059 1176.642 3522.550 1103.580 4670.770 1423.636 4416.611 4562.887 1071.487 3350.568 7155.425 8190.976 7092.527 3649.481 4373.495 7417.593 2462.437 4227.286 1780.866 396.238 108.630 1484.528 2139.150 903.264 1246.113 3228.049 8294.609 694.803 766.488 1359.817 2938.065 6305.140 1311.517 14.187 4715.636 769.887 1048.190 9938.786 9066.163 1056.002 1459.871 2134.656 640.371 7156.997 5591.537 3518.255 1476.174 1156.693 5120.017 1918.735 1282.886 1428.326 1694.926 654.427 2313.742 6316.114 474.434 4326.623 2983.035 8470.582 1285.274 963.683 1413.922 6410.352 625.540 3580.975 1495.342 1214.165 3660.027 8707.635 7043.839 1165.801 2497.852 4252.047 2052.926 3546.628 3600.819 829.830 4158.364 923.856 335.928 898.670 7540.212 3127.803 9857.802 723.559 8463.319 885.682 5950.786 1001.442 4925.454 6741.282 1760.561 2616.816 2953.075 1155.957 1669.050 4216.863 416.624 1042.199 1237.274 1211.034 1318.923 10788.103 6609.032 440.936 8370.498 1726.553 983.469 1627.640 2410.522 1237.916 1146.122 2359.303 4570.707 4698.008 8016.941 9309.859 6936.620 6818.488 5008.497 1605.808 1665.135 4934.613 1468.648 6889.448 968.470 2395.035 805.717 5020.706 1983.753 8423.878 3120.818 715.845 1601.827 6581.110 4713.202 5324.043 1423.584 884.498 2008.038 1140.578 7231.400 852.022 877.387 319.967 1169.524 3261.567 1102.842 7462.346 8775.699 4593.100 5096.895 991.013 3863.731 1628.941 1161.490 6244.814 5056.913 2214.399 7231.992 1505.082
732.214 6664.638 1211.670 1003.930 413.818 514.811 4843.740 2228.702 3970.347 868.280 2496.609 5905.362 1286.374 1388.409 6510.786 4163.338 5060.066 288.417 6024.366 702.901 3371.518 3369.719 3406.574 5993.260 993.253 4353.005 366.893 1055.669 0.000 427.827 800.068 2975.040 2051.641 3032.042 514.532 4180.262 892.792 3926.102 3861.477 528.105 2068.015 5872.872 7700.467 6407.372 4524.480 5249.278 8289.130 1179.883 3143.149 353.673 1377.911 1130.088 452.191 3010.686 1356.858 755.604 2737.540 7159.159 1015.994 1087.679 625.184 3809.601 7180.923 534.116 1041.481 4225.127 1132.976 557.681 9237.376 8364.752 1065.311 427.534 3006.193 1622.044 6455.586 5101.029 4389.791 443.836 1074.508 4629.508 2790.272 792.378 217.889 372.879 1525.963 3185.279 6973.583 1055.748 3044.070 1700.482 7335.133 639.271 972.992 203.485 7285.352 934.793 2445.526 236.796 723.657 4531.564 7572.185 5761.286 675.292 3369.389 3793.128 770.373 4418.165 2318.266 973.632 3074.228 1847.970 1194.253 853.249 6257.659 2637.294 9156.392 1695.085 7327.869 904.311 4815.336 1925.555 4434.946 6835.344 2635.561 1334.263 1670.521 566.909 241.857 2934.310 1113.558 996.987 1807.118 2095.114 617.513 9810.453 7480.569 1422.609 7235.049 2598.089 938.047 200.447 3282.059 747.408 655.613 1152.980 4080.199 5569.544 8888.478 8027.306 7808.157 7258.278 3873.047 1523.622 237.942 4444.104 1386.463 7196.302 977.779 3270.035 1677.253 4506.829 701.199 7933.370 3995.817 1037.035 2476.827 5445.660 4222.694 6195.579 472.698 1759.497 725.485 980.352 5948.847 1028.154 1859.060 1210.214 806.766 2560.156 607.603 6179.793 7640.249 3891.690 4353.819 1048.173 4700.088 927.531 491.285 7119.814 5928.449 1723.890 8103.529 472.745
304.387 6457.586 1264.776 576.103 232.197 414.642 4747.300 2097.081 3731.353 1070.342 2698.670 6107.423 1488.436 1590.471 6082.960 4031.718 4821.072 583.103 6226.427 780.831 3573.580 3238.098 3209.246 6195.321 565.427 3925.179 266.723 1133.598 502.626 0.000 372.241 3177.102 1844.589 2604.215 86.705 3752.435 970.722 3498.275 3622.483 606.035 2270.076 6074.933 7272.641 6168.378 4317.428 4821.452 8157.509 1381.945 3286.882 648.359 1061.753 1208.017 352.021 2879.065 929.031 327.777 2309.714 7361.220 801.670 873.355 243.055 3677.981 6753.097 194.755 1119.411 3797.301 705.149 129.854 8998.382 8125.758 637.484 327.364 2874.572 1233.000 6216.593 4673.202 4258.171 343.666 646.681 4201.681 2658.651 364.551 295.819 562.419 1394.343 3053.658 6545.756 658.073 3246.131 1902.543 7537.194 717.200 545.165 281.415 7078.300 506.967 2647.587 362.835 295.830 4399.943 7774.246 5963.347 247.466 3237.768 3365.302 972.434 4286.544 2520.327 610.963 3217.960 1591.803 796.579 679.803 6459.720 2209.468 8917.398 1267.258 7529.931 730.865 5017.397 1669.389 4007.119 6407.517 2428.508 1536.324 1872.583 139.083 536.543 3136.371 715.883 569.161 1379.291 1878.981 378.519 9847.698 7348.948 1028.413 7437.110 2466.468 764.602 495.133 3150.438 319.581 227.786 1355.041 3652.372 5437.924 8756.857 8229.367 7676.536 6830.451 4075.108 1095.795 532.628 4016.278 958.636 6768.475 549.952 3062.982 1545.633 4708.891 903.261 7505.543 3788.765 822.712 2269.774 5647.722 3794.867 6063.958 291.077 1552.445 927.546 552.525 6150.908 600.327 1545.334 812.540 378.939 2321.162 685.533 6381.855 7842.310 3652.696 4156.491 620.347 4603.647 688.537 63.458 6912.761 5796.828 1296.063 7971.908 372.575
256.977 6565.937 1466.256 684.454 647.849 830.294 4948.780 2298.561 3598.924 1485.994 3114.323 6523.076 1904.088 2006.123 5766.283 4233.198 4490.229 998.756 6642.079 1196.483 3989.232 3439.578 3367.161 6610.973 673.778 3588.521 682.375 1430.026 918.279 415.652 0.000 3472.571 1952.940 2267.558 386.725 3415.778 1386.374 3161.618 3490.053 1021.687 2685.728 6490.586 6955.964 5837.535 4425.779 4774.041 8358.990 1797.597 3444.798 1064.011 1263.234 1504.445 767.673 3080.546 881.621 44.464 1973.056 7776.872 1003.151 1074.835 642.963 3879.461 6705.686 594.663 1415.839 3460.643 813.500 318.269 8865.952 7993.329 773.339 743.017 3076.053 1341.352 6084.163 4336.545 4459.651 759.319 477.402 3865.024 2860.132 195.272 711.471 978.071 1595.823 3220.987 6229.080 859.554 3661.783 2211.458 7952.846 1132.853 579.301 697.067 7186.651 708.447 3063.239 778.487 76.411 4601.424 8189.899 6378.999 435.880 3439.249 3048.625 1388.087 4488.024 2935.980 812.443 3375.876 1700.155 998.059 881.284 6875.373 1872.810 8784.968 1290.265 7945.583 932.346 5433.050 1777.740 3670.462 6090.841 2536.860 1951.977 2288.235 439.102 952.196 3540.558 917.364 521.750 1210.012 1987.333 589.003 10005.614 7550.429 1136.765 7852.762 2667.949 966.082 910.786 3351.919 55.241 180.376 1770.694 3315.715 5639.404 8958.337 8645.020 7878.017 6513.775 4490.761 926.516 948.281 3679.620 789.357 6451.798 685.808 3171.334 1747.113 5124.543 1318.913 7188.867 3897.116 1024.192 2378.126 6063.374 3458.210 6265.439 706.730 1660.796 1343.199 383.246 6566.560 708.679 1521.280 1014.021 331.528 2139.247 1101.186 6797.507 8257.963 3810.612 4314.406 572.936 4805.128 817.851 444.636 7021.113 5998.309 959.406 8173.389 788.228
3375.241 9279.322 3826.353 3646.957 3073.551 2735.340 6681.801 4843.385 3146.122 2050.967 2786.092 3322.100 2469.061 1563.188 8731.265 6778.022 4213.527 2606.748 4047.805 2902.161 2406.803 5804.751 1512.879 4016.699 3636.280 5856.118 3026.626 3670.352 2782.362 3087.560 3443.095 0.000 4666.325 4587.667 3157.559 5660.558 3031.925 5406.398 3037.251 3187.839 1266.567 3289.610 10071.870 5537.430 7139.164 7892.305 10205.186 1747.028 284.065 2685.901 3992.594 3744.771 2993.608 4926.742 3999.885 3398.631 4352.752 7119.561 3675.728 3747.412 3284.917 6424.285 9823.950 3193.850 3656.165 5705.424 3776.003 3175.138 8314.120 7094.012 3708.338 2968.951 5620.876 4236.727 5532.331 6581.325 7004.475 2985.254 3717.534 5026.153 5404.956 3435.405 2791.742 2536.032 4140.647 5799.962 9194.061 3715.481 1829.381 1770.747 7295.535 3299.004 3616.018 2863.219 9900.035 3577.820 2735.009 2724.726 3366.684 6447.619 7532.587 3784.725 3057.527 5584.048 6164.531 2348.503 7032.848 1913.356 3633.365 215.144 4462.653 3852.819 3512.983 4281.098 4252.506 8233.136 4319.916 7288.272 3564.045 4775.738 4540.239 5915.242 9055.822 5250.244 1523.405 1575.644 3209.936 2596.582 110.170 3772.124 3640.014 4450.145 4709.798 2918.446 7227.191 10095.253 4037.292 7195.451 5212.773 3597.781 2637.992 5896.743 3390.434 3298.640 2335.666 5581.168 7485.600 10804.533 5719.420 9724.213 9478.756 3833.449 4166.649 2600.498 5924.400 4029.489 9416.780 3620.806 5884.718 4291.937 5022.463 2190.386 10304.773 6610.501 3696.769 5091.510 5406.063 5702.990 8810.263 3132.432 4374.181 2149.095 3623.378 3365.585 3671.181 4473.744 3868.781 3449.793 3772.776 3250.215 4482.404 7600.651 2510.045 1763.983 3691.200 6538.148 2809.809 3151.019 9734.497 7844.505 3916.344 10718.212 3014.162
1716.022 4612.997 885.463 1266.009 1981.958 2247.469 3991.370 1244.566 5372.078 2673.211 4154.436 7710.293 2967.827 3193.340 5867.964 3112.632 6391.723 2415.931 7829.297 1908.930 5029.346 2443.187 4849.970 7798.191 1455.892 5490.015 2099.550 1355.135 2335.453 1832.827 1937.078 4779.971 0.000 4169.052 1803.900 5317.272 1946.014 5063.112 5263.207 1745.480 3872.946 7677.803 8532.665 7739.029 2499.999 3554.506 7401.580 2984.814 4927.606 2481.186 1106.704 1429.554 2184.848 2123.136 1341.475 1892.614 3874.550 8816.986 1377.435 1449.120 2060.137 2758.895 5486.151 2011.837 1340.948 5362.137 1208.098 1748.510 10639.106 9766.483 1688.226 2160.191 1646.933 873.200 7857.317 6065.082 3030.532 2176.494 1628.640 5766.518 1307.612 1929.388 2128.646 2287.207 638.413 1317.859 5497.124 1228.706 4849.001 3505.413 8992.960 1845.300 1595.906 2114.242 5233.711 1325.860 4103.353 2195.662 1860.667 3644.014 9230.013 7566.217 1866.121 2442.858 4516.998 2575.304 3058.905 4123.197 1530.150 4858.684 461.851 1090.200 1598.991 8062.590 3774.304 10558.122 1161.770 8985.697 1568.314 6473.164 539.436 5571.956 6155.621 583.920 3139.194 3475.452 1856.277 2369.371 4739.241 1170.896 1480.410 1363.325 264.615 2019.243 11488.423 6121.309 879.147 8892.876 1236.715 1683.789 2327.961 1922.799 1884.418 1792.623 2881.681 5217.209 4681.994 8000.928 9832.237 6920.607 5999.499 5530.875 1788.841 2365.455 5581.114 1636.982 6070.459 1600.694 1218.394 789.703 5410.569 2506.130 8765.567 1944.176 1398.476 425.186 7103.488 5359.704 5144.873 2123.905 292.144 2530.416 1612.526 7753.778 1290.233 722.683 1074.239 1641.471 3961.887 1784.014 7984.724 9298.077 5293.420 5797.215 1429.224 3847.718 2329.261 1861.810 5068.173 5040.899 2860.900 6744.269 2205.403
2586.266 7283.124 3795.546 3013.744 2977.139 3068.185 7278.070 4627.851 3990.091 3566.107 5194.436 7808.954 3984.201 4004.977 4524.516 6562.488 3699.202 3170.180 8718.302 3525.773 6069.345 5768.868 4447.721 8687.196 3003.067 1979.367 3011.665 3759.316 3156.170 2744.942 2400.795 5078.570 4282.229 0.000 2716.015 1453.809 3715.664 1199.649 3881.220 3350.977 4761.951 7776.464 5875.990 5046.508 6705.920 5219.482 10688.279 3796.451 5050.796 3249.333 3592.523 3833.735 3005.565 5409.835 3210.910 2445.259 532.934 9856.986 3332.440 3404.125 2972.252 6208.751 5695.875 2923.952 3745.128 1498.675 3142.790 2647.559 8621.014 8333.866 3102.629 2980.908 5405.342 3670.641 6018.608 2374.576 6788.941 2997.210 2878.196 2947.901 5189.421 2596.067 3040.761 3307.361 3925.113 5550.277 4987.313 3188.843 5738.006 3817.456 10032.959 3462.142 2908.591 3026.357 7410.151 3037.737 5143.352 3107.777 2477.206 6930.713 10270.012 8455.222 2765.170 5768.538 2249.184 3358.367 6817.314 5012.203 3141.733 4981.875 4029.444 3327.349 3210.573 8951.595 723.395 8316.300 3619.555 10025.696 3261.635 7513.163 4107.030 1708.493 4849.073 4866.149 3950.831 4364.458 2768.392 3160.014 5146.556 3246.653 2851.040 3322.072 4316.622 2918.292 11086.174 9879.718 3466.054 9932.875 4997.238 3295.372 3201.424 5681.208 2456.036 2509.665 3850.807 1374.419 7968.694 11287.627 9773.255 10207.306 5272.008 6570.874 2809.801 3163.930 1717.652 2823.296 5210.031 3015.097 5500.623 4076.403 7204.656 3425.807 6108.893 5132.377 3353.482 4707.415 8143.487 1496.241 8594.728 3036.019 3990.086 3423.312 2784.040 7852.439 3037.968 3745.091 3343.310 2660.818 1482.344 3430.475 8873.730 10338.076 3619.448 5394.966 2902.226 7134.417 2423.850 2773.925 7738.299 8327.598 1786.642 10331.273 3026.119
275.460 6428.659 1235.848 547.176 318.902 501.347 4718.372 2068.154 3724.495 1157.047 2785.376 6194.129 1575.141 1677.176 6054.033 4002.790 4797.959 669.809 6313.133 867.536 3660.285 3209.171 3202.388 6282.026 536.499 3896.252 353.428 1199.619 589.332 86.705 343.314 3263.807 1815.662 2575.288 0.000 3723.508 1057.427 3469.348 3615.625 692.740 2356.781 6161.639 7243.713 6145.265 4288.501 4792.524 8128.582 1468.650 3280.024 735.064 1032.826 1274.038 438.726 2850.138 900.104 298.850 2280.787 7447.926 772.743 844.428 256.237 3649.053 6724.169 207.937 1185.431 3768.374 676.222 100.927 8991.524 8118.900 608.557 414.070 2845.645 1204.073 6209.734 4644.275 4229.244 430.372 617.754 4172.754 2629.724 335.624 382.524 649.125 1365.415 3024.731 6516.829 629.146 3332.836 1989.249 7623.899 803.906 516.238 368.120 7049.372 478.040 2734.292 449.540 266.903 4371.016 7860.952 6050.052 218.538 3208.841 3336.374 1059.140 4257.617 2607.033 582.036 3211.102 1562.876 767.652 650.876 6546.426 2180.540 8910.540 1238.331 7616.636 701.938 5104.103 1640.462 3978.192 6378.590 2399.581 1623.030 1959.288 52.377 623.249 3223.077 686.956 540.234 1350.364 1850.054 371.661 9840.840 7320.021 999.486 7523.815 2437.541 735.674 581.839 3121.511 290.654 198.859 1441.747 3623.445 5408.996 8727.930 8316.073 7647.609 6801.524 4161.814 1066.868 619.334 3987.350 929.709 6739.548 521.025 3034.055 1516.706 4795.596 989.966 7476.616 3759.838 793.784 2240.847 5734.427 3765.940 6035.031 377.783 1523.518 1014.252 523.598 6237.613 571.400 1516.407 783.613 350.012 2314.304 772.239 6468.560 7929.016 3645.838 4149.633 591.419 4574.720 681.679 115.689 6883.834 5767.901 1267.136 7942.981 459.281
3638.888 8010.908 4848.167 4066.366 4029.760 4120.807 8330.691 5680.472 4433.004 4618.729 6247.057 8251.867 5036.823 5057.599 3254.018 7615.109 3964.618 4222.801 9420.191 4578.394 7121.967 6821.489 4890.634 9598.960 4055.689 1225.676 4064.286 4811.937 4208.791 3797.563 3453.416 5651.060 5334.851 1370.895 3768.636 0.000 4768.285 418.033 4324.133 4403.598 5814.573 8219.377 4605.492 4807.397 7433.704 5246.312 11740.901 4849.073 5584.122 4301.954 4645.145 4886.356 4058.186 6462.457 4263.532 3497.880 1585.556 10909.607 4385.062 4456.746 4024.874 7261.372 4425.377 3976.574 4797.750 327.829 4195.411 3700.180 8381.904 8094.756 4155.250 4033.529 6457.964 4723.263 5779.497 1104.078 7841.562 4049.832 3930.818 2462.097 6242.043 3648.688 4093.382 4359.983 4977.734 6602.898 3716.814 4241.465 6790.628 4870.078 11085.581 4514.764 3961.212 4078.978 7867.855 4090.358 6195.974 4160.398 3529.828 7983.335 11322.634 9366.985 3817.791 6821.160 1570.022 4410.988 7869.935 6064.824 4194.354 5515.200 5082.066 4379.970 4263.195 9863.359 1776.016 8077.189 4614.453 11078.318 4314.257 8565.784 5159.651 395.352 3578.575 5918.771 5003.452 5417.080 3821.013 4212.636 5761.230 4299.275 3903.661 4309.135 5369.244 3970.914 11529.087 10722.977 4518.676 10985.497 6049.860 4347.993 4254.046 6733.830 3508.657 3562.287 4903.428 934.167 9021.315 12340.248 10216.167 11259.928 4001.509 7623.495 3796.864 4216.551 546.806 3810.359 3939.533 4067.719 6332.075 5129.024 8257.278 4478.428 4838.394 5860.161 4406.103 5760.037 9196.109 627.674 9647.350 4088.641 5042.707 4475.934 3836.662 8295.352 4090.590 4732.155 4395.932 3713.439 2534.966 4483.097 9593.566 11390.698 4062.360 5837.879 3954.847 8187.039 3476.471 3826.547 8466.083 9380.220 2839.264 11059.057 4078.741
1235.235 6540.244 1087.275 1007.134 709.081 1109.713 4737.227 2104.307 4483.798 1289.027 2793.876 6326.109 1583.642 1809.156 6982.219 4038.944 5573.517 1182.699 6445.112 636.053 3668.786 3245.324 3827.321 6414.006 996.458 4856.027 961.794 931.274 1197.698 941.277 1303.090 3395.787 1927.246 3535.064 963.369 4683.283 0.000 4429.124 4374.927 472.603 2488.761 6293.618 8203.489 6920.822 4400.085 5230.774 8164.735 1600.630 3563.896 1247.954 1253.516 1005.693 1047.092 2886.292 1445.851 1258.626 3240.562 7456.426 953.574 1025.258 890.214 3685.207 7162.419 829.379 917.087 4728.149 1136.180 1060.703 9750.826 8878.203 1068.515 1022.436 2881.798 1497.649 6969.037 5604.050 4265.397 1038.738 1169.206 5132.530 2665.877 1295.400 990.890 903.022 1401.569 3060.884 7173.392 1020.740 3464.816 2121.228 7632.400 572.423 976.196 976.486 7160.957 937.998 2742.793 1057.906 1226.678 4407.169 7869.453 6182.032 1178.314 3244.994 4264.561 1191.119 4293.770 2739.013 938.624 3494.974 1723.575 1113.741 818.241 6678.405 3140.316 9669.842 1580.838 7625.137 869.303 5112.604 1801.161 4937.967 7306.776 2511.166 1755.010 2091.268 910.991 1136.139 3355.056 1033.046 1085.981 1901.816 1970.720 1130.963 10231.199 7356.174 1298.214 7532.316 2473.694 903.040 1094.729 3157.664 1250.429 1158.635 1497.496 4583.220 5445.150 8764.083 8448.053 7683.762 7675.766 4170.315 1618.321 1132.223 4947.126 1481.161 7667.734 980.984 3145.640 1552.859 4540.919 1121.946 8436.392 3871.423 974.615 2352.432 5742.928 4725.716 6071.185 907.869 1635.102 1146.232 1153.092 6369.593 1031.358 1734.666 1129.703 1182.037 3073.607 511.137 6600.540 7937.517 4366.331 4774.566 1137.166 4593.575 1440.982 1004.736 6995.419 5804.055 2226.912 7979.134 1067.647
3483.186 7942.321 4692.465 3910.664 3874.059 3965.105 8174.989 5524.771 4277.302 4463.027 6091.356 8096.166 4881.121 4901.897 3489.933 7459.407 3808.916 4067.100 9264.490 4422.693 6966.265 6665.788 4734.932 9443.258 3899.987 1383.413 3908.585 4656.236 4053.090 3641.862 3297.715 5495.359 5179.149 1215.193 3612.935 419.226 4612.584 0.000 4168.431 4247.897 5658.871 8063.675 4841.407 5156.221 7365.117 5482.227 11585.199 4693.371 5428.420 4146.253 4489.443 4730.655 3902.485 6306.755 4107.830 3342.178 1429.854 10753.905 4229.360 4301.045 3869.172 7105.671 4661.292 3820.872 4642.048 464.092 4039.710 3544.479 8730.728 8443.580 3999.549 3877.828 6302.262 4567.561 6128.321 1339.993 7685.861 3894.130 3775.116 2693.023 6086.341 3492.987 3937.681 4204.281 4822.032 6447.196 3952.729 4085.763 6634.926 4714.376 10929.879 4359.062 3805.511 3923.277 8069.348 3934.657 6040.272 4004.696 3374.126 7827.633 11166.932 9211.284 3662.090 6665.458 1501.435 4255.287 7714.234 5909.123 4038.653 5359.498 4926.364 4224.269 4107.493 9707.657 1620.315 8426.013 4499.172 10922.616 4158.555 8410.083 5003.950 673.910 3814.490 5763.069 4847.751 5261.378 3665.312 4056.934 5605.529 4143.573 3747.960 4193.855 5213.542 3815.212 11373.385 10654.390 4362.974 10829.795 5894.158 4192.291 4098.344 6578.128 3352.956 3406.585 4747.727 778.466 8865.613 12184.547 10060.466 11104.226 4237.424 7467.794 3681.584 4060.850 683.068 3695.079 4175.448 3912.017 6263.488 4973.323 8101.576 4322.727 5074.309 5791.575 4250.401 5604.335 9040.407 652.145 9491.648 3932.939 4887.005 4320.232 3680.960 8139.650 3934.888 4616.875 4240.230 3557.738 2379.264 4327.395 9437.864 11234.996 3906.659 5682.177 3799.145 8031.337 3320.770 3670.845 8397.496 9224.518 2683.562 10990.470 3923.039
3634.738 9936.502 4644.702 4055.019 3592.827 3464.291 7972.394 5575.997 108.871 3867.470 5032.182 5009.025 4285.564 3207.836 7607.370 7510.633 2559.395 3471.542 6858.351 4056.907 5320.099 6717.014 1674.175 7066.681 4044.342 4221.019 3437.655 4488.701 3552.276 3549.463 3449.267 3118.782 5323.505 4237.448 3565.621 4870.971 4186.671 4616.812 0.000 3961.138 3847.089 4976.535 8668.179 3883.298 7796.344 8151.802 11495.779 3482.370 3051.843 3550.696 4540.669 4563.120 3401.670 6217.335 4259.382 3493.730 3698.701 9694.732 4280.586 4352.271 3792.518 7156.897 8778.728 3713.126 4474.514 4915.837 4184.065 3583.201 6661.093 5788.469 4116.400 3377.014 6353.488 4711.916 3879.303 5749.196 7737.087 3393.316 3926.668 3145.651 6137.567 3644.539 3650.922 3690.778 4873.258 6532.574 8070.166 4136.989 4756.157 2919.644 9870.706 4072.303 3957.063 3636.518 10557.216 3985.883 4981.099 3635.086 3525.678 7738.213 10107.758 6834.707 3465.589 6716.684 6049.828 3659.729 7765.460 4317.544 4089.879 2982.922 5070.719 4275.495 4158.719 7331.080 3598.454 6580.109 4668.027 9863.442 4209.781 7350.909 5148.305 5125.655 7931.927 5907.424 3389.496 3821.734 3617.998 3461.377 3228.952 4194.799 3899.512 4659.278 5357.897 3326.509 8286.244 10827.864 4507.329 9770.622 5945.384 4243.517 3502.787 6629.354 3504.508 3558.137 4152.169 4347.974 8776.194 12095.127 7654.327 11014.806 8354.861 6408.620 4375.783 3465.292 5134.814 4238.623 8292.885 4028.868 6541.898 5024.549 7506.019 3727.170 8901.082 7267.681 4301.628 5748.690 7981.233 4913.404 9542.874 3651.708 5031.361 3724.675 3832.512 5052.510 4079.243 4899.041 4291.456 3709.290 2756.303 4040.636 7031.725 10175.822 1084.677 2595.037 3950.697 7828.742 2918.438 3578.446 10391.677 9135.098 3309.658 11450.824 3422.225
762.633 6250.549 797.580 534.532 236.478 637.110 4464.831 1814.612 4011.195 1199.334 2704.184 6236.416 1493.949 1719.463 6509.616 3749.249 5100.914 805.572 6355.419 391.433 3579.093 2955.629 3489.087 6324.313 523.855 4383.424 489.192 641.579 725.095 468.675 830.487 3306.094 1637.551 3062.461 490.766 4210.681 483.448 3956.521 3902.325 0.000 2399.068 6203.925 7730.886 6448.220 4110.390 4864.993 7875.040 1510.937 3474.203 870.828 951.817 715.998 574.490 2596.597 973.248 786.023 2767.959 7366.734 508.383 580.068 417.611 3395.512 6796.637 356.776 627.392 4255.546 663.578 588.100 9278.224 8405.600 595.913 549.833 2592.103 1164.995 6496.434 5131.448 3975.702 566.135 696.604 4659.927 2376.182 822.797 518.288 784.888 1111.874 2771.189 6807.611 548.137 3375.123 2031.535 7542.707 327.802 503.593 503.884 6871.262 465.395 2653.100 585.303 754.076 4117.474 7779.760 6092.339 705.711 2955.300 3791.958 1101.426 4004.075 2649.320 466.021 3405.281 1433.880 686.642 345.639 6588.712 2667.713 9197.240 1225.686 7535.444 396.701 5022.911 1511.466 4465.365 6834.173 2221.471 1665.317 2001.575 438.389 759.012 3265.363 605.947 613.378 1429.214 1681.025 658.361 10127.540 7066.479 960.407 7442.623 2184.000 430.437 717.602 2867.970 777.827 686.032 1407.803 4110.618 5155.455 8474.388 8358.360 7394.067 7257.108 4080.622 1145.718 755.097 4474.523 1008.558 7195.131 508.381 2855.945 1263.164 4462.537 1032.253 7963.789 3581.728 529.425 2062.737 5653.235 4253.113 5781.490 435.266 1345.408 1056.539 680.489 6279.900 558.756 1444.971 702.604 709.434 2601.004 193.514 6510.847 7847.824 3932.538 4436.333 664.564 4321.178 968.379 532.133 6705.724 5514.360 1754.309 7689.439 595.044
2585.924 8473.299 3020.330 2857.640 2267.528 2216.021 5812.368 4037.362 3902.402 1244.943 1700.484 4074.735 1647.630 1088.155 8364.497 5971.998 5285.798 2009.685 3956.351 2096.138 1599.905 4935.319 2309.060 3925.245 2846.964 6161.250 2220.603 2864.329 2084.650 2281.537 2653.778 1144.414 3860.301 4840.287 2368.243 5988.507 2225.902 5734.347 3793.532 2381.815 0.000 4042.245 9554.178 6637.950 6333.140 7102.989 9335.753 1168.130 1341.970 2074.941 3186.571 2938.748 2305.901 4057.309 3210.568 2609.315 4545.785 6312.663 2869.704 2941.389 2478.894 5618.262 9034.634 2387.826 2850.141 6033.372 2986.686 2411.392 9414.640 7997.391 2919.021 2281.244 4814.853 3430.704 6632.851 6909.273 6198.452 2297.547 2928.218 5578.750 4598.932 2646.088 1985.718 1730.009 3334.623 4993.939 8827.293 2909.458 1042.201 1351.755 6488.637 2492.981 2826.702 2057.195 9094.012 2788.504 1649.401 1918.702 2577.367 5578.187 6725.690 3693.271 2529.003 4714.616 5646.839 1713.581 6226.825 685.908 2827.342 1273.048 3656.630 3046.796 2706.959 4189.644 4445.539 9333.656 3513.893 6481.374 2758.021 3968.841 3734.215 6243.190 8689.054 4444.221 1048.372 586.607 2420.620 1963.125 1103.683 2966.101 2850.698 3660.828 3903.774 2399.128 7979.826 9289.229 3231.269 6388.553 4406.749 2791.758 1921.715 5090.719 2601.118 2509.324 1529.643 5888.444 6616.168 9935.101 5959.292 8854.780 9111.988 3026.551 3377.332 1959.210 6252.349 3240.173 9050.012 2831.490 5078.695 3485.914 4215.565 1384.363 9787.080 5804.478 2890.745 4285.487 4599.165 6030.939 8004.239 2326.408 3568.157 1343.072 2834.062 4118.220 2881.864 3667.720 3062.757 2660.476 3721.670 2444.192 4177.924 6793.754 3208.294 2636.093 2901.884 5668.716 2362.422 2344.995 8928.474 6975.072 3532.135 9912.189 2326.455
6566.186 12480.414 7027.446 6837.902 6274.644 5936.432 9882.893 8044.478 5052.610 5252.059 5505.754 32.490 5670.153 4764.280 11394.361 9979.114 6120.015 5807.840 2494.305 6103.253 5106.358 9005.844 3419.367 2993.145 6827.225 8008.010 6220.538 6871.444 5983.454 6288.653 6629.614 3264.478 7867.417 7349.924 6348.504 8422.815 6233.017 8168.655 4943.739 6388.931 4193.093 0.000 12455.170 6897.362 10340.256 11083.250 12404.343 4948.120 3438.826 5886.993 7193.687 6945.863 6184.553 8127.834 7190.830 6589.576 7115.009 7562.081 6876.820 6948.505 6486.010 9625.377 12565.719 6394.942 6857.257 8467.680 6966.948 6366.083 6254.569 4372.929 6899.283 6159.896 8821.969 7437.820 5959.082 9343.582 10205.567 6176.199 6908.480 6932.642 8606.048 6626.350 5992.834 5737.125 7341.739 9001.055 11857.157 6916.574 4554.395 4906.369 7665.885 6500.097 6806.964 6064.311 13101.128 6768.765 5556.837 5925.818 6557.629 9648.712 7772.209 2838.187 6248.472 8785.140 9218.190 5549.596 10233.941 4879.001 6834.458 3369.904 7663.745 7053.912 6714.075 3007.212 7014.763 6676.092 7521.008 7395.881 6765.137 5712.815 7741.331 8677.498 11718.918 8451.336 4724.497 4776.737 6400.881 5797.675 3195.511 6973.216 6830.959 7641.090 7910.890 6109.391 4355.364 13296.345 7238.385 7637.971 8413.865 6798.873 5839.085 9097.835 6581.380 6489.585 5536.759 8134.965 10686.692 13003.691 3290.281 11923.370 12141.852 6228.233 7357.594 5801.590 8686.657 7220.435 12079.876 6811.751 9085.811 7493.029 7704.487 5391.479 12688.073 9811.593 6897.861 8292.602 6125.609 8465.247 12011.355 6333.524 7575.273 5350.188 6814.324 75.975 6862.126 7674.836 7069.873 6640.738 6535.033 6451.307 4415.464 8043.172 4416.533 2694.463 6882.145 9739.241 5875.453 6352.111 12935.590 11045.597 6981.989 13919.305 6205.108
7062.191 11079.671 8166.498 7350.832 7606.265 7788.710 11649.022 8998.803 8315.975 8395.029 10023.358 12015.178 8813.123 8833.899 4513.322 10933.440 7029.512 7957.172 13397.097 8154.899 10898.267 10139.820 8867.540 13516.119 7426.454 4986.419 7640.791 8242.044 7876.694 7374.068 7040.215 9627.966 8480.418 5347.800 7345.141 4075.092 8316.380 4314.550 8207.105 7946.947 9590.873 11982.688 0.000 7025.711 10166.660 6505.616 15059.232 8625.373 9561.028 8022.427 8027.113 8316.463 7726.089 9780.788 7496.302 7084.679 5562.462 14685.908 7815.169 7886.854 7601.378 10579.703 5684.681 7553.078 8227.857 3993.240 7479.878 7276.685 9640.346 10313.069 7526.015 7701.432 9776.295 7868.829 7997.811 3654.879 11159.893 7717.735 7069.979 5387.044 9530.579 7235.487 7669.887 7936.487 8296.065 9748.465 4976.119 7671.572 10566.928 8646.379 14861.881 8091.269 7331.977 7655.483 9127.159 7520.465 9972.274 7736.903 7116.627 11301.666 15098.934 13284.144 7394.296 10139.491 4730.124 8187.289 11188.267 9841.125 7624.461 9492.106 8227.632 7810.077 7693.302 13780.518 5752.922 8532.320 7683.216 14854.618 7744.364 12342.085 8305.218 3704.551 4837.879 9064.337 8779.753 9193.380 7397.518 7910.612 9738.136 7729.382 7136.431 7377.899 8514.810 7547.419 15292.397 13791.740 7803.142 14761.798 9368.191 7778.100 7869.202 10052.161 7095.456 7138.792 8679.729 4911.073 12339.646 15658.580 14193.073 14578.259 5260.814 11399.796 6865.627 7906.696 4053.116 6879.123 5198.837 7438.483 9065.031 8447.355 12033.578 8254.729 598.405 8593.117 7836.210 8905.603 12972.409 4633.255 12965.681 7665.146 8188.274 8252.234 6975.823 12058.662 7375.057 7800.918 7826.039 7106.014 6511.872 7978.301 13570.472 15166.998 8039.266 9601.190 7187.617 11505.370 7252.772 7403.051 11534.846 12698.551 6816.170 13415.148 7746.644
5411.918 11627.372 6621.197 5839.396 5802.790 5893.837 10103.721 7453.503 3857.340 6391.759 7504.744 6990.360 6809.853 5680.399 7038.282 9388.139 1494.267 5995.832 9135.539 6351.425 7802.774 8594.520 4372.186 9343.870 5828.719 4168.109 5837.317 6584.968 5981.822 5570.594 5226.447 5395.971 7107.881 4828.316 5541.667 4725.655 6541.316 5051.576 3748.469 6176.629 6411.810 6957.870 7103.816 0.000 9580.720 9030.576 13513.931 5954.932 5329.032 6074.985 6418.175 6659.387 5831.217 8235.487 6036.562 5270.910 4587.200 12167.294 6158.092 6229.777 5797.904 9034.402 8209.641 5749.604 6570.780 5053.484 5968.442 5473.211 3856.055 3568.908 5928.281 5806.560 8230.994 6496.293 1253.649 5181.442 9614.592 5822.862 5703.848 2868.322 8015.073 5421.719 5866.413 6133.013 6750.764 8375.928 7501.079 6014.495 7225.352 5392.206 12343.268 6287.794 5734.243 5852.009 11652.119 5863.389 7453.661 5933.428 5302.858 9756.365 12580.320 9111.896 5590.822 8594.190 6295.677 6184.019 9642.966 6790.106 5967.385 5260.110 6855.096 6153.001 6036.225 9608.269 4486.954 3551.341 6445.207 12289.331 6087.287 9823.471 6932.682 5061.958 7362.840 7691.801 5862.058 6294.296 5594.044 5985.666 5506.141 6072.305 5676.692 6436.458 7142.274 5743.944 8696.144 12705.370 6291.706 12243.184 7822.890 6121.023 6027.076 8506.860 5281.688 5335.317 6676.458 4782.738 10794.345 14113.279 9931.516 13032.958 7785.774 8881.182 6115.625 5989.581 5272.461 5989.724 7723.797 5840.749 8326.275 6902.054 10030.308 6251.459 6849.804 9052.058 6179.133 7533.067 10453.795 5283.818 11420.380 5861.671 6815.737 6248.964 5609.692 7033.845 5863.620 6676.221 6168.962 5486.470 4007.224 6256.127 9308.914 12648.384 4190.584 4872.226 5727.877 9960.069 5249.502 5599.577 12082.547 11153.250 4612.294 13328.330 5851.771
3980.105 3472.312 3149.546 3530.092 4246.040 4511.552 4942.631 2484.873 7636.160 4937.294 6358.410 9974.376 5231.909 5457.423 5983.891 2841.310 8655.806 4680.013 10093.380 4173.013 7233.320 2797.152 7114.053 10062.273 3719.974 7487.115 4363.633 3619.218 4599.536 4096.910 4201.161 7044.054 2313.894 6433.135 4067.983 6961.557 4210.097 6707.397 7527.290 4009.562 6137.028 9941.886 9779.397 10003.111 0.000 3670.433 7653.543 5248.897 7191.689 4745.269 3370.787 3693.637 4448.931 3570.164 3605.558 4156.697 6138.633 11020.960 3641.518 3713.202 4324.220 2461.531 5602.078 4275.920 3605.031 6789.390 3472.180 4012.592 12903.189 12030.565 3952.308 4424.274 1853.313 3137.283 10121.400 7311.815 1791.540 4440.576 3892.723 8030.601 1795.634 4193.471 4392.729 4551.290 2902.496 1711.331 5613.051 3492.788 7113.083 5769.496 11196.934 4109.382 3859.989 4378.325 4395.660 3589.943 6307.327 4459.744 4124.749 4553.592 11433.987 9830.299 4130.203 2959.116 5872.058 4839.387 1745.330 6387.280 3794.233 7122.767 2725.933 3354.283 3863.073 10326.673 6038.387 12822.205 3425.853 11189.671 3832.397 8677.138 2803.519 6881.671 6271.548 2021.083 5403.277 5739.535 4120.360 4633.453 7003.324 3434.978 3744.493 3627.408 2440.629 4283.326 13752.505 4634.562 3143.229 11096.850 2181.521 3947.871 4592.043 1833.573 4148.500 4056.706 5145.764 6882.167 5522.835 8252.891 12096.320 7172.570 6115.426 7734.849 4052.923 4629.538 6923.284 3901.064 6186.386 3864.777 2071.338 3053.786 7674.651 4770.213 10012.300 1582.539 3662.559 2113.473 9307.462 7003.989 4334.728 4387.987 2556.227 4794.499 3876.608 10017.860 3554.316 2986.765 3338.322 3905.553 6225.969 4048.097 10248.807 11502.051 7557.503 8061.298 3693.307 4761.806 4593.344 4125.893 3927.487 5881.739 5124.983 5257.522 4469.485
4499.652 5405.235 4197.101 4346.908 5043.726 5226.171 7258.394 4435.165 7885.771 5881.871 7510.199 10918.952 6299.965 6402.000 2439.839 6020.448 7594.882 5394.633 11037.956 5220.440 8385.109 5479.667 7815.606 11006.850 4536.790 5967.375 5078.252 4717.472 5314.155 4811.529 4720.708 7921.016 3536.566 4915.990 4782.602 5441.818 5308.351 5187.658 7776.900 4943.023 7081.605 10886.462 6448.090 8942.188 3787.425 0.000 10668.604 6193.474 7893.243 5459.888 4304.521 4791.891 5163.550 5390.160 3900.795 4676.244 5130.652 12172.749 4647.663 4719.347 5038.839 5666.711 2449.292 4990.539 4703.285 5269.650 4338.451 4714.146 12516.694 12229.546 4718.628 5138.893 4535.829 4071.017 9914.288 5208.240 5218.642 5155.196 4391.054 6808.358 3867.953 4713.018 5107.348 5373.948 4174.979 3783.651 2069.000 4427.293 8057.660 6659.903 12348.723 5156.809 4524.590 5092.944 4067.362 4456.214 7459.116 5174.364 4644.296 6911.038 12585.776 10774.876 4831.757 5633.457 4352.319 5783.963 5172.433 7331.857 4620.537 7824.321 3998.416 4289.452 4689.377 11271.249 5321.112 12211.980 3917.208 12341.460 4740.439 9828.927 4076.002 5257.912 2727.497 3043.796 6347.854 6684.112 4834.979 5348.073 7947.900 4369.483 4234.879 3883.563 3663.300 4984.880 14454.059 7853.991 4055.614 12248.639 4260.138 4774.176 5306.663 4811.695 4668.047 4576.253 6166.570 5362.427 7949.018 11267.952 13040.897 10187.631 2962.640 8886.637 4309.079 5344.157 5403.544 4157.220 2932.490 4631.096 2685.796 4326.269 8807.571 5714.790 6680.993 2213.882 4668.704 3136.186 10459.251 5484.250 7830.227 5102.606 3828.710 5739.076 4396.155 10962.437 4371.132 3800.890 4273.491 4425.100 6080.062 4974.377 11193.384 12653.840 7515.128 8762.851 4183.693 7114.742 5294.898 4840.512 5860.410 8307.923 5644.530 8316.926 5184.104
8389.555 9933.913 7298.024 7990.576 8379.850 8585.219 3898.918 6577.531 11838.590 8176.868 8343.842 12781.551 7957.279 8942.911 12991.777 5210.379 12829.718 8319.218 10633.889 8114.651 8923.401 5615.801 10961.076 10288.025 8150.777 12010.346 8530.135 7767.696 8394.183 8299.340 8457.409 10054.244 7510.436 10689.383 8270.413 11837.603 7730.861 11583.443 11729.720 8143.372 9147.218 12814.041 15267.896 14232.758 7777.642 10678.319 0.000 8734.385 10222.353 8384.473 7559.016 7842.115 8615.433 5307.244 8066.042 8412.945 10394.881 9780.367 7789.996 7861.680 8526.650 5926.198 12609.964 8478.350 7753.509 11882.468 7932.665 8215.022 17105.619 16232.995 8222.835 8590.777 6625.511 7597.920 14323.829 12758.370 6709.809 8607.079 8323.526 12286.849 7314.379 8449.719 8295.250 8039.541 7049.771 7709.386 12620.937 7641.266 9481.018 9254.983 9956.341 8243.192 8130.515 8366.728 11227.091 7792.373 8292.759 8228.235 8380.998 3888.623 10193.394 9985.410 8332.633 5453.133 11252.229 8327.638 6675.844 8790.482 7996.663 10153.431 7306.765 7502.761 8065.503 10552.424 10294.635 17024.635 7886.337 9949.078 7980.875 8474.235 7384.351 12092.287 13279.434 7707.732 8888.765 8749.725 8322.790 8272.658 10013.513 7583.456 8204.977 8098.556 7553.910 8485.756 16889.656 7594.854 7603.714 9856.257 6852.231 8150.301 8231.248 6470.619 8404.749 8312.954 8087.715 11737.540 2746.633 938.565 13177.305 1623.325 13123.312 7883.309 8524.072 8268.742 12101.445 8372.213 13194.272 8135.303 8342.207 6770.859 7631.567 8255.701 15500.799 9003.584 7811.037 7803.505 8782.641 11880.035 5624.404 8578.638 7218.293 8279.987 8307.411 12814.669 8014.800 7567.597 7486.800 8336.356 10428.399 8181.906 9388.678 10200.125 11502.850 11545.923 8153.791 3793.574 8795.774 8328.323 10389.088 2668.141 9381.231 7105.085 8635.988
1733.264 7638.629 2185.661 2004.980 1432.859 1093.363 5169.547 3202.692 3708.693 651.198 2123.864 5004.992 1069.292 313.577 7375.321 5137.329 4664.918 964.770 5123.996 1261.468 2701.405 4292.498 2331.742 5092.890 1994.303 5038.591 1385.934 2029.659 1140.385 1446.868 1801.118 2074.671 3025.632 3717.628 1515.582 4865.848 1391.232 4611.688 3599.822 1547.146 1167.645 4972.502 8565.002 6067.958 5498.471 6250.328 8692.932 0.000 2242.780 1043.924 2351.902 2104.078 1351.631 3414.489 2357.907 1756.654 3423.126 6786.414 2035.035 2106.719 1644.225 4783.592 8181.973 1553.157 2015.472 4910.713 2134.025 1533.161 9196.880 8324.256 2066.361 1326.974 3980.184 2596.034 6415.090 5786.614 5363.782 1343.276 2075.557 4957.869 3764.263 1793.428 1151.049 895.340 2499.954 4159.270 7838.118 2074.788 2143.700 625.649 6962.387 1658.312 1974.041 1222.526 8259.343 1935.843 2072.780 1084.033 1724.706 4935.366 7199.440 4860.916 1415.550 4071.795 4657.663 706.526 5392.155 1417.897 1992.673 2173.858 2821.960 2212.127 1872.290 5357.289 3322.880 9115.896 2679.223 6955.124 1923.352 4442.591 2899.546 5120.531 7699.879 3609.551 259.431 770.152 1567.959 954.605 2033.940 2131.431 1998.037 2808.167 3069.105 1276.469 8910.083 8454.560 2396.599 6862.304 3572.080 1957.088 996.015 4256.050 1748.457 1656.663 935.897 4765.785 5973.347 9292.280 7126.937 8211.959 8122.813 3500.302 2524.672 958.520 5129.690 2387.512 8060.836 1978.829 4244.026 2651.244 4289.747 549.694 8797.905 4969.808 2056.076 3450.817 5072.915 4908.280 7169.570 1491.739 2733.488 508.403 1981.401 5048.477 2029.204 2833.051 2228.088 1807.815 2783.724 1609.522 5279.424 7267.504 3230.975 3278.987 2049.223 5025.895 1239.763 1510.326 8093.804 6332.252 2409.476 9077.520 1372.185
3307.751 9260.268 3807.299 3579.467 3009.447 2667.850 6671.759 4824.331 3188.262 2040.925 2776.050 3691.847 2459.019 1553.146 8699.624 6758.968 4372.211 2539.258 4433.529 2892.119 2657.474 5794.710 1594.919 4402.423 3568.791 6014.802 2962.103 3651.298 2714.873 3023.456 3375.605 427.908 4647.270 4746.352 3090.070 5819.243 3021.883 5565.083 3079.391 3123.735 1256.525 3659.357 9889.305 5696.115 7120.109 7824.816 10195.144 1736.986 0.000 2618.411 3973.540 3725.717 2926.119 4916.700 3932.395 3331.142 4511.437 7370.232 3611.623 3683.308 3220.813 6405.231 9756.461 3129.746 3637.111 5864.108 3708.513 3107.649 8472.805 7252.696 3640.848 2901.462 5601.822 4217.673 5691.015 6740.010 6985.421 2917.764 3650.045 5184.838 5385.901 3367.915 2769.817 2525.991 4121.593 5780.908 9162.421 3651.377 2080.052 1588.182 7546.205 3234.900 3548.529 2799.115 9880.981 3510.331 2724.967 2702.802 3299.194 6437.578 7783.258 4170.449 2990.038 5574.006 5981.966 2338.462 7013.794 1903.314 3569.261 331.213 4443.599 3789.882 3448.879 4666.822 4411.191 8391.821 4270.622 7538.942 3499.941 5026.409 4521.185 6073.926 9024.181 5231.190 1513.363 1565.602 3142.447 2529.093 495.894 3709.187 3572.525 4382.655 4690.744 2850.957 7596.938 10076.198 4018.238 7446.122 5193.719 3533.677 2570.503 5877.688 3322.945 3231.151 2325.624 5739.853 7475.558 10794.491 5878.105 9714.171 9447.116 4084.120 4099.160 2533.008 6083.085 3962.000 9385.139 3553.317 5865.664 4272.883 5273.134 2180.344 10122.208 6591.447 3632.665 5072.456 5656.733 5861.675 8791.209 3068.328 4355.127 2139.053 3555.889 3735.332 3603.691 4454.690 3805.844 3382.303 3638.861 3203.233 4868.128 7851.322 2494.153 1922.668 3623.711 6528.106 2627.244 3086.915 9715.443 7834.463 3733.779 10699.158 2946.673
946.961 6879.385 1426.417 1218.677 628.565 674.280 4490.067 2443.449 3946.356 514.607 2142.936 5551.689 932.701 1034.736 6725.533 4378.085 4918.780 158.376 5670.693 574.580 3017.845 3584.466 3052.901 5639.587 1208.000 4567.752 581.640 1270.416 333.990 642.574 1014.815 2621.367 2266.388 3246.789 729.279 4395.009 704.344 4140.849 3837.485 742.852 1714.342 5519.199 7915.214 6321.820 4739.227 5464.025 8013.452 826.210 2789.476 0.000 1592.658 1344.835 666.938 2735.008 1571.605 970.351 2952.287 6805.486 1230.741 1302.426 839.931 4024.348 7395.670 748.863 1256.228 4439.874 1347.723 772.428 9213.384 8340.761 1280.058 642.281 3220.940 1836.791 6431.595 5315.776 4604.538 658.583 1289.255 4844.255 3005.019 1007.125 352.540 208.451 1740.710 3400.026 7188.330 1270.495 2690.397 1346.809 6981.460 854.018 1187.739 418.232 7500.099 1149.540 2091.853 285.524 938.404 4255.886 7218.512 5407.613 890.039 3392.315 4007.875 416.700 4632.912 1964.593 1188.379 2720.555 2062.717 1409.000 1067.996 5903.986 2852.041 9132.400 1909.832 6974.197 1119.058 4461.663 2140.302 4649.693 7050.091 2850.308 980.590 1316.848 781.656 111.816 2580.637 1328.305 1211.734 2021.865 2309.861 832.260 9456.780 7695.316 1637.356 6881.376 2812.836 1152.794 153.226 3496.806 962.155 870.360 799.307 4294.946 5293.867 8612.800 7673.633 7532.479 7473.025 3519.374 1738.369 115.731 4658.851 1601.210 7411.049 1192.526 3484.782 1892.000 4153.157 347.526 8148.117 4210.564 1251.782 2691.574 5091.987 4437.441 6410.326 687.445 1974.244 371.812 1195.099 5595.174 1242.901 2073.807 1424.961 1021.513 2536.165 822.350 5826.120 7286.576 3591.912 4000.146 1262.920 4346.415 903.539 706.032 7334.561 5652.771 1938.637 8318.276 687.492
898.808 5744.990 480.210 511.717 984.051 1223.234 3962.734 1312.516 4347.843 1826.919 3308.144 6864.001 2121.534 2347.048 6249.007 3247.152 5421.307 1391.696 6983.004 1024.990 4183.053 2453.533 3825.735 6951.898 660.030 4519.599 1075.315 605.371 1311.219 808.592 966.662 3931.145 1131.992 3198.636 779.665 4346.856 1099.722 4092.696 4238.972 747.573 3026.653 6831.510 7867.061 6768.612 3604.831 4328.846 7372.944 2138.522 3903.372 1456.951 0.000 679.790 1160.613 2094.500 587.184 922.198 2904.134 7970.694 370.889 442.573 1035.903 2893.415 6260.491 987.603 591.184 4391.721 453.806 724.275 9614.872 8742.248 732.088 1135.957 2090.007 521.321 6833.082 5267.622 3473.605 1152.259 832.778 4796.102 1874.086 958.972 1104.411 1371.012 609.777 2269.093 6271.464 150.519 4002.708 2659.121 8146.668 961.359 639.768 1090.007 6365.703 301.626 3257.061 1171.427 890.250 3615.378 8383.720 6719.924 841.886 2453.203 3928.133 1729.012 3501.979 3276.905 505.915 3834.450 879.207 12.014 574.756 7216.297 2803.888 9533.888 604.510 8139.404 561.768 5626.871 956.792 4601.539 6573.565 1715.912 2292.902 2629.160 832.042 1345.136 3892.948 92.709 726.118 1069.556 1166.385 995.008 10464.188 6564.383 321.886 8046.584 1681.903 659.554 1303.726 2365.873 914.001 822.207 2035.388 4246.793 4653.358 7972.292 8985.945 6891.971 6773.838 4684.582 1281.893 1341.221 4610.698 1144.733 6844.799 644.556 2350.386 761.067 4696.791 1659.838 8099.964 3076.169 391.930 1557.178 6257.195 4389.288 5279.393 1099.670 839.848 1684.124 816.664 6907.485 535.942 832.738 27.975 845.609 2937.652 778.927 7138.432 8451.784 4269.186 4772.980 674.933 3819.082 1305.027 837.576 6200.165 5012.263 1890.484 7187.343 1181.168
1297.141 5864.058 599.279 902.217 1382.384 1621.568 4081.803 1431.584 4746.177 2225.253 3706.478 7262.334 2519.868 2745.382 6491.144 3366.221 5819.641 1790.030 7381.338 1423.323 4581.387 2572.601 4224.069 7350.232 1058.364 4917.933 1473.649 108.630 1709.552 1206.926 1364.995 4329.478 1251.061 3596.969 1177.999 4745.189 1498.055 4491.030 4637.306 1145.906 3424.987 7229.844 8265.395 7166.946 3723.900 4447.914 7492.012 2536.856 4301.705 1855.285 470.657 0.000 1558.947 2213.569 977.683 1320.532 3302.468 8369.028 769.223 840.907 1434.236 3012.484 6379.559 1385.936 94.442 4790.055 844.306 1122.609 10013.205 9140.582 1130.421 1534.290 2209.075 714.790 7231.416 5665.956 3592.674 1550.593 1231.112 5194.436 1993.154 1357.305 1502.745 1769.345 728.846 2388.161 6390.533 548.853 4401.042 3057.454 8545.001 1359.693 1038.102 1488.341 6484.772 699.959 3655.394 1569.761 1288.584 3734.446 8782.054 7118.258 1240.220 2572.272 4326.466 2127.345 3621.047 3675.238 904.249 4232.783 998.275 410.347 973.090 7614.631 3202.222 9932.221 797.978 8537.738 960.101 6025.205 1075.861 4999.873 6815.701 1834.980 2691.235 3027.494 1230.376 1743.469 4291.282 491.043 1116.618 1311.693 1285.453 1393.342 10862.522 6683.451 515.355 8444.917 1800.972 1057.888 1702.060 2484.941 1312.335 1220.541 2433.722 4645.126 4772.427 8091.360 9384.278 7011.039 6892.907 5082.916 1680.227 1739.554 5009.032 1543.067 6963.867 1042.889 2469.454 880.136 5095.125 2058.172 8498.297 3195.237 790.264 1676.246 6655.529 4787.621 5398.462 1498.003 958.917 2082.457 1214.997 7305.819 926.441 951.806 394.386 1243.943 3335.986 1177.261 7536.766 8850.118 4667.519 5171.314 1065.432 3938.150 1703.360 1235.909 6319.233 5131.332 2288.818 7306.411 1579.501
739.292 6892.491 1600.691 1011.008 548.816 62.621 5043.415 2531.985 3587.416 938.491 2566.819 5971.683 1356.585 1377.361 6465.520 4466.622 4677.135 542.564 6090.686 1091.922 3441.729 3673.002 3065.308 6059.580 1000.331 4287.758 393.644 1444.690 508.264 505.452 807.146 3041.361 2279.493 2966.795 521.610 4115.015 1257.692 3860.855 3478.545 917.126 2134.335 5939.192 7655.201 6024.440 4752.332 5256.356 8566.800 1168.835 3142.945 621.717 1496.658 1519.109 0.000 3288.357 1363.936 762.682 2672.293 7229.369 1236.575 1308.260 748.507 4112.885 7188.001 669.114 1430.503 4159.880 1140.054 539.189 8854.445 7981.821 1072.389 333.002 3309.477 1667.905 6072.655 5035.782 4693.075 349.305 1081.585 4564.261 3093.556 799.456 606.910 761.799 1829.247 3488.563 6928.317 1092.978 3110.390 1689.434 7405.343 1028.292 980.069 592.506 7513.204 941.871 2515.736 637.677 730.734 4809.234 7642.396 5827.606 421.578 3672.673 3747.862 730.751 4721.448 2384.587 1045.867 3074.023 2026.708 1231.483 1114.708 6323.979 2572.047 8773.460 1702.162 7398.080 1165.770 4885.547 2104.293 4369.699 6790.078 2863.413 1323.215 1736.842 573.987 532.398 3000.630 1150.788 1004.065 1814.196 2313.886 282.497 9703.761 7783.853 1463.318 7305.259 2901.373 1199.506 573.808 3585.343 754.485 662.691 1223.190 4014.952 5847.215 9166.148 8093.627 8085.827 7213.012 3943.258 1530.700 536.313 4378.857 1393.540 7151.035 984.857 3497.887 1980.537 4577.040 798.191 7888.104 4223.670 1257.616 2704.679 5515.871 4157.447 6498.863 607.696 1987.349 795.696 987.429 6015.167 1035.232 1980.239 1247.445 813.843 2177.225 996.625 6246.114 7710.460 3508.759 4012.553 1055.251 4899.763 544.600 534.435 7347.666 6206.120 1658.643 8406.813 378.213
3082.311 6429.566 1990.780 2683.332 3072.606 3277.974 1909.917 1391.714 6531.346 2869.624 3036.598 7677.322 2650.035 3635.667 7684.533 2257.462 7522.474 3011.974 7631.021 2807.407 3911.507 1010.001 5653.832 7599.915 2843.533 6703.102 3222.891 2460.452 3086.939 2992.096 3150.165 4747.000 2203.192 5382.139 2963.168 6530.359 2423.617 6276.199 6422.475 2836.128 3839.974 7644.831 9960.652 8925.514 3647.086 5371.075 5278.444 3427.141 4915.109 3077.229 2251.772 2534.871 3308.189 0.000 2758.798 3105.701 5087.637 7699.148 2482.752 2554.436 3219.406 2431.329 7302.720 3171.106 2446.264 6575.224 2625.421 2907.778 11798.375 10925.751 2915.591 3283.533 1942.346 2290.676 9016.585 7451.126 3325.945 3299.835 3016.281 6979.605 2150.917 3142.475 2988.006 2732.297 1742.526 2545.923 7313.693 2334.022 4173.774 3947.739 7875.122 2935.948 2823.271 3059.484 7050.280 2485.129 2985.515 2920.991 3073.754 1520.878 8112.174 7367.941 3025.389 688.161 5944.985 3020.394 3354.318 3483.238 2689.419 4846.187 1999.521 2195.517 2758.259 7864.314 4987.391 11717.391 2579.093 7867.859 2673.630 5355.325 2077.107 6785.042 7972.190 2400.488 3581.520 3442.481 3015.546 2965.413 4706.269 2276.212 2897.733 2791.312 2246.666 3178.512 11582.412 6416.722 2296.470 7775.038 1761.102 2843.057 2924.004 2218.212 3097.505 3005.710 2780.471 6430.296 2558.858 5877.792 9633.961 4797.471 7816.067 4413.036 3216.828 2961.498 6794.201 3064.969 7887.028 2828.059 3034.963 1463.615 4425.245 2948.457 10193.555 3760.745 2503.793 2496.261 5985.650 6572.791 4798.662 3271.394 1911.048 2972.743 3000.167 7720.806 2707.556 2260.353 2179.556 3029.112 5121.155 2874.662 7108.539 8180.238 6195.606 6238.679 2846.547 1729.091 3488.530 3021.079 6884.741 2917.763 4073.987 7039.682 3328.744
624.644 5956.949 1030.032 471.900 1168.718 1351.163 4512.556 1862.337 4409.039 2006.863 3635.191 7043.944 2424.957 2526.992 5693.550 3796.974 5300.345 1519.624 7162.948 1345.432 4510.101 3003.354 3940.598 7131.842 661.782 4398.637 1203.244 1007.137 1439.147 936.521 845.699 4046.008 1343.952 3077.673 907.594 4225.893 1437.447 3971.734 4300.168 1068.015 3206.597 7011.454 7648.283 6647.650 3816.791 3918.208 7922.766 2318.466 4018.234 1584.880 751.747 1081.556 1288.542 2644.322 0.000 801.236 2783.172 8297.741 772.654 844.339 1163.831 3443.237 5849.853 1115.531 992.950 4270.759 463.443 839.138 9676.068 8803.444 843.620 1263.885 2639.829 732.363 6894.278 5146.660 4023.427 1280.188 537.262 4675.140 2394.113 838.009 1232.340 1498.940 1159.599 2611.999 5860.826 552.285 4182.652 2784.894 8473.715 1281.801 649.582 1217.936 6446.803 581.206 3584.108 1299.356 769.288 4165.200 8710.768 6899.868 956.749 3003.025 3632.616 1908.955 4051.800 3456.848 745.529 3949.313 1091.166 575.170 814.369 7396.241 2682.926 9595.084 547.744 8466.452 865.431 5953.918 1168.752 4480.577 6018.108 1927.871 2472.845 2809.104 959.971 1473.064 4072.892 494.475 359.870 514.100 1378.344 1109.871 10579.051 7114.205 527.776 8373.631 2231.725 899.167 1431.654 2915.695 793.039 701.245 2291.562 4125.830 5203.180 8522.113 9165.888 7441.793 6363.200 5011.629 939.615 1469.149 4489.736 787.756 6379.065 756.088 2562.345 1310.889 5098.557 1839.782 7881.186 3288.128 793.696 1769.137 6584.243 4268.325 5829.215 1227.598 1051.808 1864.067 521.147 7087.429 496.124 665.446 591.131 550.092 2949.362 1099.369 7318.376 8778.831 4384.048 4887.843 308.685 4368.904 1419.890 965.504 6412.124 5562.085 1769.522 7737.165 1309.096
212.513 6521.474 1421.792 639.991 603.385 785.830 4904.316 2254.098 3643.388 1441.530 3069.859 6478.612 1859.624 1961.659 5810.747 4188.734 4534.693 954.292 6597.616 1152.019 3944.768 3395.115 3375.266 6566.510 629.314 3632.985 637.911 1385.562 873.815 371.189 44.464 3480.675 1908.476 2312.022 342.261 3460.242 1341.910 3206.082 3534.517 977.223 2641.264 6446.122 7000.428 5881.998 4381.315 4729.577 8314.526 1753.133 3452.902 1019.548 1218.770 1459.981 723.210 3036.082 837.157 0.000 2017.520 7732.409 958.687 1030.372 598.499 3834.997 6661.222 550.199 1371.375 3505.107 769.037 273.806 8910.416 8037.793 728.876 698.553 3031.589 1296.888 6128.627 4381.009 4415.187 714.855 432.938 3909.488 2815.668 150.808 667.008 933.608 1551.359 3176.523 6273.544 815.090 3617.319 2219.562 7908.382 1088.389 534.838 652.604 7142.187 663.983 3018.775 734.023 31.948 4556.960 8145.435 6334.536 391.417 3394.785 3093.089 1343.623 4443.561 2891.516 767.980 3383.980 1655.691 953.596 836.820 6830.909 1917.274 8829.432 1245.801 7901.119 887.882 5388.586 1733.277 3714.925 6135.304 2492.396 1907.513 2243.771 394.639 907.732 3507.560 872.900 477.286 1165.548 1942.869 544.539 10013.718 7505.965 1092.301 7808.299 2623.485 921.618 866.322 3307.455 99.705 135.912 1726.230 3360.179 5594.940 8913.874 8600.556 7833.553 6558.239 4446.297 882.052 903.817 3724.084 744.893 6496.262 641.344 3126.870 1702.649 5080.079 1274.449 7233.331 3852.653 979.728 2333.662 6018.910 3502.674 6220.975 662.266 1616.332 1298.735 338.782 6522.096 664.215 1476.816 969.557 287.065 2183.711 1056.722 6753.043 8213.499 3818.716 4322.511 528.472 4760.664 854.557 400.172 6976.649 5953.845 1003.870 8128.925 743.764
2265.787 7516.282 3475.066 2693.265 2656.659 2747.706 6957.590 4307.372 3534.818 3245.628 4873.956 7353.682 3663.722 3684.498 4757.674 6242.008 3207.889 2849.700 8397.823 3205.293 5748.866 5448.389 3992.448 8366.717 2682.588 2138.464 2691.185 3438.836 2835.691 2424.463 2080.315 4752.875 3961.750 538.748 2395.535 1686.968 3395.184 1432.808 3425.948 3030.497 4441.472 7321.192 6109.148 4555.195 6434.589 5452.641 10367.800 3475.972 4685.936 2928.854 3272.044 3513.255 2685.085 5089.356 2890.431 2124.779 0.000 9536.506 3011.961 3083.646 2651.773 5888.271 5929.033 2603.473 3424.649 1731.833 2822.311 2327.079 8129.701 7842.553 2782.150 2660.429 5084.863 3350.162 5527.295 2607.734 6468.461 2676.731 2557.717 2414.967 4868.942 2275.587 2720.281 2986.882 3604.633 5229.797 5220.471 2868.364 5417.527 3496.977 9712.480 3141.663 2588.112 2705.877 7643.309 2717.257 4822.873 2787.297 2156.727 6610.234 9949.533 8134.743 2444.691 5448.059 2482.343 3037.887 6496.835 4691.723 2821.254 4617.015 3708.965 3006.870 2890.094 8631.116 190.460 7824.987 3299.075 9705.217 2941.156 7192.684 3786.550 1941.651 5082.232 4545.670 3630.352 4043.979 2447.912 2839.535 4826.077 2926.174 2530.560 3046.999 3996.143 2597.813 10630.901 9559.239 3145.575 9612.396 4676.759 2974.892 2880.945 5360.729 2135.556 2189.186 3530.327 1607.577 7648.214 10967.148 9317.982 9886.827 5505.166 6250.395 2674.124 2843.450 1950.810 2548.223 5443.189 2694.618 5180.144 3755.923 6884.177 3105.328 6342.051 5365.536 3033.002 4386.936 7823.008 1729.400 8274.249 2715.540 3669.606 3102.833 2463.561 7397.166 2717.489 3470.018 3022.831 2340.339 949.410 3109.996 8553.251 10017.597 3164.175 4939.694 2581.746 6813.938 2103.370 2453.446 7971.457 8007.119 1466.163 10182.199 2705.640
7580.565 13361.278 7908.309 7852.281 7262.168 7270.327 9056.993 8459.570 9823.013 6194.917 4566.589 7617.975 5776.823 6581.595 13359.137 9822.609 10779.238 7004.326 5470.313 7021.816 4639.493 8474.012 8303.991 5124.448 7841.604 11201.356 7215.243 7752.308 7079.291 7276.177 7648.419 6859.912 8748.281 9880.393 7362.883 11028.613 7054.710 10774.453 9714.143 7331.336 6204.218 7650.465 14548.818 12182.278 10941.801 12051.808 8883.061 6546.174 7101.794 7069.581 8074.550 7826.727 7300.541 7596.002 8205.208 7603.955 9585.891 0.000 7774.608 7846.293 7473.534 9811.442 13983.453 7382.467 7738.121 11073.478 7981.327 7406.032 13905.033 12023.394 7913.662 7275.885 9237.062 8318.683 12323.443 11949.379 10620.660 7292.187 7922.858 11072.190 9218.773 7640.729 6980.359 6724.649 8222.603 9613.780 13821.934 7879.473 5526.528 6845.195 216.941 7431.156 7821.342 7051.836 13981.992 7783.144 4617.672 6913.343 7572.007 9046.697 453.994 4821.834 7523.643 8253.309 10641.479 6872.393 10649.034 5775.939 7797.357 7032.873 8544.609 7934.776 7676.974 5388.847 9485.645 14326.557 8401.872 274.501 7728.036 2612.674 8622.195 11283.296 13683.694 9332.200 6541.812 5965.984 7415.260 6957.766 6774.299 7854.080 7845.338 8655.468 8791.754 7465.863 12005.829 13605.808 8119.248 116.857 8828.958 7761.773 6916.356 9512.928 7595.758 7503.964 5995.435 10928.550 7904.707 9482.409 8013.729 8402.088 14106.629 3330.283 8371.973 6953.850 11292.455 8234.813 14044.652 7826.130 9966.674 8373.893 4788.414 6379.003 14781.721 10692.457 7795.649 9173.466 2921.080 11071.045 11370.340 7321.049 8456.137 6337.712 7828.702 7651.093 7876.505 8555.700 7950.737 7655.116 9131.064 7369.870 3608.278 522.058 9301.157 8109.960 7896.524 8951.648 7499.586 7339.636 13816.453 7826.215 8572.241 14228.768 7321.096
1135.008 6053.208 600.239 906.907 613.162 1013.794 4267.490 1617.271 4387.879 1462.002 2948.781 6499.084 1756.617 1982.131 6702.308 3551.908 5477.598 1182.256 6618.087 654.101 3823.690 2758.288 3865.771 6586.981 896.230 4755.800 865.875 444.238 1101.779 845.358 1202.862 3568.762 1440.211 3434.836 867.450 4583.056 740.359 4328.896 4279.008 376.684 2661.736 6466.594 8103.261 6824.903 3913.050 4743.738 7677.700 1773.605 3736.871 1247.511 766.481 518.657 951.173 2399.256 1040.485 1158.398 3140.335 7611.331 0.000 71.685 789.986 3198.171 6675.383 733.460 430.051 4627.922 907.107 960.475 9654.908 8782.284 968.288 926.517 2394.762 1010.613 6873.118 5503.823 3778.361 942.819 1068.979 5032.302 2178.842 1195.172 894.971 1075.998 914.533 2573.848 6686.356 603.820 3637.791 2294.204 7787.305 590.470 875.969 880.567 6673.922 754.927 2897.698 961.987 1126.451 3920.133 8024.357 6355.007 1078.086 2757.959 4164.333 1364.095 3806.734 2911.988 838.396 3667.949 1236.539 626.706 718.014 6851.381 3040.088 9573.923 1093.802 7780.041 190.879 5267.508 1314.125 4837.740 7026.866 2024.130 1927.985 2264.243 815.073 1135.696 3528.032 546.010 985.753 1522.858 1483.684 1035.044 10404.174 6869.139 811.178 7687.221 1986.659 802.812 1094.286 2670.629 1150.202 1058.407 1670.472 4482.993 4958.114 8277.047 8621.028 7196.727 7188.731 4325.219 1518.093 1131.781 4846.898 1380.934 7259.691 880.756 2658.604 1065.823 4337.428 1294.921 8336.164 3384.387 21.041 1865.396 5897.832 4625.488 5584.149 811.950 1148.067 1319.207 1052.864 6542.568 931.131 1247.630 642.667 1081.809 2977.688 408.038 6773.515 8092.421 4309.222 4813.016 1036.939 4123.837 1345.063 908.817 6508.383 5317.019 2126.684 7492.099 971.728
1164.610 6082.810 629.842 936.509 642.764 1043.396 4297.092 1646.873 4417.481 1491.604 2978.383 6528.686 1786.219 2011.733 6731.910 3581.510 5507.200 1211.858 6647.690 683.703 3853.293 2787.890 3895.373 6616.584 925.832 4785.402 895.478 473.840 1131.381 874.961 1232.464 3598.364 1469.813 3464.438 897.052 4612.658 769.961 4358.498 4308.610 406.286 2691.338 6496.196 8132.864 6854.505 3942.652 4773.340 7707.302 1803.207 3766.473 1277.114 796.083 548.259 980.776 2428.858 1070.087 1188.000 3169.937 7640.933 496.140 0.000 819.588 3227.773 6704.985 763.062 459.653 4657.524 936.709 990.077 9684.510 8811.886 997.890 956.119 2424.365 1040.215 6902.720 5533.425 3807.963 972.421 1098.581 5061.904 2208.444 1224.774 924.574 1105.600 944.135 2603.451 6715.958 633.422 3667.393 2323.806 7816.907 620.072 905.571 910.170 6703.524 784.529 2927.300 991.589 1156.053 3949.736 8053.960 6384.610 1107.689 2787.561 4193.935 1393.697 3836.337 2941.590 867.998 3697.551 1266.141 656.308 747.616 6880.983 3069.691 9603.526 1123.404 7809.644 687.019 5297.110 1343.727 4867.342 7056.468 2053.732 1957.587 2293.845 844.675 1165.298 3557.634 575.612 1015.355 1552.460 1513.286 1064.647 10433.777 6898.741 840.780 7716.823 2016.261 832.414 1123.888 2700.231 1179.804 1088.009 1700.074 4512.595 4987.716 8306.650 8650.630 7226.329 7218.333 4354.821 1547.695 1161.383 4876.500 1410.536 7289.293 910.358 2688.207 1095.425 4367.030 1324.523 8365.766 3413.989 50.643 1894.998 5927.435 4655.090 5613.751 841.552 1177.669 1348.809 1082.466 6572.170 960.733 1277.232 672.269 1111.411 3007.290 437.640 6803.117 8122.023 4338.824 4842.619 1066.541 4153.440 1374.665 938.419 6537.985 5346.621 2156.286 7521.701 1001.330
531.697 6370.322 1177.511 488.839 212.900 613.532 4660.035 2009.816 3974.408 1269.232 2897.560 6306.314 1687.326 1789.361 6310.270 3944.453 5054.197 781.994 6425.317 677.440 3772.470 3150.833 3452.300 6394.211 478.162 4152.489 465.613 1030.207 701.517 243.055 599.551 3375.992 1757.324 2831.525 256.237 3979.745 867.331 3725.586 3865.538 502.644 2468.966 6273.824 7499.951 6401.502 4230.163 4819.299 8070.245 1580.835 3529.937 847.249 974.489 1104.626 550.911 2791.801 927.555 555.088 2537.024 7560.110 714.406 786.090 0.000 3590.716 6750.944 204.733 1016.020 4024.611 617.885 357.165 9241.437 8368.813 550.220 526.255 2787.307 1145.736 6459.647 4900.512 4170.906 542.557 650.910 4428.992 2571.387 591.861 494.709 761.309 1307.078 2966.393 6761.918 570.809 3445.021 2101.434 7736.084 613.810 457.900 480.305 6991.035 419.702 2846.477 561.725 523.140 4312.678 7973.137 6162.237 474.776 3150.504 3592.612 1171.325 4199.279 2719.218 523.698 3461.015 1504.539 709.314 592.539 6658.610 2436.778 9160.453 1179.993 7728.821 643.601 5216.288 1582.124 4234.429 6634.827 2341.244 1735.215 2071.473 203.860 735.434 3335.261 628.619 567.685 1383.521 1791.717 621.574 10090.753 7261.684 941.149 7636.000 2379.204 677.337 694.024 3063.174 546.891 455.097 1553.931 3879.682 5350.659 8669.592 8428.258 7589.272 7057.761 4273.999 1100.025 731.519 4243.588 962.865 6995.785 462.688 2975.718 1458.368 4846.420 1102.151 7732.853 3701.501 735.447 2182.510 5846.612 4022.177 5976.694 411.688 1465.180 1126.437 634.796 6349.798 513.063 1458.070 725.275 606.249 2564.217 582.142 6580.745 8041.201 3895.751 4399.546 618.871 4516.382 931.592 306.513 6825.497 5709.564 1523.374 7884.644 571.466
3817.330 5823.233 2725.799 3418.351 3822.293 4141.757 3554.069 1627.845 7266.365 4513.547 5169.470 9550.629 4782.907 5033.676 7968.530 780.135 8339.830 4310.218 9669.633 3749.266 6044.380 1590.318 6744.258 9638.527 3578.552 7438.122 3993.838 3195.471 4229.741 3727.115 3885.184 6620.307 2819.071 6117.158 3698.188 7265.378 3786.350 7011.218 7157.495 3585.815 5713.281 9518.139 10695.671 9687.135 2468.717 5655.072 5725.326 4825.150 6788.416 4375.474 2986.791 3269.890 4079.136 2363.330 3493.818 3840.720 5822.657 9832.020 3217.771 3289.455 3954.425 0.000 7586.717 3906.125 3181.284 7310.244 3360.440 3642.797 12533.394 11660.770 3650.610 4054.479 1142.241 3025.695 9751.605 8186.145 1715.444 4070.781 3751.301 7714.624 2014.607 3877.494 4022.934 4127.543 2477.546 2409.614 7597.690 3069.042 6306.647 5345.749 10007.994 3685.635 3558.291 4008.530 6746.582 3220.148 5118.387 4089.950 3808.773 2809.980 10245.047 9406.552 3760.409 1752.283 6680.004 4415.640 1686.382 5616.111 3424.438 6719.494 2734.540 2930.536 3493.278 9902.926 5722.411 12452.410 3314.113 10000.731 3408.650 7488.198 2812.126 7520.062 8256.187 3009.824 4979.530 5315.788 3750.565 4263.658 6579.577 3011.231 3632.752 3526.332 2945.805 3913.531 13382.710 4610.093 3031.489 9907.910 1574.168 3578.077 4222.248 944.807 3832.524 3740.729 4722.017 7165.315 3594.617 6324.673 11672.573 5244.353 8100.064 6545.909 3951.847 4259.743 7529.221 3799.988 8171.024 3563.078 3318.959 2198.634 6558.117 4346.466 10928.574 3690.907 3238.812 3106.376 8118.522 7307.810 2794.815 4018.192 2646.068 4370.752 3735.186 9594.113 3442.576 2995.372 2914.575 3764.131 5856.175 3624.350 9241.412 10313.111 7187.708 7691.503 3581.567 3121.891 4223.549 3756.098 6278.409 3953.522 4809.006 5233.053 4099.690
6508.793 6575.952 6206.242 6356.049 7052.867 7235.312 9267.535 6444.306 8888.084 7891.012 9519.340 12587.287 8309.106 8411.141 1363.165 8029.589 7601.621 7403.774 13047.097 7229.581 10394.250 7488.808 9571.696 13015.991 6545.931 5690.576 7087.393 6726.613 7323.296 6820.670 6729.849 9930.157 5545.707 6051.957 6791.743 4779.249 7317.492 5018.707 8779.214 6952.164 9090.746 12554.797 5598.886 8304.454 5796.566 2492.388 12677.745 8202.615 9902.384 7469.029 6313.662 6801.032 7172.691 7399.301 5909.936 6685.385 6266.619 14181.890 6656.804 6728.488 7047.980 7675.852 0.000 6999.680 6712.426 4697.397 6347.592 6723.287 11878.960 11591.812 6727.769 7148.034 6544.970 6080.158 9276.554 4359.036 7227.783 7164.337 6400.195 5959.153 5877.094 6722.159 7116.489 7383.089 6184.120 5792.792 1420.463 6436.434 10066.801 8669.044 14357.864 7165.950 6533.731 7102.085 3809.403 6465.355 9468.257 7183.505 6653.437 8920.179 14594.917 12784.017 6840.898 7642.598 4083.112 7793.104 7181.574 9340.998 6629.678 9833.462 6007.557 6298.593 6698.518 13280.390 6457.079 11574.246 5926.349 14350.601 6749.580 11838.068 6085.143 4408.707 1521.954 5052.937 8356.995 8693.253 6844.120 7357.214 9957.041 6378.624 6244.020 5892.704 5672.441 6994.021 15864.506 8569.531 6064.755 14257.780 6269.279 6783.317 7315.804 6820.836 6677.188 6585.394 8175.711 5615.230 9958.159 13277.093 14897.230 12196.772 1219.261 10895.779 6318.220 7353.298 4757.273 6166.361 1290.222 6640.237 4694.937 6335.410 10816.712 7723.931 5831.788 4223.023 6677.845 5145.327 12468.392 5337.412 9292.628 7111.747 5837.851 7748.217 6405.296 12630.771 6380.273 5810.031 6282.632 6434.241 7216.028 6983.518 13202.525 14662.981 8743.423 10173.299 6192.834 9123.883 7304.039 6849.653 7059.499 10317.064 7520.326 8097.393 7193.245
499.938 6653.137 1304.468 771.654 247.066 429.511 4942.851 2292.632 3803.595 1085.210 2713.539 6122.292 1503.305 1605.339 6278.511 4227.269 4893.314 597.972 6241.296 795.700 3588.448 3433.649 3281.488 6210.190 760.978 4120.730 281.592 1148.467 517.495 195.551 567.793 3191.970 2040.140 2799.767 282.257 3947.986 985.591 3693.827 3694.725 620.904 2284.945 6089.802 7468.192 6240.620 4512.979 5017.003 8353.060 1396.813 3359.124 663.228 1257.305 1222.886 366.890 3074.617 1124.582 523.329 2505.265 7376.089 997.222 1068.906 438.606 3873.532 6948.648 0.000 1134.280 3992.852 900.700 325.406 9070.624 8198.000 833.035 342.233 3070.123 1428.552 6288.834 4868.753 4453.722 358.535 842.232 4397.233 2854.202 560.103 310.688 577.288 1589.894 3249.209 6741.307 853.625 3261.000 1917.412 7552.063 732.069 740.716 296.284 7273.851 702.518 2662.456 377.703 491.381 4595.494 7789.115 5978.216 443.017 3433.320 3560.853 987.303 4482.095 2535.196 806.514 3290.202 1787.355 992.130 875.355 6474.589 2405.019 8989.640 1462.809 7544.800 926.417 5032.266 1864.940 4202.670 6603.068 2624.060 1551.193 1887.451 334.634 551.412 3151.240 911.435 764.712 1574.842 2074.533 450.761 9919.940 7544.499 1223.964 7451.979 2662.020 960.153 510.002 3345.990 515.132 423.338 1369.910 3847.923 5633.475 8952.408 8244.236 7872.087 7026.003 4089.977 1291.347 547.497 4211.829 1154.187 6964.026 745.504 3258.534 1741.184 4723.760 918.129 7701.094 3984.316 1018.263 2465.326 5662.590 3990.419 6259.510 305.946 1747.996 942.415 748.076 6165.777 795.879 1740.886 1008.091 574.490 2393.404 700.402 6396.723 7857.179 3724.938 4228.733 815.898 4799.198 760.779 259.010 7108.313 5992.380 1491.615 8167.459 387.444
1208.535 5775.452 510.673 813.611 1293.778 1532.962 3993.197 1342.978 4657.570 2136.646 3617.871 7173.728 2431.262 2656.775 6402.538 3277.615 5731.034 1701.423 7292.732 1334.717 4492.781 2483.995 4135.463 7261.626 969.757 4829.327 1385.043 14.187 1620.946 1118.320 1276.389 4240.872 1162.454 3508.363 1089.393 4656.583 1409.449 4402.423 4548.700 1057.300 3336.381 7141.238 8176.789 7078.340 3635.293 4359.308 7403.406 2448.249 4213.099 1766.679 382.051 94.442 1470.341 2124.962 889.077 1231.925 3213.862 8280.421 680.616 752.301 1345.630 2923.878 6290.953 1297.330 0.000 4701.449 755.699 1034.002 9924.599 9051.975 1041.815 1445.684 2120.469 626.183 7142.810 5577.350 3504.068 1461.986 1142.506 5105.829 1904.548 1268.699 1414.139 1680.739 640.240 2299.555 6301.926 460.246 4312.435 2968.848 8456.395 1271.087 949.496 1399.735 6396.165 611.353 3566.788 1481.154 1199.978 3645.840 8693.448 7029.652 1151.614 2483.665 4237.860 2038.739 3532.441 3586.632 815.643 4144.177 909.669 321.741 884.483 7526.025 3113.616 9843.615 709.372 8449.132 871.495 5936.599 987.255 4911.267 6727.095 1746.374 2602.629 2938.887 1141.770 1654.863 4202.676 402.436 1028.012 1223.087 1196.847 1304.736 10773.915 6594.845 426.748 8356.311 1712.365 969.282 1613.453 2396.335 1223.729 1131.934 2345.116 4556.520 4683.821 8002.754 9295.672 6922.433 6804.301 4994.310 1591.620 1650.948 4920.425 1454.461 6875.261 954.283 2380.848 791.530 5006.518 1969.565 8409.691 3106.631 701.657 1587.640 6566.923 4699.015 5309.855 1409.397 870.310 1993.851 1126.391 7217.212 837.835 863.200 305.780 1155.336 3247.379 1088.654 7448.159 8761.512 4578.913 5082.708 976.826 3849.544 1614.754 1147.303 6230.627 5042.725 2200.211 7217.805 1490.895
3665.599 7683.079 4769.906 3954.240 4195.369 4286.416 8252.430 5602.211 4598.612 4784.337 6412.666 8417.476 5202.431 5223.207 3181.650 7536.848 4130.226 4388.410 9585.800 4744.003 7287.575 6743.228 5056.242 9764.568 4029.861 1673.539 4229.895 4845.452 4374.400 3963.172 3619.025 5816.669 5083.826 1536.503 3934.245 447.862 4919.788 321.310 4489.742 4550.355 5980.181 8384.986 4533.124 5255.260 7105.875 5173.944 11662.639 5014.681 5749.730 4467.563 4630.521 4919.871 4223.795 6384.196 4099.710 3663.489 1751.165 11075.216 4418.577 4490.261 4190.482 7183.111 4353.009 4142.182 4831.265 0.000 4083.286 3865.789 8829.766 8542.618 4129.423 4199.138 6379.702 4472.237 6227.359 1031.710 7763.301 4215.440 3673.387 2909.959 6133.987 3814.297 4258.991 4525.591 4899.473 6351.873 3644.447 4274.980 6956.236 5035.687 11251.189 4680.372 3935.385 4244.587 7795.487 4123.873 6361.582 4326.007 3695.436 7905.073 11488.242 9532.594 3983.400 6742.899 1242.193 4576.597 7791.674 6230.433 4227.869 5680.808 4831.040 4413.485 4296.710 10028.967 1941.625 8525.051 4286.624 11243.926 4347.772 8731.393 4908.626 365.627 3506.208 5667.745 5169.061 5582.688 3986.622 4378.245 5926.839 4332.790 3739.839 3981.307 5118.218 4136.522 11694.695 10395.148 4406.550 11151.106 5971.599 4381.508 4419.655 6655.569 3674.266 3727.896 5069.037 1099.776 8943.054 12261.987 10381.776 11181.667 3929.142 7789.104 3469.035 4382.160 407.240 3482.531 3867.165 4041.891 6004.246 5050.763 8422.886 4644.037 4766.027 5532.333 4439.618 5509.011 9361.717 973.455 9569.089 4254.249 4791.682 4641.542 3579.231 8460.960 3978.464 4404.326 4429.446 3709.422 2700.574 4581.709 9759.174 11556.306 4227.969 6003.488 3791.025 8108.777 3642.080 3992.155 8138.254 9301.959 3004.872 10731.228 4244.349
579.059 5823.571 896.654 129.046 937.549 1119.994 4379.178 1728.960 4244.603 1775.694 3315.329 6812.775 2105.094 2295.823 6177.851 3663.596 5254.760 1288.455 6931.779 1002.578 4190.238 2869.977 3722.495 6900.673 318.928 4353.052 972.075 872.818 1207.978 705.352 800.115 3827.904 1210.574 3032.089 676.425 4180.309 1094.593 3926.149 4135.732 725.161 2975.428 6780.285 7602.698 6602.065 3683.413 4402.509 7789.388 2087.297 3800.131 1353.711 618.369 947.237 1057.373 2510.944 516.028 755.651 2737.587 7977.879 445.943 517.628 932.662 3309.859 6334.154 884.362 858.631 4225.174 0.000 621.035 9511.631 8639.008 554.892 1032.716 2506.451 598.986 6729.842 5101.075 3890.049 1049.019 491.677 4629.555 2260.735 792.425 1001.171 1267.771 1026.221 2478.621 6345.127 302.346 3951.483 2566.791 8153.853 938.947 462.572 986.767 6444.285 241.594 3264.246 1068.187 723.703 4031.822 8390.905 6668.699 738.646 2869.647 3587.031 1677.786 3918.423 3225.679 402.675 3731.209 957.789 440.851 471.515 7165.072 2637.341 9430.647 677.022 8146.589 522.577 5634.056 1035.374 4434.992 6502.409 1794.493 2241.676 2577.935 728.802 1241.895 3841.723 360.156 343.447 998.401 1244.966 891.768 10360.948 6980.827 394.398 8053.769 2098.347 556.314 1200.485 2782.317 747.454 655.660 2018.949 4080.246 5069.802 8388.736 8934.719 7308.415 6847.501 4691.767 940.791 1237.980 4444.151 803.632 6863.366 467.360 2428.968 1177.511 4783.371 1608.613 7835.601 3154.750 466.984 1635.759 6264.380 4222.741 5695.837 996.429 918.430 1632.899 475.562 6856.260 153.270 911.320 456.813 504.507 2834.412 756.515 7087.207 8458.969 4165.945 4669.740 292.261 4235.526 1201.786 734.335 6278.747 5428.707 1723.937 7603.787 1077.927
220.070 6373.269 1180.458 491.786 362.051 544.496 4662.982 2012.763 3623.568 1200.196 2828.525 6237.278 1618.290 1720.325 5998.642 3947.400 4713.287 712.958 6356.282 910.685 3703.434 3153.780 3101.460 6325.175 481.109 3840.861 396.577 1144.228 632.481 129.854 287.924 3206.870 1760.271 2519.898 100.927 3668.118 1100.576 3413.958 3514.697 735.889 2399.930 6204.788 7188.323 6060.592 4233.110 4737.134 8073.192 1511.799 3179.097 778.213 977.436 1218.647 481.875 2794.748 844.714 243.460 2225.396 7491.075 717.353 789.038 357.165 3593.663 6668.779 308.865 1130.041 3712.983 620.832 0.000 8890.597 8017.973 553.167 457.219 2790.255 1148.683 6108.807 4588.884 4173.853 473.521 562.363 4117.364 2574.334 280.234 425.673 692.274 1310.025 2969.341 6461.439 573.756 3375.985 1945.757 7667.048 847.055 460.847 411.269 6993.982 422.649 2777.441 492.689 211.512 4315.626 7904.101 6093.201 117.611 3153.451 3280.984 1102.289 4202.226 2650.182 526.645 3110.175 1507.486 712.261 595.486 6589.575 2125.150 8809.613 1182.940 7659.785 646.548 5147.252 1585.072 3922.801 6323.200 2344.191 1666.179 2002.437 153.304 666.398 3266.226 631.566 484.843 1294.974 1794.664 270.734 9739.913 7264.631 944.096 7566.964 2382.151 680.284 624.988 3066.121 235.263 143.469 1484.896 3568.055 5353.606 8672.539 8359.222 7592.219 6746.134 4204.963 1011.478 662.483 3931.960 874.318 6684.157 465.635 2978.665 1461.315 4838.745 1033.115 7421.226 3704.448 738.394 2185.457 5777.576 3710.550 5979.641 420.932 1468.127 1057.401 468.207 6280.762 516.010 1461.017 728.223 294.621 2213.377 815.388 6511.709 7972.165 3544.911 4048.705 536.029 4519.330 580.752 158.838 6828.444 5712.511 1211.746 7887.591 502.430
8959.343 15174.797 10102.211 9386.821 9050.336 8921.800 13429.903 11000.927 6755.251 9324.979 10489.691 6311.617 9743.073 8665.345 10585.707 12935.564 5041.692 8929.051 8773.433 9514.416 10699.581 12141.944 7268.993 9272.272 9376.144 7715.534 8895.164 9946.210 9009.785 9006.972 8773.871 8292.778 10655.306 8375.741 9023.130 8273.080 9644.180 8599.001 6646.381 9418.647 9308.618 6279.127 9553.871 3828.974 13128.145 12578.001 16953.288 8939.879 8225.839 9008.205 9965.600 10020.629 8859.179 11674.844 9583.987 8818.335 8134.625 13841.209 9705.517 9777.202 9250.027 12581.827 11757.066 9170.635 9932.023 8600.909 9515.867 9020.635 0.000 2040.950 9475.706 8834.523 11778.419 10043.718 3078.019 8728.867 13162.017 8850.825 9251.273 6415.747 11562.498 8969.143 9108.431 9148.287 10298.189 11923.353 11048.503 9561.920 10122.159 8377.153 13945.012 9529.812 9281.667 9094.027 15199.544 9410.813 10438.608 9092.595 8850.283 13195.722 14051.336 9117.314 8923.098 12141.615 9843.102 9117.238 13190.391 9775.053 9514.809 8156.917 10402.521 9700.425 9583.650 9286.339 8034.379 1286.857 9992.631 13675.008 9634.712 11991.943 10480.106 8609.383 10910.264 11239.226 8847.005 9279.243 9075.507 8918.886 8402.948 9619.730 9224.116 9983.883 10689.699 8784.018 7292.978 16252.795 9839.131 13917.098 11370.315 9668.448 8960.296 12054.285 8829.112 8882.742 9609.678 8330.163 14233.703 17552.636 9569.409 16472.315 11333.198 11866.129 9663.049 8922.801 8819.885 9537.148 11271.222 9388.174 11873.700 10449.479 12963.528 9184.678 9299.859 12599.482 9726.558 11080.492 12404.736 8831.243 14967.805 9109.217 10363.162 9182.184 9157.117 6355.102 9411.045 10223.646 9716.387 9033.895 7554.649 9498.145 10694.591 14322.299 7088.496 7769.033 9275.302 13286.251 8375.947 9035.955 15629.972 14592.607 8159.719 16875.755 8879.734
8258.403 14560.167 9268.368 8678.684 8216.492 8087.956 12596.060 10199.662 5921.408 8491.135 9432.787 4351.196 8909.229 7831.502 10364.068 12134.299 4820.052 8095.208 6813.011 8680.572 9033.391 11340.679 5940.379 7311.850 8668.008 7493.894 8061.320 9112.366 8175.941 8173.129 8072.932 6964.164 9947.170 8154.102 8189.287 8051.440 8810.336 8377.362 5812.537 8584.803 7980.003 4318.705 10429.602 3607.335 12420.009 12356.362 16119.444 8106.035 6897.225 8174.361 9164.334 9186.785 8025.336 10841.001 8883.047 8117.396 7912.985 11880.787 8904.252 8975.936 8416.183 11780.562 11535.426 8336.791 9098.179 8379.269 8807.730 8206.866 2041.681 0.000 8740.065 8000.679 10977.153 9335.582 2463.685 8507.228 12360.752 8016.981 8550.334 6194.108 10761.232 8268.204 8274.587 8314.444 9496.924 11156.239 10826.864 8760.655 8481.428 7543.310 11984.590 8695.968 8580.728 8260.183 14977.904 8609.548 9448.446 8258.751 8149.343 12361.878 12090.914 7156.892 8089.255 11340.350 9621.462 8283.395 12389.125 8626.793 8713.544 6828.303 9694.385 8899.160 8782.385 7325.917 7812.739 2463.205 9291.692 11714.586 8833.447 10031.521 9771.970 8387.744 10688.625 10531.089 8013.162 8289.081 8241.664 8085.042 7074.334 8818.465 8523.177 9282.944 9981.563 7950.174 5281.618 15451.529 9130.994 11956.677 10569.050 8867.183 8126.452 11253.019 8128.173 8181.803 8775.835 8108.524 13399.859 16718.792 7608.987 15638.471 11111.559 10460.037 8999.448 8088.958 8598.246 8862.289 11049.583 8652.534 11165.564 9648.214 11649.051 8350.835 10175.590 11891.346 8925.293 10372.355 10444.314 8609.604 14166.540 8275.373 9655.026 8348.340 8456.178 4394.680 8702.909 9522.706 8915.121 8332.955 7333.010 8664.301 8734.169 12361.877 6254.652 5991.675 8574.363 12452.407 7542.104 8202.112 15015.343 13758.764 7933.323 16074.489 8045.890
675.244 6307.273 1189.183 425.790 1070.244 1252.689 4671.707 2021.489 4377.298 1908.389 3448.024 6945.471 2237.790 2428.518 6400.874 3956.125 5350.945 1421.151 7064.475 1135.273 4322.934 3162.506 3855.190 7033.369 415.113 4449.237 1104.770 1152.953 1340.674 838.048 896.300 3960.600 1694.275 3128.274 809.120 4276.493 1227.289 4022.334 4268.427 857.856 3108.123 6912.981 7698.883 6698.250 4167.114 4756.251 8081.917 2219.992 3932.827 1486.406 986.161 1227.372 1190.069 2803.473 864.507 851.836 2833.772 8110.574 726.078 797.763 1065.358 3602.388 6687.896 1017.058 1138.766 4321.359 554.836 753.730 9644.327 8771.703 0.000 1165.412 2798.980 1082.687 6862.537 5197.260 4182.578 1181.714 587.862 4725.740 2583.059 888.610 1133.866 1400.467 1318.750 2962.322 6698.869 582.481 4084.178 2699.487 8286.548 1071.643 244.076 1119.462 6927.986 431.374 3396.941 1200.882 819.888 4324.351 8523.601 6801.395 871.341 3162.176 3683.216 1810.482 4210.952 3358.375 535.370 3863.905 1441.490 720.986 604.211 7297.768 2733.526 9563.343 1116.945 8279.285 655.273 5766.752 1519.076 4531.177 6725.432 2278.195 2374.372 2710.630 861.497 1374.591 3974.419 640.291 504.636 1320.472 1728.668 1024.464 10493.643 7273.356 878.100 8186.464 2390.876 689.009 1333.181 3074.846 843.639 751.845 2151.644 4176.430 5362.331 8681.265 9067.415 7600.944 7148.366 4824.463 1036.976 1370.676 4540.336 899.817 7086.389 87.532 2912.669 1470.040 5063.506 1741.308 7931.786 3638.452 747.119 2119.461 6397.076 4318.926 5988.366 1129.125 1402.131 1765.594 571.747 6988.955 450.014 1395.021 736.948 600.692 2967.107 889.211 7219.902 8591.665 4298.641 4802.435 555.822 4528.055 1334.482 867.031 6762.448 5721.236 1820.122 7896.316 1210.623
631.751 6720.657 1267.689 903.467 313.355 87.278 4911.618 2284.721 3612.073 936.158 2564.487 5973.240 1354.253 1402.018 6410.324 4219.357 4701.792 356.296 6092.244 758.920 3439.396 3425.738 3089.965 6061.138 892.791 4252.543 60.641 1111.687 175.262 327.364 699.605 3042.918 2107.660 2931.579 414.070 4079.799 948.811 3825.640 3503.202 584.124 2135.893 5940.750 7600.005 6049.097 4580.499 5148.816 8345.149 1193.492 3167.601 421.551 1389.117 1186.107 24.657 3066.705 1256.395 655.142 2637.078 7227.037 1072.013 1143.697 524.721 3865.620 7080.461 433.653 1097.500 4124.665 1032.513 457.219 8879.101 8006.478 964.848 0.000 3062.212 1560.365 6097.312 5000.566 4445.810 16.302 974.045 4529.046 2846.291 691.915 273.908 440.757 1581.982 3241.298 6873.120 985.438 3111.948 1714.090 7403.011 695.290 872.529 259.504 7341.371 834.331 2513.404 304.674 623.194 4587.583 7640.063 5829.164 446.235 3425.408 3692.666 755.407 4474.184 2386.144 938.327 3098.679 1903.989 1123.943 909.268 6325.537 2536.832 8798.117 1594.622 7395.748 960.330 4883.214 1981.574 4334.483 6734.881 2691.580 1347.871 1738.399 466.447 309.735 3002.188 1043.248 896.525 1706.655 2151.133 307.154 9728.418 7536.588 1355.777 7302.927 2654.108 994.066 268.326 3338.078 646.945 555.151 1220.858 3979.736 5625.563 8944.497 8095.184 7864.176 7157.815 3940.925 1423.160 305.820 4343.642 1286.000 7095.839 877.317 3326.054 1733.272 4574.708 769.077 7832.907 4051.836 1093.054 2532.846 5513.539 4122.231 6251.598 372.236 1815.516 793.363 879.889 6016.725 927.692 1872.699 1139.904 706.303 2201.882 663.622 6247.671 7708.127 3533.415 4037.210 947.711 4767.966 569.256 390.823 7175.833 5984.468 1623.428 8159.548 45.211
3056.150 5022.073 1964.619 2655.492 3061.113 3380.577 3294.694 884.976 6505.185 3752.367 4728.367 8789.449 4046.982 4272.496 6826.289 1529.759 7578.650 3549.038 8908.453 2988.086 5603.276 1149.214 5983.078 8877.347 2817.372 6676.942 3232.658 2434.291 3468.561 2965.935 3124.004 5859.127 1676.829 5355.978 2937.008 6504.198 3025.170 6250.038 6396.315 2824.635 4952.101 8756.959 9922.148 8925.955 1875.332 4512.831 6474.950 4063.970 6027.236 3614.294 2225.611 2508.710 3317.956 1922.227 2730.958 3079.540 5061.477 9390.917 2456.591 2528.275 3193.245 1176.022 6444.475 3144.945 2420.104 6549.064 2597.581 2881.617 11772.214 10899.590 2889.430 3293.299 0.000 2262.683 8990.425 7424.965 1383.599 3309.601 2990.121 6953.444 872.366 3116.314 3261.754 3366.363 1716.366 1267.373 6455.449 2307.861 5865.543 4584.569 9566.890 2924.455 2797.111 3247.350 5705.118 2458.968 4677.283 3328.770 3047.593 2905.655 9803.943 8645.372 2999.229 1311.179 5906.481 3654.460 1411.972 5175.007 2663.258 5958.314 1851.334 2169.356 2732.098 9141.746 4961.231 11691.230 2551.253 9559.627 2647.470 7047.094 1928.919 6758.882 7113.946 1867.583 4218.350 4554.608 2989.385 3502.478 5818.397 2250.051 2869.893 2752.808 1803.564 3152.351 12621.530 4474.376 2268.630 9466.806 533.583 2816.897 3461.068 275.866 3071.344 2979.549 3960.837 6404.135 3943.635 7074.298 10911.393 5993.977 6957.823 6104.805 3178.324 3498.563 6768.041 3026.465 7028.783 2801.898 2176.718 1455.765 6117.014 3585.286 10155.050 2548.666 2477.632 1964.135 7677.418 6546.630 3511.853 3257.012 1742.433 3609.572 2974.006 8832.933 2679.716 2112.166 2153.395 3002.951 5094.995 2863.170 8800.308 9872.007 6426.528 6930.323 2818.707 3113.868 3462.369 2994.918 5477.248 4302.540 4047.826 5097.336 3338.510
1106.381 5617.066 352.287 707.402 1191.623 1430.807 3834.811 1184.592 4555.416 1997.080 3478.305 7034.161 2291.695 2517.209 6244.152 3119.229 5628.880 1599.269 7153.165 1232.562 4353.214 2325.609 4033.308 7122.059 867.603 4727.172 1282.888 679.003 1518.792 1016.165 1174.235 4103.840 1004.069 3406.209 987.238 4554.429 1269.882 4300.269 4446.545 955.145 3196.814 7001.671 8074.634 6976.185 3476.908 4200.922 7245.020 2308.683 4110.944 1664.524 275.841 753.422 1368.186 1966.577 782.868 1129.771 3111.707 8140.855 578.462 650.146 1243.475 2765.492 6132.567 1195.175 664.816 4599.294 649.490 931.848 9822.444 8949.821 939.660 1343.529 1962.083 0.000 7040.655 5475.195 3345.682 1359.832 1040.351 5003.675 1746.162 1166.545 1311.984 1578.584 481.854 2141.169 6143.541 358.092 4172.869 2829.281 8316.828 1168.932 847.341 1297.580 6237.780 509.199 3427.221 1379.000 1097.823 3487.454 8553.881 6890.085 1049.459 2325.280 4135.706 1899.172 3374.055 3447.065 713.488 4042.023 751.283 219.586 782.329 7386.458 3011.461 9741.460 603.163 8309.565 769.341 5797.032 828.869 4809.112 6568.709 1587.988 2463.062 2799.321 1039.615 1552.709 4063.109 300.282 921.803 1064.701 1038.461 1202.581 10671.761 6436.459 320.539 8216.744 1553.980 867.127 1511.299 2237.950 1121.574 1029.780 2205.549 4454.366 4525.435 7844.368 9156.105 6764.047 6645.915 4854.743 1489.466 1548.793 4818.271 1338.358 6716.875 852.129 2222.462 633.144 4866.952 1829.999 8307.537 2948.245 599.503 1429.254 6427.356 4596.861 5151.470 1307.243 711.925 1854.284 1024.237 7077.646 731.626 704.814 203.625 1053.182 3145.225 986.500 7308.593 8621.945 4476.758 4980.553 870.617 3691.158 1512.600 1045.149 6072.241 4884.340 2098.057 7059.419 1388.741
6299.254 12561.973 7309.218 6719.535 6257.343 6128.807 10636.910 8240.512 3962.258 6531.985 7696.698 6014.581 6950.079 5872.352 7972.883 10175.149 2428.868 6136.058 8429.098 6721.422 7906.588 9381.530 4475.999 8927.938 6708.858 5102.709 6102.171 7153.217 6216.791 6213.979 6113.782 5499.785 7988.020 5762.917 6230.137 5660.256 6851.187 5986.177 3853.387 6625.653 6515.624 5982.091 8038.417 1216.150 10460.859 9965.177 14160.295 6146.886 5432.846 6215.211 7205.185 7227.636 6066.186 8881.851 6923.898 6158.246 5521.801 12359.248 6945.102 7016.787 6457.034 9821.412 9144.241 6377.641 7139.030 5988.084 6848.581 6247.716 3078.019 2387.758 6780.916 6041.529 9018.004 7376.432 0.000 6116.043 10401.602 6057.832 6591.184 3802.923 8802.083 6309.054 6315.437 6355.294 7537.774 9197.090 8435.679 6801.505 7329.166 5584.160 12535.221 6736.819 6621.578 6301.033 12586.720 6650.398 7645.614 6299.602 6190.194 10402.729 12769.473 8772.979 6130.105 9381.200 7230.278 6324.245 10429.976 6982.059 6754.394 5363.924 7735.235 6940.010 6823.235 8942.004 5421.554 2773.305 7332.542 12393.145 6874.297 10015.425 7812.821 5996.559 8297.440 8571.940 6054.012 6486.250 6282.514 6125.893 5609.955 6859.315 6564.027 7323.794 8022.413 5991.024 7514.995 13492.380 7171.845 12435.137 8609.900 6908.033 6167.303 9293.870 6169.023 6222.653 6816.685 5717.339 11440.709 14759.643 9225.074 13679.322 8720.374 9073.136 7040.298 6129.808 6207.061 6903.139 8658.398 6693.384 9206.414 7689.064 10170.535 6391.685 7784.405 9932.197 6966.143 8413.206 10645.749 6218.419 12207.390 6316.223 7695.876 6389.190 6497.028 6058.065 6743.759 7563.557 6955.972 6373.805 4941.825 6705.152 9412.728 12840.338 4295.503 4976.039 6615.213 10493.257 5582.954 6242.962 13017.148 11799.614 5546.895 14115.340 6086.740
4100.644 8118.125 5204.952 4389.286 4644.718 4827.163 8687.476 6037.257 5353.305 5433.482 7061.811 9172.169 5851.577 5872.353 2971.487 7971.893 4337.652 4995.625 10340.493 5193.352 7936.721 7178.274 5810.935 10519.261 4464.907 1523.819 4679.244 5280.498 4915.148 4412.522 4078.669 6571.362 5518.871 2291.196 4383.594 1018.488 5354.833 1257.946 5244.435 4985.401 6629.327 9139.679 4322.961 5040.485 7540.920 4963.781 12097.685 5663.827 6504.423 5060.880 5065.567 5354.917 4764.543 6819.241 4534.755 4123.132 2505.858 11724.361 4853.622 4925.307 4639.832 7618.157 4142.846 4591.532 5266.310 936.636 4518.332 4315.138 8614.991 8327.844 4564.469 4739.886 6814.748 4907.283 6012.585 0.000 8198.347 4756.188 4108.432 2695.184 6569.033 4273.941 4708.340 4974.941 5334.519 6786.918 3434.284 4710.025 7605.382 5684.832 11900.335 5129.722 4370.430 4693.936 7585.324 4558.919 7010.728 4775.356 4155.080 8340.119 12137.387 10287.287 4432.750 7177.944 1942.251 5225.742 8226.720 6879.578 4662.915 6435.502 5266.086 4848.531 4731.755 10783.660 2696.318 8310.277 4721.669 11893.072 4782.817 9380.538 5343.671 647.946 3296.044 6102.791 5818.206 6231.833 4435.971 4949.065 6681.532 4767.835 4174.885 4416.352 5553.264 4585.872 12449.388 10830.194 4841.596 11800.251 6406.644 4816.553 4907.655 7090.614 4133.910 4177.245 5718.182 1854.469 9378.100 12697.033 11136.469 11616.712 3718.979 8438.249 3904.081 4945.150 996.512 3917.576 3657.002 4476.937 6439.292 5485.809 9072.032 5293.182 4555.864 5967.378 4874.663 5944.057 10010.863 1576.651 10004.134 4703.599 5226.727 5290.687 4014.276 9215.653 4413.510 4839.371 4864.492 4144.467 3455.267 5016.755 10513.867 12205.451 4982.662 6758.181 4226.071 8543.823 4291.225 4441.505 8573.300 9737.004 3759.565 11166.274 4785.097
4442.271 4707.777 3350.739 4041.613 4447.234 4766.697 4600.418 2271.096 7891.306 5138.487 6114.487 10175.569 5433.103 5658.616 7710.690 1959.442 8964.770 4935.159 10294.573 4374.206 6989.396 2535.334 7369.198 10263.467 4203.493 8063.062 4618.778 3820.411 4854.682 4352.055 4510.125 7245.247 3062.950 6742.099 4323.128 7890.319 4411.290 7636.159 7782.435 4210.756 6338.222 10143.079 11308.268 10312.075 1844.594 5397.232 6771.675 5450.090 7413.356 5000.414 3611.731 3894.830 4704.076 3308.347 4117.079 4465.661 6447.597 10777.037 3842.711 3914.396 4579.365 1717.966 7328.877 4531.065 3806.224 7935.184 3983.701 4267.738 13158.334 12285.711 4275.550 4679.419 1386.120 3648.803 10376.545 8811.085 0.000 4695.722 4376.241 8339.565 2258.486 4502.435 4647.874 4752.483 3102.486 2378.842 7339.850 3693.982 7251.663 5970.689 10953.011 4310.576 4183.231 4633.470 6000.956 3845.089 6063.404 4714.890 4433.713 3856.329 11190.063 10031.493 4385.349 2697.299 7292.601 5040.580 175.459 6561.127 4049.378 7344.435 3237.454 3555.476 4118.219 10527.866 6347.351 13077.350 3937.374 10945.748 4033.590 8433.214 3315.040 8145.002 7998.347 2887.221 5604.470 5940.728 4375.505 4888.599 7204.517 3636.172 4256.014 4138.929 3189.685 4538.471 14007.651 3237.863 3654.750 10852.927 1919.704 4203.017 4847.189 1251.320 4457.464 4365.670 5346.957 7790.256 4640.967 7371.023 12297.513 6290.702 7842.225 7490.925 4564.444 4884.683 8154.161 4412.585 7913.185 4188.019 3188.000 2841.886 7503.134 4971.406 11541.171 3309.338 3863.752 2979.610 9063.538 7932.751 3214.098 4643.133 3128.554 4995.692 4360.127 10219.054 4065.837 3498.286 3539.515 4389.072 6481.115 4249.290 10186.428 11258.127 7812.648 8316.443 4204.828 4168.240 4848.490 4381.039 5162.952 4999.871 5433.947 3860.823 4724.631
771.931 6704.355 1251.386 1043.647 453.534 554.528 4895.316 2268.418 4010.064 919.856 2548.185 5956.938 1337.950 1439.985 6550.503 4203.055 5099.783 339.993 6075.942 742.618 3423.094 3409.435 3458.150 6044.836 1032.970 4392.722 406.609 1095.385 158.960 467.543 839.785 3026.616 2091.358 3071.759 554.249 4219.979 932.509 3965.819 3901.193 567.822 2119.590 5924.448 7740.184 6447.088 4564.197 5288.995 8328.846 1231.459 3194.725 405.249 1417.627 1169.804 491.907 3050.403 1396.574 795.321 2777.257 7210.735 1055.711 1127.395 664.900 3849.318 7220.640 573.833 1081.198 4264.844 1172.693 597.398 9277.093 8404.469 1105.028 467.251 3045.909 1661.760 6495.303 5140.745 4429.508 0.000 1114.224 4669.225 2829.989 832.095 257.606 424.454 1565.680 3224.995 7013.300 1095.464 3095.645 1752.058 7386.708 678.987 1012.708 243.202 7325.069 974.510 2497.101 288.372 763.373 4571.280 7623.761 5812.862 715.009 3409.106 3832.845 821.949 4457.881 2369.842 1013.348 3125.803 1887.686 1233.970 892.966 6309.235 2677.011 9196.108 1734.801 7379.445 944.028 4866.912 1965.272 4474.662 6875.060 2675.277 1385.839 1722.097 606.626 293.433 2985.886 1153.274 1036.704 1846.835 2134.831 657.229 9862.029 7520.286 1462.325 7286.625 2637.806 977.764 252.023 3321.776 787.124 695.330 1204.556 4119.916 5609.261 8928.194 8078.882 7847.874 7297.995 3924.623 1563.339 289.518 4483.821 1426.179 7236.018 1017.496 3309.751 1716.970 4558.405 752.775 7973.087 4035.534 1076.752 2516.543 5497.236 4262.411 6235.296 512.415 1799.214 777.061 1020.068 6000.422 1067.871 1898.777 1249.931 846.482 2599.873 647.320 6231.369 7691.825 3931.407 4405.395 1087.890 4751.664 967.248 531.002 7159.530 5968.166 1763.607 8143.245 28.909
347.999 6273.275 1319.234 391.792 892.073 1074.518 4801.758 2151.539 4132.394 1730.218 3358.546 6767.299 2148.312 2250.347 5816.994 4086.176 5023.700 1242.979 6886.303 1265.324 4233.456 3292.556 3663.953 6855.197 467.413 4121.992 926.599 1283.004 1162.502 659.876 569.054 3769.363 1660.278 2801.029 630.949 3949.248 1357.340 3695.089 4023.524 987.907 2929.952 6734.809 7186.008 6371.005 4133.117 4408.391 8211.967 2041.821 3741.590 1308.235 1068.073 1357.423 1011.897 2933.524 537.262 524.591 2506.527 8021.096 856.129 927.813 887.186 3732.439 6340.036 838.886 1268.817 3994.114 520.838 562.493 9399.423 8526.799 566.975 987.240 2929.030 1048.689 6617.633 4718.426 4312.629 1003.543 0.000 4398.495 2710.439 561.364 955.695 1222.295 1448.801 2928.325 6279.791 712.532 3906.007 2508.250 8197.070 1201.693 372.937 941.291 6893.989 561.425 3307.463 1022.711 492.643 4454.401 8434.123 6623.223 680.104 3292.227 3170.341 1632.310 4341.002 3180.203 665.421 3672.668 1407.492 851.037 734.262 7119.596 2406.281 9318.439 945.906 8189.807 785.324 5677.274 1485.078 4203.932 6141.552 2244.197 2196.200 2532.459 683.326 1196.419 3796.247 770.342 177.391 732.610 1694.670 833.227 10302.406 7403.406 844.102 8096.986 2520.927 819.060 1155.009 3204.897 516.394 424.600 2014.917 3849.185 5492.382 8811.315 8889.244 7730.994 6564.486 4734.984 449.115 1192.504 4213.091 311.955 6502.510 479.443 2878.671 1600.091 5193.557 1563.137 7418.911 3604.454 877.170 2085.463 6307.598 3991.680 6118.417 950.953 1368.134 1587.423 123.762 6810.784 416.016 1155.629 866.998 273.447 2672.717 1019.261 7041.731 8502.187 4107.404 4611.198 228.577 4658.105 1143.245 688.859 6728.450 5851.287 1492.877 8026.366 1032.451
4049.324 9483.290 5258.604 4476.802 4440.197 4531.244 8741.128 6090.909 3084.717 5029.165 6426.425 6783.919 5447.259 4602.080 4669.880 8025.546 2096.942 4633.238 8633.245 4988.831 6995.295 7231.926 3820.720 8841.575 4466.126 1799.707 4474.723 5222.374 4619.228 4208.000 3863.853 4893.676 5745.288 2684.235 4179.073 2357.253 5178.722 2621.126 2975.846 4814.035 5461.536 6751.429 5730.690 2870.880 8218.127 6662.174 12151.337 4876.614 4826.737 4712.391 5055.581 5296.793 4468.623 6872.894 4673.968 3908.317 2327.279 11088.975 4795.499 4867.183 4435.310 7671.809 5841.239 4387.010 5208.187 2685.082 4605.848 4110.617 6445.386 6158.239 4565.687 4443.966 6868.400 5133.699 3842.980 2813.040 8251.999 4460.268 4341.255 0.000 6652.479 4059.125 4503.819 4770.419 5388.171 7013.335 5132.677 4651.902 6437.591 4313.888 11264.949 4925.200 4371.649 4489.415 9283.717 4500.795 6375.342 4570.835 3940.264 8393.771 11502.002 8609.601 4228.228 7231.597 3927.275 4821.425 8280.372 5711.787 4604.791 4757.816 5492.502 4790.407 4673.632 9105.974 2227.033 6140.672 5082.613 11257.686 4724.693 8745.153 5570.088 2693.556 4994.438 6329.207 4783.740 5215.977 4231.450 4623.073 5003.846 4709.712 4314.098 4830.536 5779.680 4381.351 10061.138 11342.776 4929.112 11164.865 6460.297 4758.430 4664.483 7144.266 3919.094 3972.724 5313.865 2352.288 9431.752 12750.685 9429.221 11670.364 5417.372 7802.864 4457.661 4626.988 2904.059 4331.760 5355.395 4478.155 6963.681 5539.461 8667.714 4888.865 5963.592 7332.544 4816.540 6170.473 9375.477 2915.416 10057.787 4499.077 5453.144 4886.370 4247.099 6827.404 4501.026 5253.555 4806.368 4123.876 2677.668 4893.533 8806.619 11570.066 3417.961 4369.931 4365.284 8597.475 3886.908 4236.983 9938.465 9790.657 3249.700 11965.736 4489.177
2698.266 4757.560 1606.735 2297.608 2703.229 3022.692 3866.959 740.640 6147.301 3394.483 4614.177 8431.564 3689.098 3914.612 6448.845 2324.545 7220.765 3191.154 8550.568 2630.201 5489.086 1769.430 5625.193 8519.462 2459.488 6319.057 2874.773 2076.407 3110.677 2608.050 2766.120 5501.243 1318.945 4998.094 2579.123 6146.314 2667.285 5892.154 6038.430 2466.751 4594.217 8399.074 9564.263 8568.070 1914.802 4135.387 7235.486 3706.086 5669.352 3256.409 1867.727 2150.826 2960.071 1959.445 2373.074 2721.656 4703.592 9276.727 2098.706 2170.391 2835.361 1970.808 6067.032 2787.061 2062.219 6191.179 2239.696 2523.733 11414.330 10541.706 2531.546 2935.415 853.803 1904.799 8632.540 7067.081 2109.470 2951.717 2632.236 6595.560 0.000 2758.430 2903.869 3008.478 1358.481 561.461 6078.005 1949.977 5570.272 4226.684 9452.701 2566.571 2439.226 2889.465 5440.605 2101.084 4563.094 2970.885 2689.708 3477.920 9689.753 8287.488 2641.344 1931.395 5548.596 3296.575 2137.844 4844.468 2305.373 5600.430 1493.449 1811.472 2374.214 8783.861 4603.346 11333.346 2193.369 9445.437 2289.585 6932.904 1571.035 6400.997 6736.502 1164.800 3860.465 4196.724 2631.500 3144.594 5460.512 1892.167 2512.009 2394.924 1445.680 2794.467 12263.646 5200.248 1910.745 9352.617 443.585 2459.012 3103.184 1129.669 2713.459 2621.665 3602.952 6046.251 4515.901 7834.834 10553.508 6754.513 6580.379 5990.615 2820.439 3140.679 6410.156 2668.580 6651.340 2444.014 1799.275 1311.429 6002.824 3227.402 9797.166 2284.153 2119.748 1454.000 7563.228 6188.746 4356.786 2899.128 1384.549 3251.688 2616.122 8475.049 2321.832 1754.281 1795.510 2645.067 4737.110 2505.285 8686.118 9757.817 6068.644 6572.438 2460.823 3686.134 3104.485 2637.034 5212.735 4874.805 3689.942 5823.208 2980.626
363.321 6632.048 1572.601 750.565 754.194 936.639 5055.125 2404.906 3794.196 1592.338 3220.667 6629.420 2010.433 2112.467 5905.991 4339.543 4685.501 1105.100 6748.424 1302.828 4095.577 3545.923 3526.074 6717.318 780.122 3783.794 788.720 1536.371 1024.623 521.997 195.272 3631.484 2019.051 2462.830 493.070 3611.050 1492.719 3356.890 3685.325 1128.032 2792.073 6596.930 7095.671 6032.807 4491.890 4788.455 8465.334 1903.941 3603.710 1170.356 1369.578 1610.790 874.018 3186.890 896.035 150.808 2168.328 7883.217 1109.495 1181.180 749.307 3985.806 6720.100 701.007 1522.183 3655.916 879.611 424.614 9061.224 8188.601 879.684 849.361 3182.397 1407.462 6279.435 4531.817 4565.996 865.663 469.712 4060.296 2966.476 0.000 817.816 1084.416 1702.168 3287.098 6368.787 965.898 3768.128 2370.370 8059.191 1239.197 685.646 803.412 7252.762 814.792 3169.584 884.832 118.861 4707.768 8296.243 6485.344 542.225 3545.593 3188.332 1494.431 4594.369 3042.324 918.788 3534.789 1766.265 1104.404 987.628 6981.717 2068.082 8980.240 1304.679 8051.928 1038.690 5539.394 1843.851 3865.734 6230.548 2602.970 2058.321 2394.579 545.447 1058.540 3658.368 1023.708 536.164 1202.322 2053.443 695.347 10164.527 7656.773 1202.875 7959.107 2774.293 1072.427 1017.130 3458.263 142.612 286.720 1877.038 3510.987 5745.749 9064.682 8751.364 7984.361 6653.482 4597.105 918.826 1054.625 3874.892 781.667 6591.506 792.152 3237.444 1853.458 5230.888 1425.257 7328.574 3963.227 1130.537 2444.236 6169.719 3653.482 6371.783 813.074 1726.907 1449.543 375.556 6672.905 774.789 1535.694 1120.365 437.873 2334.519 1207.530 6903.851 8364.307 3969.524 4473.319 587.350 4911.472 1005.366 550.980 7087.223 6104.653 1154.678 8279.733 894.572
600.206 6532.630 1079.662 871.922 281.810 382.804 4746.912 2096.694 3838.339 774.523 2402.851 5811.604 1192.617 1294.652 6378.779 4031.330 4928.058 287.285 5930.608 570.893 3277.761 3237.711 3312.817 5899.502 861.245 4220.998 234.885 923.661 216.329 295.819 668.060 2881.283 1919.633 2900.034 382.524 4048.254 760.784 3794.094 3729.469 396.097 1974.257 5779.114 7568.459 6275.364 4392.472 5117.271 8157.122 1086.126 3049.392 352.540 1245.903 998.080 320.183 2878.678 1224.850 623.596 2605.533 7065.401 883.986 955.671 493.176 3677.593 7048.915 402.108 909.473 4093.120 1000.968 425.673 9105.368 8232.744 933.303 295.526 2874.185 1490.036 6323.579 4969.021 4257.784 311.828 942.500 4497.500 2658.264 660.370 0.000 266.600 1393.955 3053.271 6841.575 923.740 2950.312 1606.724 7241.375 507.263 840.984 71.477 7153.344 802.786 2351.768 67.016 591.649 4399.556 7478.428 5667.528 543.284 3237.381 3661.120 676.615 4286.157 2224.509 841.624 2980.470 1715.962 1062.245 721.241 6163.901 2505.286 9024.384 1563.077 7234.112 772.303 4721.579 1793.547 4302.938 6703.336 2503.553 1240.505 1576.764 434.901 240.724 2840.552 981.550 864.980 1675.110 1963.106 485.505 9716.695 7348.561 1290.601 7141.291 2466.081 806.040 199.315 3150.051 615.400 523.605 1059.222 3948.191 5437.536 8756.470 7933.549 7676.149 7126.270 3779.289 1391.614 236.809 4312.096 1254.455 7064.294 845.771 3138.027 1545.245 4413.072 607.442 7801.362 3863.809 905.027 2344.819 5351.903 4090.686 6063.571 340.690 1627.489 631.728 848.344 5855.089 896.146 1727.052 1078.206 674.758 2428.148 475.596 6086.036 7546.492 3759.682 4260.062 916.165 4603.260 795.523 359.277 6987.806 5796.441 1591.882 7971.521 340.737
866.806 6799.231 1346.262 1138.522 548.410 649.404 4494.273 2363.294 3950.562 518.814 2147.142 5555.895 936.908 1038.943 6645.379 4297.931 4922.986 290.567 5674.899 578.786 3022.052 3504.311 3057.107 5643.793 1127.846 4487.598 501.485 1190.261 365.532 562.419 934.660 2625.574 2186.233 3166.634 649.125 4314.854 708.550 4060.694 3841.691 662.697 1718.548 5523.405 7835.060 6326.026 4659.072 5383.871 8017.658 830.417 2793.683 355.823 1512.503 1264.680 586.783 2739.215 1491.450 890.197 2872.133 6809.692 1150.586 1222.271 759.776 3944.194 7315.516 668.708 1176.074 4359.720 1267.568 692.274 9217.590 8344.967 1199.903 562.126 3140.785 1756.636 6435.801 5235.621 4524.384 578.429 1209.100 4764.101 2924.864 926.970 266.600 0.000 1660.556 3319.871 7108.175 1190.340 2694.603 1351.015 6985.666 773.863 1107.584 338.077 7419.944 1069.386 2096.059 199.584 858.249 4260.092 7222.718 5411.819 809.885 3396.521 3927.721 420.906 4552.757 1968.799 1108.224 2724.761 1982.562 1328.845 987.841 5908.192 2771.887 9136.606 1829.677 6978.403 1038.903 4465.869 2060.147 4569.538 6969.936 2770.153 984.796 1321.055 701.502 244.007 2584.843 1248.150 1131.580 1941.710 2229.707 752.105 9460.986 7615.161 1557.201 6885.582 2732.681 1072.640 202.597 3416.651 882.000 790.206 803.513 4214.791 5298.073 8617.006 7677.839 7536.685 7392.870 3523.580 1658.215 240.092 4578.697 1521.055 7330.894 1112.372 3404.627 1811.846 4157.363 351.733 8067.962 4130.410 1171.627 2611.419 5096.194 4357.286 6330.171 607.290 1894.089 376.018 1114.944 5599.380 1162.746 1993.653 1344.807 941.358 2540.371 742.196 5830.327 7290.782 3596.118 4004.353 1182.766 4350.621 907.745 625.877 7254.406 5656.978 1858.483 8238.121 607.337
2275.063 6008.942 1183.532 1876.085 2280.026 2599.490 3352.957 1091.900 5724.099 2971.280 3920.463 8008.362 3265.895 3491.409 7163.515 3026.537 6797.563 2767.951 8127.366 2206.999 4795.373 1843.909 5201.991 8096.260 2036.285 5895.855 2451.571 1653.204 2687.474 2184.848 2342.917 5078.040 1395.945 4574.891 2155.921 5723.111 2244.083 5468.951 5615.228 2043.548 4171.014 7975.872 9153.404 8144.868 3574.131 4950.451 6763.167 3282.883 5246.149 2833.207 1444.524 1727.623 2536.869 1484.723 1951.551 2298.454 4280.390 8583.013 1675.504 1747.189 2412.158 2672.800 6882.096 2363.858 1639.017 5767.977 1818.173 2100.531 10991.127 10118.504 2108.343 2512.212 1869.391 1483.428 8209.338 6643.878 3252.990 2528.515 2209.034 6172.358 1851.103 2335.227 2480.667 2585.276 0.000 2246.110 6893.069 1526.775 5057.640 3803.482 8758.987 2143.368 2016.024 2466.263 6629.656 1677.881 3869.380 2547.683 2266.506 3005.600 8996.040 7864.286 2218.142 1843.579 5137.737 2873.373 3281.363 4367.104 1882.171 5177.227 1192.273 1388.269 1951.011 8360.659 4180.144 10910.143 1771.846 8751.724 1866.383 6239.191 1269.859 5977.795 7488.073 1979.864 3437.263 3773.521 2208.298 2721.391 5037.310 1468.965 2090.486 1984.065 1439.418 2371.264 11840.443 6343.767 1489.222 8658.903 1461.288 2035.810 2679.981 2145.258 2290.257 2198.463 3179.750 5623.048 4043.581 7362.514 10130.306 6282.194 7395.443 5296.902 2409.580 2717.476 5986.954 2257.721 7466.404 2020.811 2614.339 656.367 5309.111 2804.199 9386.307 3340.121 1696.545 1821.130 6869.515 5765.543 5058.778 2475.925 1103.801 2828.485 2192.919 8051.846 1900.309 1453.105 1372.308 2221.864 4313.908 2082.083 7992.405 9064.104 5645.441 6149.236 2039.300 3209.304 2681.282 2213.831 6464.117 4402.486 3266.740 6966.727 2557.423
2690.894 4756.116 1599.363 2290.237 2695.857 3015.321 3899.861 773.542 6139.930 3387.111 4647.079 8424.193 3681.727 3907.240 6289.819 2357.448 7213.394 3183.783 8543.197 2622.830 5521.989 1802.332 5617.822 8512.091 2452.117 6311.686 2867.402 2069.035 3103.305 2600.679 2758.748 5493.871 1158.749 4990.722 2571.752 6138.942 2659.914 5884.783 6031.059 2459.379 4586.845 8391.703 9556.892 8560.699 1913.357 3976.361 7268.388 3698.714 5661.980 3249.038 1860.355 2143.454 2952.700 1992.347 2365.703 2714.285 4696.221 9309.629 2091.335 2163.020 2827.989 2003.711 5908.006 2779.689 2054.848 6183.808 2232.325 2516.362 11406.958 10534.335 2524.174 2928.043 886.705 1897.427 8625.169 7059.709 2108.026 2944.346 2624.865 6588.189 84.302 2751.058 2896.498 3001.107 1351.110 0.000 5918.979 1942.606 5562.900 4219.313 9485.603 2559.199 2431.855 2882.094 5439.161 2093.712 4595.996 2963.514 2682.337 3510.822 9722.656 8280.117 2633.973 1964.297 5541.225 3289.204 2136.399 4837.097 2298.002 5593.058 1486.078 1804.100 2366.842 8776.490 4595.975 11325.974 2185.998 9478.340 2282.214 6965.807 1563.663 6393.626 6577.476 1005.774 3853.094 4189.352 2624.129 3137.222 5453.141 1884.796 2504.637 2387.552 1285.484 2787.095 12256.275 5198.804 1903.374 9385.519 476.487 2451.641 3095.812 1162.571 2706.088 2614.294 3595.581 6038.879 4548.803 7867.736 10546.137 6787.416 6421.354 6023.517 2813.068 3133.307 6402.785 2661.209 6492.314 2436.642 1640.249 1344.331 6035.726 3220.030 9789.795 2282.709 2112.376 1294.974 7596.131 6181.374 4389.688 2891.756 1363.545 3244.316 2608.750 8467.677 2314.461 1746.910 1788.139 2637.696 4729.739 2497.914 8698.624 9790.720 6061.272 6565.067 2453.452 3719.036 3097.113 2629.662 5211.291 4907.708 3682.571 5821.764 2973.254
6339.559 6594.228 6037.008 6186.814 6883.633 7066.078 9098.301 6275.072 8094.452 7721.777 9350.106 11793.655 8139.871 8241.906 569.533 7860.354 6807.989 7234.539 12877.863 7060.346 10225.015 7319.574 8778.064 12846.757 6376.697 4896.944 6918.159 6557.379 7154.062 6651.436 6560.614 9538.491 5376.472 5258.325 6622.509 3985.617 7148.258 4225.075 7985.582 6782.929 8921.512 11761.165 4805.254 7510.822 5627.331 1966.288 12508.510 8033.380 9471.552 7299.795 6144.427 6631.798 7003.457 7230.067 5740.702 6516.150 5472.987 14012.656 6487.569 6559.254 6878.746 7506.618 1335.393 6830.446 6543.191 3903.765 6178.358 6554.053 11085.328 10798.180 6558.535 6978.800 6375.735 5910.923 8482.922 3565.404 7058.549 6995.102 6230.961 5165.521 5707.860 6552.924 6947.255 7213.855 6014.886 5623.558 0.000 6267.199 9897.567 8359.670 14188.630 6996.716 6364.497 6932.851 4646.192 6296.121 9299.023 7014.270 6484.203 8750.944 14425.682 12614.783 6671.664 7473.364 3289.480 7623.870 7012.339 9171.763 6460.444 9402.631 5838.323 6129.359 6529.284 13111.156 5663.447 10780.614 5757.115 14181.366 6580.346 11668.833 5915.909 3615.075 857.190 4883.703 8187.760 8524.018 6674.886 7187.979 9648.661 6209.389 6074.785 5723.470 5503.207 6824.786 15070.874 9306.297 5895.521 14088.546 6100.045 6614.082 7146.569 6651.601 6507.954 6416.159 8006.477 4821.598 9788.925 13107.858 14103.598 12027.538 1124.159 10726.544 6107.790 7184.064 3963.641 5997.127 1062.183 6471.003 4525.702 6166.176 10647.477 7554.696 5038.156 4053.789 6508.610 4976.093 12299.157 4543.780 9282.532 6942.513 5668.616 7578.982 6236.062 11837.139 6211.039 5640.797 6113.398 6265.007 6422.396 6814.284 13033.290 14493.746 7949.791 9379.667 6023.599 8954.648 6966.063 6680.419 7049.403 10147.830 6726.694 8934.181 7024.011
748.289 5859.828 606.702 374.718 838.091 1072.715 4089.226 1439.007 4197.324 1686.931 3173.710 6724.013 1981.546 2207.060 6214.108 3373.644 5270.788 1241.177 6843.017 879.030 4048.620 2580.024 3675.216 6811.911 509.511 4369.080 924.796 570.472 1160.700 658.073 816.143 3780.626 1246.831 3048.117 629.146 4196.337 965.288 3942.177 4088.453 601.613 2886.665 6691.523 7716.542 6618.093 3719.670 4438.766 7499.436 1998.534 3752.853 1306.432 403.680 644.891 1010.094 2220.992 552.285 771.679 2753.615 7836.260 224.929 296.614 885.384 3019.907 6370.411 837.084 556.285 4241.202 316.806 573.756 9464.353 8591.729 581.569 985.438 2216.499 635.242 6682.563 5117.103 3600.097 1001.740 682.259 4645.583 2000.578 808.453 953.892 1220.493 736.269 2395.585 6381.384 0.000 3862.720 2519.133 8012.234 815.399 489.249 939.488 6480.542 151.107 3122.627 1020.908 739.731 3741.870 8249.286 6579.937 691.367 2579.695 3777.614 1589.024 3628.471 3136.917 355.396 3683.931 994.045 138.505 424.237 7076.310 2653.369 9383.368 713.279 8004.971 415.808 5492.437 1071.631 4451.020 6538.666 1830.750 2152.914 2489.172 681.523 1194.617 3752.961 57.810 589.119 1034.658 1281.223 844.489 10313.669 6690.875 430.655 7912.150 1808.395 509.035 1153.207 2492.365 763.482 671.688 1895.401 4096.274 4779.850 8098.784 8845.957 7018.463 6883.758 4550.148 1131.374 1190.702 4460.179 994.214 6899.623 494.037 2465.225 887.559 4562.357 1519.850 7949.445 3191.007 245.970 1672.016 6122.762 4238.769 5405.885 949.151 954.687 1544.136 666.145 6767.497 398.942 947.576 154.467 695.090 2787.133 632.967 6998.444 8317.350 4118.667 4622.461 537.933 3945.574 1154.508 687.057 6315.003 5138.755 1739.965 7313.835 1030.649
3695.700 9583.074 4130.105 3967.416 3377.303 3325.797 6251.395 5147.137 4863.746 2354.719 1556.090 4472.075 2544.350 2197.931 9474.272 6722.943 5931.151 3119.461 3586.725 3205.913 1156.694 5374.346 3230.504 3555.619 3956.739 7271.026 3330.378 3974.104 3194.426 3391.313 3763.554 1786.425 4970.077 5950.062 3478.018 7098.282 3335.677 6844.122 4754.876 3491.591 1109.775 4439.585 10663.953 7255.055 7442.916 8212.764 9774.780 2277.905 2028.307 3184.716 4296.346 4048.523 3415.677 4496.336 4320.344 3719.090 5655.561 5869.452 3979.480 4051.164 3588.670 6711.776 10144.409 3497.602 3959.917 7143.148 4096.462 3521.167 10031.745 8394.731 4028.797 3391.020 5924.628 4540.479 7249.956 8019.049 7308.227 3407.322 4037.993 6688.525 5708.708 3755.864 3095.494 2839.785 4444.399 6103.714 9937.069 4019.233 0.000 2461.530 6045.425 3602.756 3936.477 3166.971 10203.788 3898.279 1607.174 3028.478 3687.142 6017.214 6282.478 3323.645 3638.778 5153.643 6756.614 2823.356 7336.600 1647.655 3937.117 1959.385 4766.405 4156.572 3816.735 3820.018 5555.314 9950.761 4623.668 6038.162 3867.797 3525.629 4843.991 7352.966 9798.830 5553.996 2158.148 1696.383 3530.395 3072.901 1700.812 4075.876 3960.473 4770.604 5013.550 3508.903 8377.166 10399.005 4341.044 5945.341 5516.525 3901.533 3031.491 6200.495 3710.893 3619.099 2639.419 6998.219 7055.195 10374.128 5589.666 9293.807 10221.764 2583.340 4487.108 3068.986 7362.124 4349.948 10159.787 3941.265 6188.470 4595.689 3772.354 2494.139 10896.856 6914.253 4000.521 5395.262 4155.953 7140.714 9114.015 3436.184 4677.933 2452.847 3943.837 4515.560 3991.640 4777.496 4172.533 3770.251 4831.445 3553.967 3329.318 6350.542 4216.797 3036.472 4011.659 6107.743 3472.198 3454.771 10038.249 7414.099 4641.910 11021.965 3436.231
2005.549 7958.066 2505.097 2277.265 1707.245 1365.648 5737.908 3522.129 3128.799 1427.556 2382.135 4929.721 1845.651 557.789 7581.659 5456.766 4085.024 1237.056 5373.596 1822.420 2951.005 4663.146 1751.848 5342.490 2266.589 5078.758 1659.901 2349.096 1412.670 1721.254 2073.403 1847.814 3345.068 3814.215 1787.867 4887.106 1952.185 4632.946 3019.929 1821.532 1417.245 4897.231 8771.340 5488.064 5817.907 6522.614 9261.293 832.323 1820.041 1316.209 2671.338 2423.515 1623.916 3982.849 2630.193 2028.939 3463.293 7044.685 2309.421 2381.106 1918.611 5103.029 8454.258 1827.543 2334.909 4931.971 2406.311 1805.447 8616.986 7744.363 2338.646 1599.260 4299.620 2915.471 5835.197 5807.873 5683.219 1615.562 2347.843 4377.976 4083.699 2065.713 1467.615 1456.292 2819.391 4478.706 8044.455 2349.175 2393.300 0.000 7220.659 1932.698 2246.327 1496.913 8578.779 2208.129 2331.051 1400.599 1996.992 5503.727 7457.711 5110.516 1687.835 4640.155 4864.001 1282.412 5711.592 1667.497 2267.059 1751.119 3141.397 2487.680 2146.677 5606.889 3363.047 8536.002 2968.420 7213.395 2197.739 4700.862 3218.983 5141.789 7906.216 3928.988 739.449 1171.687 1840.244 1226.891 1915.801 2406.985 2270.323 3080.453 3388.542 1548.755 8390.301 8773.996 2716.036 7120.575 3891.516 2231.475 1268.301 4575.486 2020.743 1928.948 1712.256 4805.952 6541.707 9860.641 7115.978 8780.320 8329.150 3758.573 2796.957 1230.806 5150.948 2659.798 8267.174 2251.114 4563.462 2970.681 4922.545 1326.052 9004.242 5289.245 2330.463 3770.254 5331.186 4929.538 7489.006 1766.126 3052.924 1284.761 2253.687 4973.205 2301.489 3152.488 2503.642 2080.101 2520.896 1901.031 5529.024 7525.775 2651.082 2699.093 2321.508 5594.255 1509.278 1784.712 8413.241 6900.612 2615.813 9396.956 1644.471
7718.174 13498.887 8045.919 7989.890 7399.778 7407.936 9194.602 8597.180 9960.623 6332.527 4704.198 7610.082 5914.433 6719.205 13496.747 9960.219 10916.848 7141.935 5462.419 7159.425 4777.102 8611.621 8441.601 5116.555 7979.213 11338.965 7352.853 7889.918 7216.900 7413.787 7786.028 6997.522 8885.890 10018.002 7500.492 11166.222 7192.320 10912.062 9851.752 7468.945 6341.827 7642.572 14686.427 12319.888 11079.410 12189.417 9020.671 6683.784 7239.404 7207.191 8212.160 7964.337 7438.151 7733.612 8342.818 7741.564 9723.500 208.011 7912.217 7983.902 7611.144 9949.052 14121.062 7520.076 7875.730 11211.088 8118.936 7543.641 13897.140 12015.501 8051.271 7413.494 9374.671 8456.293 12461.053 12086.989 10758.270 7429.796 8060.468 11209.799 9356.382 7778.338 7117.968 6862.259 8360.212 9751.389 13959.543 8017.082 5664.138 6982.804 0.000 7568.765 7958.952 7189.445 14119.601 7920.754 4755.281 7050.952 7709.617 9184.306 309.740 4813.940 7661.252 8390.918 10779.088 7010.003 10786.643 5913.548 7934.966 7170.482 8682.219 8072.385 7814.584 5380.954 9623.254 14318.664 8539.481 266.608 7865.646 2750.283 8759.804 11420.906 13821.304 9469.810 6679.422 6103.594 7552.869 7095.375 6911.909 7991.690 7982.947 8793.078 8929.363 7603.473 11997.936 13743.418 8256.858 283.901 8966.567 7899.382 7053.965 9650.537 7733.368 7641.573 6133.044 11066.159 8042.316 9620.018 8005.836 8539.698 14244.238 3467.893 8509.582 7091.460 11430.064 8372.423 14182.262 7963.739 10104.284 8511.502 4926.024 6516.613 14919.330 10830.066 7933.259 9311.076 3058.689 11208.654 11507.950 7458.658 8593.746 6475.322 7966.312 7643.199 8014.114 8693.309 8088.346 7792.726 9268.673 7507.480 3600.384 689.101 9438.767 8247.569 8034.133 9089.257 7637.195 7477.245 13954.063 7963.825 8709.850 14366.378 7458.705
1102.128 6613.609 1160.640 991.113 572.380 973.013 4745.363 2177.672 4347.098 999.419 2614.963 6036.501 1404.729 1519.548 6880.701 4112.309 5403.592 893.091 6155.505 63.630 3489.873 3318.689 3537.713 6124.399 980.436 4722.920 825.094 1004.639 968.056 804.577 1169.982 3106.179 2000.611 3401.956 826.668 4550.176 724.849 4296.017 4238.227 477.076 2199.154 6004.011 8070.382 6784.122 4473.450 5304.139 8238.100 1311.022 3274.289 958.347 1326.881 1079.058 910.392 2959.657 1429.829 1125.519 3107.455 7277.513 964.964 1036.649 783.747 3758.572 7235.784 692.679 990.452 4595.042 1120.159 927.596 9614.126 8741.503 1052.494 885.735 2955.163 1571.014 6832.337 5470.943 4338.762 902.038 1153.185 4999.423 2739.242 1162.292 854.190 613.415 1474.934 3134.249 7246.757 1004.718 3175.209 1831.621 7453.487 0.000 960.174 839.786 7234.322 921.976 2563.880 802.108 1093.571 4480.534 7690.540 5892.425 1045.207 3318.360 4163.043 901.512 4367.135 2449.405 922.602 3205.367 1796.940 1143.224 802.220 6388.798 3007.209 9533.142 1654.203 7446.224 853.282 4933.691 1874.526 4804.860 7205.258 2584.531 1465.402 1801.661 774.291 846.531 3065.449 1062.528 1069.959 1885.795 2044.085 994.263 9941.592 7429.540 1371.579 7353.403 2547.060 887.018 805.121 3231.030 1117.322 1025.528 1284.119 4450.113 5518.515 8837.448 8158.445 7757.127 7628.192 3991.401 1602.299 842.616 4814.019 1465.140 7566.216 964.962 3219.005 1626.224 4549.054 832.339 8303.284 3944.788 986.006 2425.797 5564.015 4592.608 6144.550 771.169 1708.468 856.624 1137.070 6079.986 1015.337 1808.031 1159.185 1166.015 2936.907 556.574 6310.932 7758.604 4076.724 4484.959 1121.145 4601.710 1304.281 868.035 7068.784 5877.420 2093.805 8052.499 930.946
481.941 6113.970 1096.864 232.487 977.925 1160.370 4579.388 1929.169 4266.336 1816.070 3355.705 6853.152 2145.471 2336.199 6207.571 3863.806 5157.642 1328.832 6972.155 1042.954 4230.615 3070.186 3762.871 6941.049 221.810 4255.934 1012.451 1060.634 1248.354 745.728 702.996 3868.280 1500.972 2934.970 716.801 4083.190 1134.970 3829.030 4157.465 765.537 3015.804 6820.661 7505.580 6504.947 3973.811 4562.947 7989.597 2127.673 3840.507 1394.087 893.842 1135.053 1097.749 2711.154 671.203 658.532 2640.469 8018.255 633.759 705.443 973.038 3510.069 6494.592 924.738 1046.447 4128.056 361.533 661.411 9533.365 8660.741 244.076 1073.092 2706.660 889.384 6751.575 5003.957 4090.259 1089.395 394.558 4532.436 2490.739 695.306 1041.547 1308.147 1226.431 2769.019 6505.566 490.162 3991.859 2607.167 8194.229 979.324 0.000 1027.143 6734.683 339.055 3304.622 1108.563 626.585 4232.031 8431.281 6709.075 779.022 3069.857 3489.913 1718.162 4118.632 3266.056 443.051 3771.585 1248.187 628.667 511.892 7205.448 2540.223 9452.380 923.641 8186.966 562.954 5674.432 1325.772 4337.874 6532.128 2084.892 2282.053 2618.311 769.178 1282.272 3882.099 547.972 311.333 1127.169 1535.365 932.144 10401.324 7181.037 684.797 8094.145 2298.557 596.690 1240.862 2982.527 650.336 558.541 2059.325 3983.127 5270.012 8588.945 8975.096 7508.624 6955.063 4732.143 843.673 1278.356 4347.032 706.513 6893.086 156.544 2719.366 1377.721 4971.187 1648.989 7738.483 3445.149 654.800 1926.158 6304.757 4125.622 5896.047 1036.806 1208.828 1673.275 378.444 6896.636 256.711 1201.718 644.628 407.389 2806.659 796.891 7127.583 8499.345 4206.321 4710.116 362.519 4435.735 1242.162 774.711 6569.145 5628.917 1626.818 7803.996 1118.304
949.673 6461.153 1008.185 838.657 419.925 820.557 4675.435 2025.216 4194.642 1340.241 2845.091 6377.323 1634.856 1860.370 6728.245 3959.853 5284.361 989.019 6496.326 499.416 3720.000 3166.233 3672.534 6465.220 827.981 4570.464 672.638 852.183 908.542 652.121 1017.527 3447.001 1848.156 3249.501 674.213 4397.721 689.307 4143.561 4085.771 324.620 2539.975 6344.833 7917.926 6631.666 4320.995 5151.683 8085.645 1651.844 3615.110 1054.274 1174.426 926.602 757.936 2807.201 1277.374 973.063 2954.999 7507.641 812.509 884.193 631.291 3606.116 7083.328 540.223 837.996 4442.586 967.703 775.140 9461.671 8589.047 900.038 733.280 2802.708 1418.558 6679.881 5318.487 4186.306 749.582 1000.729 4846.967 2586.787 1009.837 701.734 954.236 1322.478 2981.794 7094.301 852.262 3516.030 2172.443 7683.614 435.785 807.719 0.000 7081.867 769.521 2794.007 768.750 941.115 4328.079 7920.667 6233.246 892.751 3165.904 4010.587 1242.334 4214.680 2790.227 770.147 3546.188 1644.484 990.768 649.764 6729.619 2854.753 9380.686 1501.747 7676.351 700.826 5163.818 1722.070 4652.404 7052.803 2432.075 1806.224 2142.482 621.836 942.459 3406.270 910.072 917.503 1733.339 1891.629 841.807 10282.413 7277.084 1219.123 7583.531 2394.604 734.562 901.049 3078.574 964.866 873.072 1548.710 4297.658 5366.059 8684.993 8499.267 7604.672 7475.737 4221.529 1449.843 938.544 4661.563 1312.684 7413.760 812.506 3066.550 1473.768 4668.396 1173.160 8150.829 3792.332 833.550 2273.341 5794.142 4440.153 5992.094 618.713 1556.012 1197.446 984.614 6420.807 862.881 1655.575 1006.729 1013.559 2784.451 404.118 6651.754 7988.731 4115.984 4619.779 968.689 4531.783 1151.826 715.580 6916.328 5724.964 1941.349 7900.044 778.491
6740.414 3102.672 5909.855 6290.400 7006.349 7271.860 8746.220 5922.991 9956.021 7697.603 9178.828 12734.684 7992.218 8217.732 4732.949 7141.078 9665.133 7440.322 12853.688 6933.321 10053.737 6670.675 9874.361 12822.582 6480.283 8037.625 7123.941 6379.527 7359.845 6857.218 6961.469 9804.363 5024.391 6986.241 6828.291 7512.068 6970.406 7257.908 9847.151 6769.871 8897.337 12702.194 8834.024 11012.438 4417.563 4030.118 11389.542 8009.206 9951.998 7505.577 6131.095 6453.946 7209.239 6877.986 6365.867 6917.005 7200.902 13841.378 6401.826 6473.511 7084.529 6761.299 3828.202 7036.229 6365.339 7339.901 6232.489 6772.901 14586.944 14299.797 6712.617 7184.583 5726.836 5897.591 11984.538 7594.174 5487.478 7200.885 6653.031 9039.908 5355.779 6953.779 7153.037 7311.598 5662.804 5271.476 4454.934 6253.097 9873.392 8529.804 14017.351 6869.691 6620.298 7138.633 0.000 6350.252 9127.744 7220.053 6885.058 8398.863 14254.404 12590.608 6890.512 6832.640 6422.569 7599.695 5441.269 9147.589 6554.541 9883.076 5486.242 6114.592 6623.382 13086.981 7391.362 14282.230 6186.162 14010.088 6592.705 11497.555 5563.827 7432.182 4891.738 4531.622 8163.585 8499.844 6880.668 7393.762 9763.632 6195.287 6504.801 6387.716 5151.126 7043.635 16512.814 5096.251 5903.538 13917.268 5747.964 6708.180 7352.352 6002.702 6908.809 6817.014 7906.072 7432.678 9258.834 11988.890 14856.629 10908.569 4589.045 10555.266 6813.232 7389.847 7473.794 6661.373 4660.006 6625.085 4501.103 5814.095 10434.960 7530.522 9066.927 3526.465 6422.868 4624.011 12127.879 7554.500 6992.028 7148.296 5316.535 7554.808 6636.917 12778.169 6314.625 5747.074 6098.631 6665.862 8150.312 6808.405 13009.116 14322.468 9585.378 10821.606 6453.616 8602.567 7353.653 6886.202 3841.231 9617.739 7885.291 4624.113 7229.794
597.182 5992.550 757.809 369.081 739.163 921.608 4240.333 1590.114 4046.217 1577.308 3116.943 6614.390 1906.709 2097.437 6344.165 3524.751 5119.681 1090.070 6733.394 804.192 3991.853 2731.131 3524.109 6702.288 358.404 4217.973 773.690 721.579 1009.593 506.967 665.036 3629.519 1379.553 2897.010 478.040 4045.230 896.208 3791.070 3937.347 526.775 2777.043 6581.900 7565.435 6466.987 3852.392 4571.488 7650.542 1888.911 3601.746 1155.326 554.787 795.998 858.988 2372.099 685.006 620.572 2602.508 7779.493 294.704 366.388 734.277 3171.014 6503.133 685.977 707.392 4090.095 386.581 422.649 9313.246 8440.622 430.462 834.331 2367.605 767.964 6531.456 4965.997 3751.204 850.633 531.153 4494.476 2151.684 657.346 802.786 1069.386 887.376 2546.691 6514.106 151.107 3753.097 2368.406 7955.467 740.562 338.142 788.382 6613.264 0.000 3065.860 869.801 588.625 3892.976 8192.520 6470.314 540.260 2730.802 3626.507 1479.401 3779.577 3027.294 204.290 3532.824 1126.767 289.612 273.130 6966.687 2502.262 9232.262 846.001 7948.204 324.192 5435.671 1204.353 4299.914 6668.723 1963.472 2043.291 2379.549 530.417 1043.510 3643.338 208.917 447.927 1167.379 1413.945 693.383 10162.562 6841.982 563.377 7855.383 1959.502 357.928 1002.100 2643.472 612.376 520.581 1820.563 3945.167 4930.957 8249.890 8736.334 7169.569 7016.480 4493.382 980.267 1039.595 4309.072 843.108 7029.680 342.930 2597.946 1038.666 4632.132 1410.227 7798.338 3323.729 315.745 1804.738 6065.995 4087.662 5556.992 798.044 1087.409 1434.513 515.038 6657.874 393.305 1080.298 305.573 543.983 2636.026 558.130 6888.821 8260.584 3967.560 4471.355 499.113 4096.680 1003.401 535.950 6447.725 5289.862 1588.858 7464.941 879.542
2962.893 8743.606 3290.637 3234.609 2644.496 2652.655 4733.389 3841.899 5205.341 1577.245 51.083 5638.750 1159.151 1963.923 8741.465 5204.937 6161.566 2386.654 4846.374 2404.144 925.993 3856.340 3828.390 4815.268 3223.932 6583.684 2597.571 3134.636 2461.619 2658.505 3030.747 2708.428 4130.609 5262.721 2745.211 6410.941 2437.038 6156.781 5096.471 2713.664 1685.341 5606.260 9931.146 7564.606 6324.129 7434.136 8256.774 1928.502 2876.537 2451.909 3456.879 3209.055 2682.869 2978.330 3587.536 2986.283 4968.219 4713.633 3156.936 3228.621 2855.862 5193.770 9365.781 2764.795 3120.449 6455.806 3363.655 2788.360 10693.528 9561.405 3295.990 2658.213 4619.390 3701.011 7911.739 7331.707 6002.988 2674.515 3305.186 6454.518 4601.101 3023.057 2362.687 2106.977 3604.931 4996.108 9204.262 3261.801 1389.127 2227.523 4889.607 2813.484 3203.670 2434.164 9364.320 3165.472 0.000 2295.671 2954.335 4499.208 5126.660 4583.294 2905.971 3635.637 6023.807 2254.722 6031.362 1158.267 3179.685 2807.615 3926.937 3317.104 3059.302 5079.667 4867.973 10612.544 3784.200 4882.344 3110.364 2369.811 4004.523 6665.624 9066.023 4714.528 1924.140 1348.312 2797.588 2340.094 2667.697 3236.408 3227.666 4037.797 4174.082 2848.191 9543.840 9093.766 3501.576 4789.523 4211.286 3144.101 2298.684 4895.256 2978.086 2886.292 1377.763 6310.878 5537.189 8856.122 6849.314 7775.801 9488.957 1427.522 3754.301 2336.178 6674.783 3617.141 9426.980 3208.458 5349.002 3756.221 2616.535 1761.331 10164.049 6074.785 3177.977 4555.794 3000.135 6453.373 7726.793 2703.377 3838.465 1720.040 3211.030 5682.234 3258.833 3938.028 3333.065 3037.444 4513.392 2752.198 4123.025 5194.724 4727.624 4200.107 3278.852 4589.737 2881.914 2721.964 9198.781 5896.093 3954.569 9716.726 2703.424
667.222 6599.646 1146.678 938.938 348.825 449.819 4682.967 2163.709 3905.355 707.507 2335.835 5744.589 1125.601 1227.636 6445.794 4098.346 4995.074 220.269 5863.592 637.909 3210.745 3304.726 3245.801 5832.486 928.261 4288.013 301.900 990.676 229.450 362.835 735.076 2814.267 1986.649 2967.050 449.540 4115.270 827.800 3861.110 3796.484 463.113 1907.241 5712.099 7635.475 6342.380 4459.488 5184.286 8206.352 1019.110 2982.376 285.524 1312.919 1065.095 387.199 2927.908 1291.866 690.612 2672.548 6998.385 951.002 1022.686 560.192 3744.609 7115.931 469.124 976.489 4160.135 1067.984 492.689 9172.384 8299.760 1000.319 362.542 2941.201 1557.051 6390.594 5036.037 4324.799 378.844 1009.515 4564.516 2725.280 727.386 67.016 199.584 1460.971 3120.287 6908.591 990.755 2883.296 1539.709 7174.359 574.278 907.999 138.493 7220.360 869.801 2284.752 0.000 658.665 4448.786 7411.412 5600.512 610.300 3304.397 3728.136 609.600 4353.173 2157.493 908.640 2913.454 1782.977 1129.261 788.257 6096.885 2572.302 9091.400 1630.093 7167.096 839.319 4654.563 1860.563 4369.953 6770.352 2570.568 1173.490 1509.748 501.917 173.709 2773.536 1048.565 931.995 1742.126 2030.122 552.521 9649.679 7415.577 1357.616 7074.275 2533.097 873.055 132.299 3217.067 682.415 590.621 992.206 4015.207 5486.766 8805.700 7866.533 7725.379 7193.286 3712.274 1458.630 169.794 4379.112 1321.470 7131.309 912.787 3205.043 1612.261 4346.056 540.426 7868.378 3930.825 972.043 2411.834 5284.887 4157.702 6130.587 407.706 1694.505 564.712 915.359 5788.073 963.162 1794.068 1145.222 741.774 2495.164 542.611 6019.020 7479.476 3784.811 4193.046 983.181 4539.314 862.539 426.293 7054.821 5845.671 1658.898 8038.537 407.753
244.460 6553.421 1453.740 671.938 635.333 817.778 4936.264 2286.045 3675.335 1473.478 3101.806 6510.560 1891.572 1993.607 5837.269 4220.682 4566.641 986.240 6629.563 1183.967 3976.716 3427.062 3407.213 6598.457 661.262 3664.933 669.859 1417.510 905.762 403.136 76.411 3512.623 1940.424 2343.969 374.209 3492.189 1373.858 3238.029 3566.464 1009.171 2673.212 6478.069 7026.950 5913.946 4413.263 4719.734 8346.473 1785.081 3484.850 1051.495 1250.718 1491.929 755.157 3068.030 827.313 31.948 2049.468 7764.356 990.635 1062.319 630.446 3866.945 6651.379 582.146 1403.323 3537.055 800.984 305.753 8942.364 8069.740 760.823 730.500 3063.536 1328.835 6160.574 4412.956 4447.135 746.803 400.990 3941.436 2847.615 118.861 698.955 965.555 1583.307 3208.471 6300.066 847.038 3649.267 2251.510 7940.330 1120.337 566.785 684.551 7174.135 695.931 3050.723 765.971 0.000 4588.907 8177.383 6366.483 423.364 3426.733 3119.611 1375.570 4475.508 2923.464 799.927 3415.928 1687.638 985.543 868.768 6862.856 1949.222 8861.380 1235.958 7933.067 919.830 5420.534 1765.224 3746.873 6161.827 2524.343 1939.461 2275.719 426.586 939.680 3539.507 904.848 467.443 1133.601 1974.816 576.487 10045.666 7537.912 1124.248 7840.246 2655.433 953.566 898.270 3339.403 73.890 167.860 1758.177 3392.126 5626.888 8945.821 8632.504 7865.500 6584.761 4478.245 850.105 935.764 3756.032 712.945 6522.784 673.292 3158.818 1734.597 5112.027 1306.397 7259.853 3884.600 1011.676 2365.609 6050.858 3534.621 6252.923 694.213 1648.280 1330.683 306.834 6554.044 696.162 1466.972 1001.504 319.012 2215.658 1088.669 6784.991 8245.447 3850.664 4354.459 518.629 4792.611 886.505 432.119 7008.596 5985.793 1035.818 8160.872 775.711
4604.629 7692.066 3513.098 4205.651 4594.924 4800.293 744.088 2792.605 8053.665 4391.942 4558.916 9199.640 4172.354 5157.985 9206.851 2155.141 9044.792 4534.292 9153.339 4329.726 5433.826 1830.875 7176.150 9122.233 4365.852 8225.421 4745.210 3982.770 4609.257 4514.414 4672.483 6269.318 3725.511 6904.457 4485.487 8052.677 3945.935 7798.517 7944.794 4358.446 5362.293 9167.150 11482.970 10447.833 4545.325 6893.393 3861.263 4949.459 6437.427 4599.547 3774.090 4057.189 4830.508 1522.318 4281.117 4628.020 6609.956 9221.466 4005.070 4076.755 4741.724 2870.960 8825.038 4693.424 3968.583 8097.543 4147.739 4430.097 13320.693 12448.070 4437.909 4805.851 2840.586 3812.994 10538.904 8973.444 3765.180 4822.153 4538.600 8501.924 3529.453 4664.793 4510.325 4254.616 3264.845 3924.460 8836.012 3856.341 5696.093 5470.058 9397.440 4458.266 4345.590 4581.802 8375.111 4007.447 4507.833 4443.309 4596.072 0.000 9634.493 8890.259 4547.708 1668.207 7467.303 4542.713 3731.215 5005.557 4211.737 6368.505 3521.839 3717.835 4280.577 9386.632 6509.710 13239.709 4101.412 9390.177 4195.949 6877.644 3599.425 8307.361 9494.509 3922.807 5103.839 4964.799 4537.864 4487.732 6228.588 3798.531 4420.052 4313.631 3768.984 4700.830 13104.731 6654.927 3818.788 9297.356 3067.305 4365.376 4446.322 3116.452 4619.823 4528.029 4302.789 7952.614 1141.678 4460.611 11156.279 3380.290 9338.386 5935.355 4739.146 4483.817 8316.520 4587.287 9409.346 4350.377 4557.281 2985.933 5947.564 4470.775 11715.873 5218.659 4026.111 4018.579 7507.968 8095.109 4553.919 4793.712 3433.367 4495.061 4522.485 9243.124 4229.875 3782.671 3701.874 4551.431 6643.474 4396.981 8630.858 9702.557 7717.924 7760.998 4368.866 311.911 5010.848 4543.397 8147.241 1500.582 5596.306 7277.887 4851.062
8002.294 13783.007 8330.038 8274.010 7683.897 7692.056 9478.722 8881.300 10244.742 6616.646 4988.318 7813.547 6198.552 7003.324 13780.866 10244.338 11200.967 7426.055 5665.885 7443.545 5061.222 8895.741 8725.720 5320.021 8263.333 11623.085 7636.972 8174.037 7501.020 7697.906 8070.148 7281.641 9170.010 10302.122 7784.612 11450.342 7476.439 11196.182 10135.872 7753.065 6625.947 7846.037 14970.547 12604.007 11363.530 12473.537 9304.790 6967.903 7523.523 7491.310 8496.280 8248.456 7722.270 8017.731 8626.938 8025.684 10007.620 492.131 8196.337 8268.022 7895.263 10233.172 14405.182 7804.196 8159.850 11495.207 8403.056 7827.761 14100.606 12218.967 8335.391 7697.614 9658.791 8740.412 12745.172 12371.108 11042.389 7713.916 8344.587 11493.919 9640.502 8062.458 7402.088 7146.378 8644.332 10035.509 14243.663 8301.202 5948.257 7266.924 309.740 7852.885 8243.071 7473.565 14403.721 8204.873 5039.401 7335.072 7993.736 9468.426 0.000 5017.406 7945.372 8675.038 11063.208 7294.123 11070.763 6197.668 8219.086 7454.602 8966.338 8356.505 8098.704 5584.420 9907.374 14522.130 8823.601 376.328 8149.766 3034.403 9043.924 11705.025 14105.424 9753.929 6963.541 6387.713 7836.989 7379.495 7196.028 8275.809 8267.067 9077.198 9213.483 7887.592 12201.402 14027.538 8540.977 568.021 9250.687 8183.502 7338.085 9934.657 8017.487 7925.693 6417.164 11350.279 8326.436 9904.138 8209.301 8823.817 14528.358 3752.012 8793.702 7375.580 11714.184 8656.542 14466.381 8247.859 10388.403 8795.622 5210.143 6800.732 15203.450 11114.186 8217.378 9595.195 3342.809 11492.774 11792.069 7742.778 8877.866 6759.441 8250.431 7846.665 8298.234 8977.429 8372.466 8076.845 9552.793 7791.599 3803.850 973.221 9722.886 8531.689 8318.253 9373.377 7921.315 7761.365 14238.182 8247.944 8993.970 14650.497 7742.825
6293.908 12181.282 6728.313 6565.624 5975.511 5924.005 9105.457 7745.345 6826.629 4952.927 4409.183 2796.141 5355.613 4796.138 12072.480 9577.005 7894.034 5717.669 648.479 5804.121 3955.162 8228.408 5193.387 302.615 6554.947 9536.625 5928.586 6572.312 5792.634 5989.520 6361.762 3749.307 7568.284 8268.175 6076.226 9341.066 5933.885 9086.906 6717.759 6089.799 3707.983 2828.631 13262.161 9217.938 10041.123 10810.972 9566.157 4876.113 3991.190 5782.924 6894.554 6646.731 6013.884 7350.398 6918.551 6317.298 8033.260 4723.895 6577.688 6649.372 6186.877 9326.245 12742.617 6095.810 6558.125 9385.931 6694.669 6119.375 9083.200 7201.560 6627.005 5989.228 8522.836 7138.687 8787.713 10261.833 9906.435 6005.530 6636.201 8706.661 8306.915 6354.072 5693.701 5437.992 7042.607 8701.922 12535.277 6617.441 3458.793 5059.738 4827.698 6200.964 6534.685 5765.179 12801.995 6496.487 4460.266 5626.686 6285.350 8871.276 4934.022 0.000 6236.986 8007.704 9354.822 5421.564 9934.808 4393.891 6535.325 3922.268 7364.613 6754.779 6414.943 567.014 7933.014 9504.723 7221.876 4557.694 6466.005 2874.629 7442.199 9595.749 12397.037 8152.204 4756.355 4294.591 6128.603 5671.109 3663.695 6674.084 6558.681 7368.811 7611.758 6107.111 7183.996 12997.212 6939.252 4799.784 8114.733 6499.741 5629.699 8798.702 6309.101 6217.307 5237.626 9261.676 8587.802 10165.504 3191.895 9085.184 12819.972 3390.047 7085.316 5667.193 9604.908 6948.156 12757.995 6539.473 8786.678 7193.897 4866.301 5092.346 13495.064 9512.461 6598.729 7993.470 3287.422 9383.498 11712.223 6034.392 7276.140 5051.055 6542.045 2829.259 6589.848 7375.704 6770.741 6368.459 7372.422 6152.175 1577.277 5204.985 6190.552 4984.615 6609.867 8961.804 6070.406 6052.979 12636.457 8509.311 7240.118 13620.172 6034.439
337.681 6490.880 1298.069 609.397 447.445 491.908 4780.593 2130.375 3505.957 1273.062 2901.390 6161.722 1691.156 1711.932 6043.942 4065.011 4595.676 760.926 6425.257 996.079 3776.300 3271.392 2983.849 6394.151 598.720 3866.180 378.722 1261.839 579.892 247.466 405.476 3089.259 1877.882 2545.217 218.538 3693.437 1185.970 3439.277 3397.086 821.283 2468.906 6129.231 7233.623 5942.981 4350.721 4854.745 8190.803 1503.406 3061.485 826.181 1095.047 1336.258 429.287 2912.359 962.325 361.071 2250.715 7563.940 834.964 906.649 474.776 3711.274 6786.390 426.476 1247.652 3738.302 738.443 117.611 8772.986 7900.362 670.778 404.630 2907.866 1266.294 5991.196 4614.204 4291.464 420.932 679.974 4142.683 2691.945 397.845 511.067 777.668 1427.636 3086.952 6506.739 691.367 3444.961 1828.145 7739.914 932.449 578.458 496.663 7111.593 540.260 2850.307 578.083 329.124 4433.237 7976.967 6162.177 0.000 3271.062 3326.284 1065.322 4319.838 2719.158 644.257 2992.564 1625.097 829.872 713.097 6658.550 2150.469 8692.001 1300.552 7732.651 764.159 5220.118 1702.683 3948.121 6368.500 2461.802 1657.786 2071.413 270.915 714.366 3157.245 749.177 602.454 1412.585 1912.275 153.122 9622.302 7382.242 1061.707 7639.830 2499.762 797.895 672.956 3183.732 352.875 261.080 1557.762 3593.374 5471.217 8790.151 8347.979 7709.830 6791.434 4277.829 1129.089 710.450 3957.279 991.929 6729.457 583.246 3096.276 1578.926 4911.611 1118.509 7466.526 3822.059 856.005 2303.068 5850.442 3735.869 6097.252 506.326 1585.738 1130.267 585.818 6205.206 633.621 1578.628 845.834 412.233 2095.766 900.782 6580.685 8045.031 3427.299 3931.094 653.640 4636.941 463.141 276.449 6946.055 5830.122 1237.065 8005.202 449.841
3334.825 6259.678 2243.294 2935.847 3339.788 3659.252 2080.238 1241.794 6783.860 3526.930 3693.904 8334.628 3307.341 4292.973 7937.047 1714.318 7857.325 3669.280 8288.327 3266.761 4568.814 466.857 6261.753 8257.221 3096.047 6955.617 3511.333 2712.966 3744.245 3244.610 3402.679 5404.306 2455.707 5634.653 3215.683 6782.873 3080.923 6528.713 6674.990 3103.310 4497.280 8302.138 10213.166 9204.630 3112.937 5623.589 5448.765 4084.447 5572.415 3734.535 2504.286 2787.385 3596.631 688.161 3011.313 3358.216 5340.152 8356.454 2735.266 2806.950 3471.920 1897.181 7555.234 3423.620 2698.779 6827.739 2877.935 3160.292 12050.889 11178.265 3168.105 3571.974 1408.197 2543.190 9269.100 7703.640 2791.796 3588.276 3268.796 7232.119 2000.997 3394.989 3540.429 3389.603 1995.041 2396.004 7566.208 2586.537 4831.080 4605.045 8532.428 3203.130 3075.786 3526.025 6942.723 2737.643 3642.821 3578.297 3326.268 1691.199 8769.481 8025.247 3277.904 0.000 6197.499 3677.700 2820.169 4140.544 2941.933 5503.493 2252.035 2448.031 3010.773 8521.620 5239.906 11969.905 2831.608 8525.165 2926.145 6012.631 2329.621 7037.557 8224.705 2653.003 4238.827 4099.787 3268.060 3622.720 5363.576 2528.726 3150.247 3043.827 2499.180 3431.026 12239.718 5882.574 2548.984 8432.344 1611.182 3095.572 3581.310 1684.064 3350.019 3258.224 3437.777 6682.810 2729.179 6048.113 10291.267 4967.792 8068.582 5070.342 3469.342 3618.804 7046.716 3317.483 8139.542 3080.573 3287.477 1716.129 5082.551 3605.763 10446.069 3786.271 2756.307 2748.775 6642.956 6825.305 4255.518 3535.687 2163.563 3630.049 3252.681 8378.112 2960.071 2512.867 2432.070 3281.626 5373.670 3141.845 7765.846 8837.545 6705.203 6895.986 3099.062 1899.412 3741.044 3273.593 6714.853 3088.084 4326.501 6505.533 3617.185
3382.533 7428.105 4202.457 3618.829 3926.606 4109.051 7684.981 5034.762 5338.036 4764.751 6393.080 9156.899 5182.845 5257.711 2717.658 6969.399 5047.147 4277.513 9920.837 4475.241 7267.989 6175.779 5795.666 9889.731 3694.450 2811.208 3961.133 4510.041 4197.036 3694.410 3464.027 6331.304 4516.377 2275.927 3665.483 1585.532 4584.376 1470.397 5229.165 4214.944 5964.486 9124.409 4334.517 6392.929 6850.900 4709.952 11095.191 5049.185 6303.530 4342.769 4128.536 4584.460 4046.431 5816.747 3702.762 3508.491 2490.588 11055.630 4083.165 4154.850 3921.720 6615.662 3889.017 3873.420 4495.853 1411.016 3747.875 3597.027 9967.435 9680.288 3794.012 4021.774 5812.254 3904.788 7365.029 1704.136 7195.852 4038.076 3227.037 4047.629 5566.538 3595.898 3990.229 4256.829 4332.024 5784.424 3180.455 3939.568 6940.540 5070.190 11231.604 4411.610 3599.973 3975.825 7331.495 3788.462 6341.997 4057.244 3527.177 7337.625 11468.656 9657.757 3714.638 6175.450 0.000 4611.101 7224.225 6214.737 3892.458 6234.609 4263.591 4078.074 3961.298 10154.130 2681.049 9662.721 3719.175 11224.340 4012.360 8711.807 4341.177 1503.297 3042.216 5100.296 5203.565 5566.992 3717.860 4230.953 6399.290 3997.378 3404.428 3413.858 4550.769 3867.760 12434.119 10140.174 3857.581 11131.520 5404.150 4046.096 4189.543 6088.120 3519.268 3459.133 5049.451 2248.862 8375.605 11694.538 11121.200 10614.218 3465.150 7769.518 2901.586 4227.038 1544.909 2915.082 3403.173 3706.480 5734.770 4483.314 8403.300 4597.670 4567.420 5277.358 4104.206 4941.562 9342.131 2122.542 9001.640 3985.487 4224.233 4621.956 3296.164 9200.384 3643.053 3836.877 4094.035 3426.355 3439.998 4246.298 10076.264 11536.720 4967.393 6742.911 3455.614 7541.329 3676.584 3723.393 7883.280 8734.510 3536.754 10476.254 4066.985
1307.798 7195.172 1742.203 1579.514 989.401 997.560 4726.090 2759.235 4025.379 207.740 1836.069 5240.932 625.834 723.979 7086.370 4693.872 4981.604 731.559 5359.936 818.011 2710.978 3849.041 2742.144 5328.830 1568.837 4928.589 942.476 1586.202 806.524 1003.410 1375.652 2310.610 2582.174 3607.626 1090.116 4755.846 947.775 4501.686 3916.509 1103.689 1403.584 5208.442 8276.051 6384.644 5055.013 5824.862 8249.475 515.453 2478.719 796.814 1908.444 1660.621 1027.774 2971.031 1932.441 1331.188 3313.124 6498.619 1591.578 1663.262 1200.767 4340.135 7756.507 1109.700 1572.015 4800.711 1708.559 1133.265 9320.169 8447.546 1640.895 1003.118 3536.726 2152.577 6538.380 5676.612 4920.325 1019.420 1650.091 5205.092 3320.805 1367.962 707.591 451.882 2056.497 3715.812 7549.167 1631.331 2379.639 1036.052 6674.593 1214.854 1548.575 779.069 7815.885 1510.377 1784.986 640.576 1299.240 4491.909 6911.645 5096.856 1250.876 3628.337 4368.712 0.000 4948.698 1653.836 1549.215 2409.797 2378.503 1768.669 1428.833 5593.229 3212.878 9239.185 2235.766 6667.329 1479.895 4154.796 2456.089 5010.529 7410.927 3166.094 669.833 1006.091 1142.493 684.999 2269.880 1687.974 1572.571 2382.701 2625.648 1193.096 9146.023 8011.102 1953.142 6574.509 3128.623 1513.631 643.589 3812.592 1322.991 1231.197 492.440 4655.783 5529.889 8848.823 7362.876 7768.502 7833.862 3212.507 2099.206 681.083 5019.688 1962.046 7771.885 1553.363 3800.568 2207.787 3846.289 106.236 8508.954 4526.351 1612.619 3007.360 4785.120 4798.278 6726.113 1048.282 2290.030 64.945 1555.935 5284.416 1603.738 2389.594 1784.631 1382.349 2854.331 1166.065 5515.363 6979.709 3641.378 3689.389 1623.757 4582.438 1226.819 1066.869 7650.347 5888.794 2299.474 8634.062 1048.329
4469.213 4618.271 3377.681 4068.555 4474.176 4793.639 4474.039 2298.038 7918.248 5165.429 6141.429 10202.511 5460.045 5685.558 7621.184 1833.063 8991.712 4962.101 10321.515 4401.148 7016.339 2562.276 7396.140 10290.409 4230.435 8090.004 4645.720 3847.353 4881.624 4378.997 4537.067 7272.189 3089.892 6769.041 4350.070 7917.261 4438.232 7663.101 7809.377 4237.698 6365.164 10170.021 11335.210 10339.017 1755.088 5307.726 6645.296 5477.032 7440.299 5027.356 3638.673 3921.772 4731.018 3335.289 4144.021 4492.603 6474.539 10803.979 3869.653 3941.338 4606.308 1687.329 7239.371 4558.008 3833.166 7962.126 4010.643 4294.680 13185.277 12312.653 4302.492 4706.362 1413.062 3675.746 10403.487 8838.027 132.162 4722.664 4403.183 8366.507 2285.428 4529.377 4674.816 4779.425 3129.428 2405.784 7250.344 3720.924 7278.605 5997.631 10979.953 4337.518 4210.173 4660.412 5911.449 3872.031 6090.346 4741.832 4460.655 3729.950 11217.005 10058.435 4412.291 2724.241 7319.543 5067.522 0.000 6588.069 4076.320 7371.377 3264.396 3582.418 4145.161 10554.808 6374.293 13104.292 3964.316 10972.690 4060.532 8460.156 3341.982 8171.944 7908.841 2914.163 5631.412 5967.670 4402.447 4915.541 7231.459 3663.114 4282.956 4165.871 3216.627 4565.413 14034.593 3111.484 3681.692 10879.869 1946.646 4229.959 4874.131 1278.262 4484.406 4392.612 5373.899 7817.198 4514.587 7244.643 12324.455 6164.323 7752.718 7517.867 4591.386 4911.626 8181.103 4439.527 7823.679 4214.961 3214.943 2868.828 7530.076 4998.348 11568.113 3219.832 3890.694 3006.552 9090.481 7959.693 3087.719 4670.075 3155.496 5022.634 4387.069 10245.996 4092.779 3525.228 3566.457 4416.014 6508.057 4276.232 10213.370 11285.069 7839.590 8343.385 4231.770 4041.861 4875.432 4407.981 5073.446 4873.492 5460.889 3734.444 4751.573
2831.353 8718.727 3265.758 3103.069 2512.956 2461.450 5263.754 4282.790 4523.982 1490.372 1151.869 4725.762 1556.709 1333.584 8609.925 5735.302 5531.226 2255.114 4647.355 2341.566 1443.228 4386.704 2930.640 4616.249 3092.392 6406.679 2466.031 3109.757 2330.079 2526.966 2899.207 1795.440 4105.730 5085.715 2613.671 6233.935 2471.330 5979.775 4415.112 2627.244 691.004 4693.272 9799.606 6934.267 6578.569 7348.417 8787.138 1413.558 1963.549 2320.369 3432.000 3184.176 2551.330 3508.695 3455.997 2854.743 4791.214 5814.419 3115.133 3186.817 2724.323 5724.135 9280.062 2633.255 3095.570 6278.801 3232.115 2656.820 10036.220 8648.418 3164.450 2526.673 5060.282 3676.132 7254.430 7154.702 6443.880 2542.975 3173.646 5824.178 4844.361 2891.517 2231.147 1975.438 3580.052 5239.367 9072.722 3154.886 1327.098 1597.183 5990.393 2738.409 3072.130 2302.624 9339.441 3033.932 1100.786 2164.131 2822.796 5029.572 6227.446 4384.275 2774.431 4166.001 5892.267 1959.009 6472.253 0.000 3072.771 1894.628 3902.058 3292.225 2952.388 4880.648 4690.968 9955.236 3759.321 5983.130 3003.450 3470.597 3979.644 6488.619 8934.483 4689.649 1293.801 795.120 2666.048 2208.554 1754.710 3211.529 3096.126 3906.257 4149.203 2644.556 8630.853 9534.658 3476.697 5890.309 4652.178 3037.186 2167.144 5336.148 2846.546 2754.752 1775.072 6133.872 6067.553 9386.486 6650.295 8306.165 9357.417 2528.308 3622.761 2204.639 6497.777 3485.601 9295.440 3076.918 5324.123 3731.342 3692.280 1629.792 10032.509 6049.906 3136.174 4530.915 4100.921 6276.367 8249.668 2571.837 3813.586 1588.500 3079.490 4769.247 3127.293 3913.149 3308.186 2905.905 3967.098 2689.620 4520.213 6295.510 3829.873 3287.120 3147.312 5120.101 2607.851 2590.424 9173.902 6426.458 3777.563 10157.618 2571.884
728.032 5923.559 688.818 375.502 833.739 1052.459 4171.342 1521.123 4177.068 1682.579 3174.494 6719.661 1977.195 2202.708 6277.839 3455.760 5250.532 1220.920 6838.665 874.678 4049.403 2662.140 3654.960 6807.559 489.255 4348.824 904.540 652.588 1140.443 637.817 795.886 3760.369 1310.562 3027.860 608.890 4176.080 966.072 3921.920 4068.197 597.261 2882.314 6687.171 7696.286 6597.837 3783.401 4502.497 7581.552 1994.182 3732.596 1286.176 485.796 727.007 989.838 2303.108 616.016 751.423 2733.359 7837.044 225.713 297.397 865.127 3102.023 6434.142 816.827 638.401 4220.946 317.590 553.500 9444.096 8571.473 561.312 965.181 2298.615 698.973 6662.307 5096.847 3682.213 981.484 662.003 4625.327 2082.694 788.196 933.636 1200.236 818.385 2477.700 6445.115 82.116 3858.369 2499.256 8013.017 811.048 468.993 919.232 6544.273 130.850 3123.410 1000.652 719.475 3823.986 8250.070 6575.585 671.111 2661.811 3757.357 1584.672 3710.586 3132.565 0.000 3663.674 1057.776 220.621 343.616 7071.958 2633.113 9363.112 777.010 8005.754 394.678 5493.221 1135.362 4430.764 6602.397 1894.481 2148.562 2484.820 661.267 1174.360 3748.609 139.926 578.777 1098.389 1344.954 824.233 10293.413 6772.991 494.386 7912.934 1890.511 428.414 1132.950 2574.481 743.226 651.432 1891.049 4076.017 4861.966 8180.899 8841.605 7100.579 6947.489 4550.932 1111.117 1170.445 4439.923 973.958 6963.354 473.780 2528.956 969.675 4563.141 1515.498 7929.188 3254.738 246.754 1735.747 6123.545 4218.512 5488.001 928.894 1018.418 1539.784 645.888 6763.146 399.726 1011.307 236.583 674.833 2766.877 628.615 6994.092 8318.134 4098.410 4602.205 538.717 4027.690 1134.251 666.800 6378.734 5220.871 1719.709 7395.951 1010.392
3376.673 9329.190 3876.221 3648.389 3078.369 2736.772 6740.681 4893.253 3257.184 2109.847 2844.972 3760.769 2527.941 1622.068 8768.546 6827.890 4441.133 2608.180 4502.451 2961.041 2726.396 5863.631 1663.841 4471.345 3637.712 6083.724 3031.025 3720.220 2783.794 3092.378 3444.527 496.829 4716.192 4815.274 3158.991 5888.165 3090.805 5634.005 3148.313 3192.656 1325.446 3728.279 9958.227 5765.037 7189.031 7893.738 10264.065 1805.908 68.922 2687.333 4042.462 3794.639 2995.040 4985.622 4001.317 3400.063 4580.359 7439.153 3680.545 3752.230 3289.735 6474.153 9825.382 3198.667 3706.033 5933.030 3777.435 3176.571 8541.727 7321.618 3709.770 2970.384 5670.744 4286.595 5759.937 6808.931 7054.343 2986.686 3718.967 5253.760 5454.823 3436.837 2838.739 2594.912 4190.515 5849.830 9231.342 3720.299 2148.974 1657.104 7615.127 3303.822 3617.451 2868.036 9949.903 3579.253 2793.889 2771.723 3368.116 6506.499 7852.180 4239.371 3058.959 5642.928 6050.888 2407.383 7082.716 1972.236 3638.183 0.000 4512.521 3858.804 3517.800 4735.744 4480.113 8460.743 4339.544 7607.864 3568.862 5095.331 4590.106 6142.848 9093.103 5300.112 1582.285 1634.524 3211.368 2598.015 564.816 3778.109 3641.447 4451.577 4759.666 2919.879 7665.860 10145.120 4087.160 7515.043 5262.640 3602.599 2639.425 5946.610 3391.867 3300.072 2394.546 5808.774 7544.480 10863.413 5947.027 9783.092 9516.037 4153.042 4168.081 2601.930 6152.007 4030.922 9454.061 3622.238 5934.586 4341.805 5342.056 2249.266 10191.129 6660.369 3701.586 5141.378 5725.655 5930.597 8860.130 3137.250 4424.048 2207.975 3624.811 3804.253 3672.613 4523.612 3874.766 3451.225 3707.783 3272.155 4937.050 7920.244 2563.075 1991.590 3692.632 6597.028 2696.165 3155.836 9784.365 7903.385 3802.701 10768.080 3015.595
1831.684 4952.058 1001.125 1381.671 2097.619 2363.130 4153.865 1503.646 5487.739 2788.873 4270.098 7825.955 3083.488 3309.002 6207.025 3438.283 6507.385 2531.592 7944.958 2024.592 5145.007 2644.664 4965.631 7913.852 1571.553 5605.677 2215.211 1470.797 2451.115 1948.489 2052.739 4895.633 476.941 4284.713 1919.561 5432.933 2061.676 5178.773 5378.868 1861.141 3988.607 7793.464 8648.326 7854.690 2839.059 3893.567 7564.075 3100.476 5043.268 2596.847 1222.365 1545.216 2300.510 2285.631 1457.137 2008.276 3990.212 8932.648 1493.097 1564.781 2175.799 3084.546 5825.212 2127.499 1456.610 5477.799 1323.759 1864.171 10754.768 9882.144 1803.887 2275.853 1985.994 988.861 7972.978 6180.744 3369.592 2292.155 1744.301 5882.180 1646.672 2045.049 2244.307 2402.868 800.908 1656.919 5836.185 1344.367 4964.662 3621.074 9108.622 1960.961 1711.568 2229.903 5572.771 1441.522 4219.015 2311.323 1976.328 3806.509 9345.674 7681.878 1981.782 2644.334 4632.659 2690.965 3397.966 4238.859 1645.812 4974.346 0.000 1205.862 1714.652 8178.251 3889.966 10673.784 1277.432 9101.358 1683.976 6588.825 77.586 5687.617 6494.682 922.980 3254.856 3591.114 1971.938 2485.032 4854.902 1286.557 1596.072 1478.986 287.178 2134.905 11604.084 6460.370 994.808 9008.538 1575.776 1799.450 2443.622 2261.860 2000.079 1908.285 2997.342 5332.870 4844.489 8163.423 9947.899 7083.102 6338.559 5646.536 1904.502 2481.117 5696.776 1752.643 6409.519 1716.355 1557.454 952.198 5526.230 2621.792 8881.229 2283.237 1514.138 764.246 7219.149 5475.365 5470.524 2239.566 509.754 2646.078 1728.187 7869.439 1405.895 838.344 1189.901 1757.132 4077.548 1899.675 8100.386 9413.738 5409.082 5912.877 1544.886 4010.213 2444.923 1977.472 5407.233 5203.394 2976.562 7083.330 2321.064
886.794 5732.976 468.197 499.704 972.037 1211.221 3950.721 1300.502 4335.829 1814.905 3296.130 6851.987 2109.521 2335.034 6236.994 3235.139 5409.293 1379.682 6970.991 1012.976 4171.040 2441.519 3813.722 6939.885 648.016 4507.586 1063.302 593.358 1299.205 796.579 954.648 3919.131 1119.979 3186.622 767.652 4334.842 1087.708 4080.682 4226.959 735.559 3014.640 6819.497 7855.048 6756.599 3592.817 4316.832 7360.930 2126.508 3891.358 1444.938 265.174 667.777 1148.600 2082.487 575.170 910.184 2892.121 7958.680 358.875 430.560 1023.889 2881.402 6248.477 975.589 579.170 4379.708 441.792 712.261 9602.858 8730.234 720.074 1123.943 2077.993 509.307 6821.069 5255.609 3461.592 1140.245 820.765 4784.088 1862.072 946.958 1092.398 1358.998 597.764 2257.079 6259.451 138.505 3990.694 2647.107 8134.654 949.346 627.755 1077.994 6353.689 289.612 3245.047 1159.413 878.237 3603.364 8371.707 6707.911 829.872 2441.189 3916.119 1716.998 3489.965 3264.891 493.902 3822.436 867.193 0.000 562.742 7204.284 2791.875 9521.874 592.496 8127.391 549.754 5614.858 944.779 4589.526 6561.551 1703.898 2280.888 2617.146 820.029 1333.122 3880.935 80.695 714.105 1057.543 1154.371 982.995 10452.174 6552.369 309.872 8034.570 1669.889 647.541 1291.712 2353.859 901.988 810.193 2023.375 4234.779 4641.345 7960.278 8973.931 6879.957 6761.825 4672.569 1269.879 1329.207 4598.684 1132.720 6832.785 632.542 2338.372 749.054 4684.777 1647.824 8087.950 3064.155 379.916 1545.164 6245.182 4377.274 5267.380 1087.656 827.835 1672.110 804.650 6895.471 523.928 820.724 15.961 833.595 2925.638 766.913 7126.418 8439.771 4257.172 4760.967 662.919 3807.068 1293.013 825.562 6188.151 5000.250 1878.470 7175.329 1169.154
1011.970 6278.483 825.514 783.868 490.123 890.756 4492.765 1842.546 4264.841 1338.964 2843.813 6376.045 1633.579 1859.093 6758.953 3777.183 5354.560 1059.218 6495.049 531.062 3718.723 2983.563 3742.733 6463.943 773.192 4632.761 742.837 669.513 978.740 722.320 1079.824 3445.724 1665.485 3311.798 744.411 4460.018 623.078 4205.858 4155.970 253.645 2538.698 6343.555 7980.223 6701.865 4138.324 4969.013 7902.974 1650.567 3613.833 1124.473 991.755 743.932 828.135 2624.531 1222.585 1035.360 3017.296 7506.363 691.813 763.497 666.948 3423.446 6900.658 610.422 655.326 4504.883 912.914 837.437 9531.869 8659.246 845.249 803.478 2620.037 1235.888 6750.080 5380.784 4003.636 819.781 945.940 4909.264 2404.116 1072.134 771.933 952.959 1139.808 2799.123 6911.631 797.474 3514.753 2171.165 7682.337 467.432 752.930 757.529 6899.196 714.732 2792.730 838.949 1003.412 4145.408 7919.390 6231.969 955.048 2983.234 4041.295 1241.056 4032.009 2788.949 715.358 3544.911 1461.814 851.980 0.000 6728.342 2917.050 9450.885 1319.077 7675.074 51.062 5162.541 1539.400 4714.701 7083.510 2249.405 1804.946 2141.205 692.034 1012.657 3404.993 771.285 862.715 1678.550 1708.959 912.006 10281.136 7094.413 1036.453 7582.253 2211.934 679.774 971.248 2895.903 1027.163 935.369 1547.433 4359.955 5183.389 8502.322 8497.989 7422.001 7414.005 4220.252 1395.055 1008.742 4723.860 1257.895 7444.468 757.718 2883.879 1291.098 4550.121 1171.883 8213.126 3609.662 712.854 2090.671 5792.865 4502.450 5809.424 688.912 1373.341 1196.169 929.826 6419.530 808.093 1472.905 867.942 958.771 2854.650 285.000 6650.477 7987.454 4186.183 4689.978 913.901 4349.112 1222.024 785.778 6733.658 5542.294 2003.646 7717.373 848.689
6790.281 12677.655 7224.686 7061.997 6471.884 6420.378 9601.830 8241.718 7323.002 5449.300 4905.556 2965.166 5851.986 5292.512 12568.853 10073.378 8390.407 6214.042 512.906 6300.494 4451.535 8724.781 5689.760 264.399 7051.320 10032.998 6424.959 7068.685 6289.007 6485.893 6858.135 4245.681 8064.658 8764.548 6572.599 9837.439 6430.258 9583.279 7214.132 6586.172 4204.356 2997.656 13758.534 9714.311 10537.497 11307.345 10055.327 5372.486 4487.563 6279.297 7390.927 7143.104 6510.257 7846.771 7414.925 6813.671 8529.633 5213.065 7074.061 7145.745 6683.250 9822.618 13238.990 6592.183 7054.498 9882.304 7191.043 6615.748 9252.225 7370.585 7123.378 6485.601 9019.209 7635.060 8956.738 10758.206 10402.808 6501.903 7132.574 9203.034 8803.289 6850.445 6190.075 5934.365 7538.980 9198.295 13031.650 7113.814 3955.166 5556.111 5316.869 6697.337 7031.058 6261.552 13298.368 6992.860 4956.639 6123.059 6781.723 9367.649 5423.193 567.014 6733.359 8504.077 9851.195 5917.937 10431.181 4890.264 7031.698 4418.641 7860.986 7251.152 6911.316 0.000 8429.387 9673.748 7718.249 5046.865 6962.378 3363.799 7938.572 10092.122 12893.411 8648.577 5252.729 4790.964 6624.976 6167.482 4160.068 7170.457 7055.054 7865.185 8108.131 6603.484 7353.021 13493.586 7435.625 5288.955 8611.106 6996.114 6126.072 9295.076 6805.474 6713.680 5733.999 9758.049 9076.972 10654.675 3360.920 9574.354 13316.345 3879.217 7581.689 6163.567 10101.281 7444.529 13254.368 7035.846 9283.051 7690.270 5355.471 5588.719 13991.437 10008.834 7095.102 8489.843 3776.593 9879.871 12208.596 6530.765 7772.514 5547.428 7038.418 2998.284 7086.221 7872.077 7267.114 6864.832 7868.796 6648.548 2066.448 5694.155 6686.926 5480.988 7106.240 9458.178 6566.779 6549.352 13132.830 8998.481 7736.491 14116.545 6530.812
2173.055 7714.257 3382.335 2600.533 2563.928 2654.974 6864.859 4214.640 3442.086 3152.896 4781.225 7260.950 3570.990 3591.766 4955.649 6149.276 3115.158 2756.969 8305.091 3112.562 5656.134 5355.657 3899.717 8273.985 2589.856 2045.732 2598.454 3346.105 2742.959 2331.731 1987.584 4660.143 3869.018 736.722 2302.804 1884.942 3302.453 1630.782 3333.216 2937.766 4348.740 7228.460 6307.123 4462.463 6341.857 5650.616 10275.068 3383.240 4593.205 2836.122 3179.312 3420.524 2592.354 4996.624 2797.699 2032.047 197.975 9443.775 2919.229 2990.914 2559.041 5795.540 6127.008 2510.741 3331.917 1929.808 2729.579 2234.348 8036.969 7749.822 2689.418 2567.697 4992.131 3257.430 5434.563 2805.709 6375.730 2583.999 2464.985 2322.235 4776.210 2182.856 2627.550 2894.150 3511.901 5137.065 5418.446 2775.632 5324.795 3404.245 9619.748 3048.931 2495.380 2613.146 7841.284 2624.526 4730.141 2694.565 2063.995 6517.502 9856.801 8042.011 2351.959 5355.327 2680.317 2945.156 6404.103 4598.992 2728.522 4524.283 3616.233 2914.138 2797.362 8538.384 0.000 7732.255 3206.344 9612.485 2848.424 7099.952 3693.819 2139.626 5280.206 4452.938 3537.620 3951.247 2355.181 2746.803 4733.345 2833.442 2437.829 2954.267 3903.411 2505.081 10538.169 9466.507 3052.843 9519.664 4584.027 2882.161 2788.213 5267.997 2042.825 2096.454 3437.596 1772.926 7555.482 10874.416 9225.250 9794.095 5703.141 6157.663 2581.392 2750.719 2148.785 2455.491 5641.164 2601.886 5087.412 3663.192 6791.445 3012.596 6540.026 5563.510 2940.271 4294.204 7730.276 1927.374 8181.517 2622.808 3576.874 3010.101 2370.829 7304.434 2624.757 3377.286 2930.099 2247.607 856.678 3017.264 8460.519 9924.865 3071.443 4846.962 2489.014 6721.206 2010.639 2360.714 8169.432 7914.387 1373.431 10089.467 2612.908
8380.414 14595.868 9589.693 8807.892 8771.286 8829.612 13072.217 10421.999 6663.063 9232.791 10397.503 6733.141 9650.885 8573.157 10006.778 12356.635 4462.763 8836.863 9194.956 9319.921 10607.393 11563.016 7176.805 9693.796 8797.215 7136.605 8802.976 9553.464 8917.597 8539.090 8194.943 8200.590 10076.377 7796.812 8510.163 7694.151 9509.812 8020.072 6554.193 9145.125 9216.430 6700.651 8445.846 3310.341 12549.216 11999.072 16482.427 8847.691 8133.651 8916.017 9386.671 9627.883 8766.991 11203.983 9005.058 8239.406 7555.696 14262.732 9126.588 9198.273 8766.400 12002.898 11178.137 8718.100 9539.276 8021.980 8936.938 8441.707 1286.857 2462.474 8896.777 8742.335 11199.490 9464.789 2773.305 8149.938 12583.089 8758.637 8672.344 5836.818 10983.569 8390.215 8834.909 9056.099 9719.260 11344.424 10469.575 8982.991 10029.971 8284.965 14366.536 9256.290 8702.739 8820.505 14620.615 8831.885 10346.420 8901.924 8271.354 12724.861 14472.860 9538.838 8559.318 11562.686 9264.173 9025.050 12611.462 9682.865 8935.881 8064.729 9823.592 9121.497 9004.721 9707.863 7455.450 0.000 9413.703 14096.532 9055.783 12413.466 9901.178 8030.454 10331.336 10660.297 8754.817 9187.055 8562.540 8826.698 8310.760 9040.801 8645.188 9404.954 10110.770 8691.830 7714.502 15673.866 9260.202 14338.622 10791.386 9089.519 8868.108 11475.356 8250.184 8303.813 9517.490 7751.234 13762.841 17081.775 9990.932 16001.454 10754.270 11773.941 9084.121 8830.613 8240.957 8958.220 10692.293 8809.245 11294.771 9870.550 12871.340 9092.491 8191.834 12020.554 9147.629 10501.563 12826.260 8252.314 14388.876 8830.167 9784.233 9089.996 8578.188 6776.626 8832.116 9644.717 9137.458 8454.966 6975.720 9224.623 11116.115 14743.823 6996.308 7676.845 8696.373 12928.565 8217.998 8568.073 15051.043 14121.746 7580.790 16296.826 8787.546
1032.830 5625.551 698.634 582.816 1381.831 1564.276 4181.158 1530.939 4688.885 2219.976 3718.787 7257.058 2532.177 2740.105 6252.636 3465.576 5708.530 1732.738 7376.061 1435.632 4593.696 2671.956 4166.777 7344.955 772.699 4806.823 1416.357 1016.014 1652.261 1149.634 1253.885 4272.187 1012.553 3485.859 1120.707 4634.079 1510.364 4379.919 4580.014 1158.215 3419.710 7224.568 8056.469 7055.836 3485.392 4209.407 7591.367 2531.579 4244.414 1797.993 423.935 1090.433 1501.655 2312.923 619.909 1209.421 3191.358 8381.336 781.531 853.216 1376.945 3111.839 6141.052 1328.645 1001.827 4678.945 524.905 1065.317 9955.914 9083.290 1005.033 1476.999 2308.430 400.965 7174.124 5554.846 3692.029 1493.301 945.447 5083.325 2062.715 1246.195 1445.453 1712.053 828.201 2280.600 6152.025 561.162 4395.765 3011.073 8557.310 1372.002 912.714 1431.049 6246.264 642.668 3667.703 1512.469 1177.474 3833.801 8794.363 7112.981 1182.928 2671.626 4040.802 2122.069 3720.402 3669.962 846.957 4175.492 759.768 435.949 915.798 7609.355 3091.112 9874.929 0.000 8550.047 966.860 6037.514 837.354 4888.763 6577.194 1596.473 2685.959 3022.217 1173.084 1686.178 4286.006 503.352 797.217 1073.186 1046.946 1336.050 10805.230 6782.806 152.980 8457.226 1900.326 1000.596 1644.768 2584.296 1201.225 1109.430 2446.031 4534.016 4871.782 8190.715 9379.002 7110.394 6654.399 5095.225 1394.562 1682.263 4897.921 1257.402 6725.360 917.501 2230.947 979.491 5107.434 2052.895 8289.372 2956.730 802.573 1437.739 6667.838 4676.511 5497.816 1440.712 720.409 2077.181 929.333 7300.542 607.041 713.299 451.910 958.278 3278.694 1189.569 7531.489 8862.427 4610.228 5114.022 746.032 4037.505 1646.069 1178.618 6080.726 5230.686 2177.707 7405.766 1522.210
7770.109 13550.822 8097.853 8041.825 7451.712 7459.871 9246.537 8649.115 10012.557 6384.461 4756.133 7437.219 5966.367 6771.139 13548.681 10012.153 10968.782 7193.870 5289.557 7211.360 4829.037 8663.556 8493.535 4943.693 8031.148 11390.900 7404.787 7941.852 7268.835 7465.721 7837.963 7049.456 8937.825 10069.937 7552.427 11218.157 7244.254 10963.997 9903.687 7520.880 6393.762 7469.709 14738.362 12371.822 11131.345 12241.352 9072.605 6735.718 7291.338 7259.125 8264.095 8016.271 7490.085 7785.546 8394.752 7793.499 9775.435 259.946 7964.152 8035.837 7663.078 10000.986 14172.997 7572.011 7927.665 11263.022 8170.871 7595.576 13724.278 11842.639 8103.206 7465.429 9426.606 8508.227 12512.987 12138.923 10810.204 7481.731 8112.402 11261.734 9408.317 7830.273 7169.903 6914.193 8412.147 9803.324 14011.478 8069.017 5716.072 7034.739 270.004 7620.700 8010.886 7241.380 14171.536 7972.688 4807.216 7102.887 7761.551 9236.241 376.328 4641.078 7713.187 8442.853 10831.023 7061.938 10838.578 5965.483 7986.901 7222.417 8734.153 8124.320 7866.519 5208.092 9675.189 14145.802 8591.416 0.000 7917.580 2802.218 8811.739 11472.840 13873.239 9521.744 6731.356 6155.528 7604.804 7147.310 6963.843 8043.624 8034.882 8845.013 8981.298 7655.407 11825.074 13795.353 8308.792 335.836 9018.502 7951.317 7105.900 9702.472 7785.302 7693.508 6184.979 11118.094 8094.251 9671.953 7832.973 8591.632 14296.173 3519.827 8561.517 7143.394 11481.999 8424.357 14234.196 8015.674 10156.218 8563.437 4977.958 6568.547 14971.265 10882.001 7985.193 9363.010 3110.624 11260.589 11559.884 7510.593 8645.681 6527.256 8018.246 7470.337 8066.049 8745.244 8140.281 7844.660 9320.608 7559.414 3427.522 741.036 9490.701 8299.504 8086.068 9141.192 7689.130 7529.180 14005.997 8015.759 8761.785 14418.312 7510.640
960.908 6227.421 774.452 732.806 439.061 839.694 4441.703 1791.484 4213.779 1287.902 2792.751 6324.983 1582.517 1808.031 6707.891 3726.121 5303.498 1008.156 6443.987 480.000 3667.661 2932.501 3691.671 6412.881 722.130 4581.699 691.775 618.451 927.678 671.258 1028.762 3394.662 1614.423 3260.736 693.349 4408.956 572.016 4154.796 4104.908 202.583 2487.636 6292.493 7929.161 6650.803 4087.262 4917.951 7851.912 1599.505 3562.771 1073.411 940.693 692.870 777.073 2573.469 1171.523 984.298 2966.234 7455.301 640.751 712.435 615.886 3372.384 6849.596 559.360 604.264 4453.821 861.852 786.375 9480.807 8608.184 794.187 752.416 2568.975 1184.826 6699.018 5329.722 3952.574 768.719 894.878 4858.202 2353.054 1021.072 720.871 901.897 1088.746 2748.061 6860.569 746.412 3463.691 2120.103 7631.275 416.370 701.868 706.467 6848.134 663.670 2741.668 787.887 952.350 4094.346 7868.328 6180.907 903.986 2932.172 3990.233 1189.994 3980.947 2737.887 664.296 3493.849 1410.752 800.918 543.913 6677.280 2865.988 9399.823 1268.015 7624.012 0.000 5111.479 1488.338 4663.639 7032.448 2198.343 1753.884 2090.143 640.972 961.595 3353.931 720.223 811.653 1627.488 1657.897 860.944 10230.074 7043.351 985.391 7531.191 2160.872 628.712 920.186 2844.841 976.101 884.307 1496.371 4308.893 5132.327 8451.260 8446.927 7370.939 7362.943 4169.190 1343.993 957.680 4672.798 1206.833 7393.406 706.656 2832.817 1240.036 4499.060 1120.821 8162.064 3558.600 661.792 2039.609 5741.803 4451.388 5758.362 637.850 1322.279 1145.107 878.764 6368.468 757.031 1421.843 816.880 907.709 2803.588 233.938 6599.415 7936.392 4135.121 4638.916 862.839 4298.050 1170.962 734.716 6682.596 5491.232 1952.584 7666.311 797.627
5426.445 11207.158 5754.189 5698.161 5108.048 5116.207 7196.941 6305.450 7668.893 4040.797 2412.469 5832.042 3622.703 4427.475 11205.017 7668.489 8625.118 4850.206 3684.380 4867.696 2485.373 6319.892 6280.896 3338.516 5687.484 9047.236 5061.123 5598.188 4925.171 5122.057 5494.299 4841.453 6594.161 7726.273 5208.763 8874.493 4900.590 8620.333 7560.023 5177.216 4050.098 5864.532 12394.698 10028.158 8787.681 9897.688 8230.991 4392.054 5083.335 4915.461 5920.431 5672.607 5146.421 5441.882 6051.088 5449.835 7431.771 2782.053 5620.488 5692.173 5319.414 7657.322 11829.333 5228.347 5584.001 8919.358 5827.207 5251.912 12119.101 10237.462 5759.542 5121.765 7082.942 6164.563 10373.784 9795.259 8466.540 5138.067 5768.738 8918.070 7064.653 5486.609 4826.239 4570.529 6068.483 7459.660 11667.814 5725.353 3372.408 4691.075 2958.026 5277.036 5667.222 4897.716 11827.872 5629.024 2463.552 4759.223 5417.887 6962.760 3195.079 3035.901 5369.523 6099.189 8487.359 4718.273 8494.914 3621.819 5643.237 5014.414 6390.489 5780.656 5522.854 3602.915 7331.525 12540.625 6247.752 2950.763 5573.916 0.000 6468.075 9129.176 11529.575 7178.080 4387.692 3811.864 5261.140 4803.646 4800.723 5699.960 5691.218 6501.349 6637.634 5311.743 10219.897 11557.318 5965.128 2857.943 6674.838 5607.653 4762.236 7358.808 5441.638 5349.844 3841.315 8774.430 7252.636 8830.339 6227.796 7750.018 11952.509 1176.163 6217.853 4799.730 9138.335 6080.693 11890.532 5672.010 7812.554 6219.773 2634.294 4224.883 12627.601 8538.337 5641.529 7019.346 1046.069 8916.925 10190.345 5166.929 6302.017 4183.592 5674.582 5865.160 5722.385 6401.580 5796.617 5500.996 6976.944 5215.750 2439.169 3263.143 7180.130 6200.781 5742.404 7053.289 5345.466 5185.516 11662.333 7174.145 6418.121 12180.278 5166.976
1754.098 4874.472 923.539 1304.085 2020.033 2285.545 4076.280 1426.061 5410.154 2711.287 4192.512 7748.369 3005.903 3231.416 6129.439 3360.698 6429.799 2454.006 7867.373 1947.006 5067.422 2567.078 4888.046 7836.267 1493.968 5528.091 2137.626 1393.211 2373.529 1870.903 1975.154 4818.047 399.355 4207.128 1841.976 5355.348 1984.090 5101.188 5301.283 1783.555 3911.021 7715.879 8570.740 7777.104 2761.474 3815.981 7486.489 3022.890 4965.682 2519.262 1144.780 1467.630 2222.924 2208.045 1379.551 1930.690 3912.626 8855.062 1415.511 1487.196 2098.213 3006.961 5747.626 2049.913 1379.024 5400.213 1246.173 1786.586 10677.182 9804.559 1726.302 2198.267 1908.408 911.276 7895.393 6103.158 3292.007 2214.570 1666.716 5804.594 1569.087 1967.464 2166.722 2325.283 723.323 1579.334 5758.599 1266.782 4887.076 3543.489 9031.036 1883.375 1633.982 2152.318 5495.186 1363.936 4141.429 2233.738 1898.742 3728.923 9268.089 7604.293 1904.197 2566.748 4555.073 2613.380 3320.380 4161.273 1568.226 4896.760 499.926 1128.276 1637.066 8100.666 3812.380 10596.198 1199.846 9023.773 1606.390 6511.240 0.000 5610.031 6417.096 845.394 3177.270 3513.528 1894.353 2407.446 4777.317 1208.972 1518.486 1401.401 209.592 2057.319 11526.498 6382.784 917.222 8930.952 1498.190 1721.865 2366.036 2184.274 1922.493 1830.699 2919.757 5255.285 4766.904 8085.837 9870.313 7005.516 6260.974 5568.950 1826.917 2403.531 5619.190 1675.057 6331.934 1638.770 1479.869 874.613 5448.644 2544.206 8803.643 2205.651 1436.552 686.660 7141.564 5397.780 5392.938 2161.980 432.169 2568.492 1650.601 7791.853 1328.309 760.758 1112.315 1679.547 3999.963 1822.090 8022.800 9336.153 5331.496 5835.291 1467.300 3932.627 2367.337 1899.886 5329.648 5125.808 2898.976 7005.744 2243.478
3941.497 8002.022 5088.849 4273.183 4332.369 4423.416 8571.373 5921.154 4735.613 4921.338 6549.666 8554.476 5339.432 5360.208 3234.790 7855.791 4267.227 4525.410 9722.800 4881.003 7424.576 7062.171 5193.243 9901.569 4348.805 1719.136 4366.895 5114.546 4511.401 4100.173 3756.025 5953.669 5402.769 1673.504 4071.245 493.459 5070.894 640.253 4626.742 4706.207 6117.182 8521.986 4586.264 5300.857 7424.818 5227.084 11981.583 5151.682 5886.731 4604.564 4947.754 5188.965 4360.795 6703.139 4418.653 3800.489 1888.165 11212.216 4687.671 4759.356 4327.483 7502.054 4406.149 4279.183 5100.359 318.943 4402.229 4002.789 8875.363 8588.215 4448.366 4336.139 6698.646 4791.180 6272.957 1084.850 8082.244 4352.441 3992.330 2955.556 6452.930 3951.297 4395.991 4662.592 5218.416 6670.816 3697.586 4544.074 7093.237 5172.687 11388.190 4817.373 4254.328 4381.587 7848.627 4392.967 6498.583 4463.007 3832.437 8224.017 11625.243 9669.595 4120.401 7061.842 1561.136 4713.597 8110.618 6367.433 4496.963 5817.809 5149.983 4682.579 4565.804 10165.968 2078.625 8570.649 4605.567 11380.927 4616.866 8868.394 5227.569 0.000 3559.347 5986.688 5306.061 5719.689 4123.622 4515.245 6063.839 4601.884 4058.782 4300.250 5437.161 4273.523 11831.696 10714.091 4725.493 11288.106 6290.542 4650.602 4556.655 6974.512 3811.266 3864.896 5206.037 1236.776 9261.997 12580.931 10518.776 11500.610 3982.281 7926.104 3787.978 4519.160 358.566 3801.474 3920.305 4360.834 6323.189 5369.706 8559.887 4781.037 4819.166 5851.276 4708.712 5827.954 9498.718 1110.455 9888.032 4391.250 5110.625 4778.543 3898.174 8597.961 4297.407 4723.269 4698.541 4016.049 2837.575 4785.706 9896.175 11693.307 4364.969 6140.488 4109.968 8427.721 3779.080 4129.156 8457.197 9620.902 3141.873 11050.171 4381.350
6918.328 7101.552 6703.471 6853.277 7462.402 7644.847 9764.764 6941.534 8424.044 8300.547 9928.875 12123.246 8718.641 8820.676 916.488 8526.817 7137.581 7813.309 13456.632 7726.809 10803.785 7986.037 9107.656 13425.526 7043.160 5226.535 7496.928 7223.841 7732.831 7230.205 7083.098 9868.082 6042.935 5587.917 7201.278 4315.209 7814.720 4554.666 8315.173 7449.392 9500.281 12090.756 5134.845 7840.413 6293.794 2909.061 13174.973 8612.150 9801.144 7878.564 6810.890 7298.260 7582.226 7896.529 6407.165 7094.920 5802.578 14591.425 7154.032 7225.717 7457.515 8173.080 1308.427 7409.215 7209.654 4233.356 6844.820 7132.822 11414.920 11127.772 7224.997 7557.569 7042.198 6577.386 8812.513 3894.995 7725.011 7573.872 6762.832 5495.113 6374.323 7131.694 7526.024 7792.624 6681.348 6290.020 1112.479 6933.662 10476.336 8689.262 14767.399 7663.179 7030.959 7511.620 4750.905 6962.583 9877.792 7593.040 7062.972 9417.407 15004.452 13193.552 7250.433 8139.826 3619.071 8202.639 7678.802 9750.533 7126.906 9732.222 6504.786 6795.821 7195.747 13689.925 5993.038 11110.205 6423.577 14760.136 7246.809 12247.603 6582.371 3944.667 0.000 5550.165 8766.530 9102.788 7253.655 7766.749 9978.253 6875.852 6741.248 6320.703 6169.670 7403.556 15400.466 9511.032 6561.984 14667.315 6766.508 7280.545 7725.339 7318.064 7086.723 6994.929 8585.246 5151.189 10455.388 13774.321 14433.190 12694.000 422.934 11305.314 6437.382 7762.833 4293.233 6450.877 360.958 7137.466 5192.165 6832.638 11313.940 8133.466 5367.748 4720.252 7175.073 5642.555 12877.927 4873.372 9789.856 7521.283 6335.079 8157.752 6831.960 12166.731 6877.501 6307.260 6779.860 6931.470 6751.988 7480.746 13612.060 15072.516 8279.383 9709.258 6690.062 9621.111 7295.655 7259.188 7556.727 10814.293 7056.286 9038.894 7602.781
2594.205 4211.839 1763.646 2144.192 2860.140 3125.652 4427.519 1513.397 6250.260 3551.394 4995.026 8588.476 3846.009 4071.523 5671.789 3097.302 7269.906 3294.113 8707.480 2787.113 5869.935 2542.187 5728.153 8676.374 2334.074 6368.198 2977.733 2233.318 3213.636 2711.010 2815.261 5658.154 927.994 5047.235 2682.083 6195.455 2824.197 5941.295 6141.390 2623.662 4751.128 8555.986 9371.505 8617.211 1944.647 3358.331 7837.729 3862.997 5805.789 3359.369 1984.887 2307.737 3063.031 2559.285 2219.658 2770.797 4752.733 9657.575 2255.618 2327.302 2938.320 2743.565 5289.976 2890.020 2219.131 6240.320 2086.280 2626.692 11517.289 10644.665 2566.408 3038.374 1621.207 1751.383 8735.500 6903.922 2691.879 3054.676 2506.823 6644.701 824.157 2807.571 3006.829 3165.390 1516.596 739.855 5300.949 2106.888 5727.183 4383.596 9833.549 2723.482 2474.089 2992.425 4852.618 2204.043 4943.942 3073.844 2738.849 4080.163 10070.602 8444.399 2744.303 2704.152 5395.180 3453.487 2720.252 5001.380 2408.333 5736.867 1340.033 1968.383 2477.173 8940.773 4652.487 11436.305 2039.953 9826.286 2446.497 7313.753 1417.619 6450.138 5959.446 0.000 4017.377 4353.635 2734.460 3247.553 5617.424 2049.078 2358.593 2241.508 1054.729 2897.426 12366.605 5782.656 1757.329 9733.465 1216.342 2561.971 3206.143 1897.073 2762.600 2670.806 3759.864 6095.392 5118.143 8437.076 10710.420 7356.756 5803.324 6371.464 2667.023 3243.638 6459.297 2515.164 5874.284 2478.877 1022.219 1667.886 6288.751 3384.313 9604.407 1696.166 2276.659 676.944 7944.077 6237.887 5081.817 3002.087 1170.327 3408.599 2490.708 8631.960 2168.416 1600.865 1952.422 2519.653 4840.069 2662.197 8862.907 10138.666 6171.603 6675.398 2307.407 4283.867 3207.444 2739.993 4667.015 5477.048 3739.083 6405.616 3083.585
1887.014 7813.818 2360.849 2158.730 1588.710 1247.113 5344.736 3377.881 3576.981 826.386 2018.002 4818.999 1244.480 181.865 7529.072 5312.518 4533.206 1118.521 5009.463 1436.657 2586.872 4467.687 2200.030 4978.357 2148.054 5192.342 1541.366 2204.848 1294.136 1602.719 1954.868 1888.678 3200.820 3871.379 1669.333 5019.598 1566.421 4765.439 3468.111 1702.998 1053.112 4786.509 8718.753 5936.246 5673.659 6404.079 8868.121 258.801 2056.787 1197.674 2527.090 2279.267 1505.382 3589.677 2511.658 1910.405 3576.877 6680.552 2190.886 2262.571 1800.076 4958.781 8335.724 1709.009 2190.661 5064.464 2287.776 1686.912 9065.168 8192.545 2220.111 1480.725 4155.372 2771.223 6283.379 5940.365 5538.971 1497.027 2229.308 4826.158 3939.451 1947.178 1326.237 1070.528 2675.143 4334.458 7991.869 2230.640 2029.167 493.938 6856.526 1814.163 2127.792 1378.378 8434.531 2089.594 1966.919 1259.222 1878.457 5110.555 7093.578 4746.383 1569.301 4246.983 4811.414 860.277 5567.344 1303.364 2148.524 1987.865 2997.149 2369.145 2028.142 5242.757 3476.631 8984.184 2849.885 6849.262 2079.204 4336.729 3074.734 5274.282 7853.629 3784.740 0.000 726.365 1721.710 1108.356 1847.947 2288.450 2151.788 2961.918 3244.294 1430.220 8724.090 8629.748 2571.788 6756.442 3747.268 2112.940 1149.766 4431.238 1902.208 1810.414 1111.086 4919.535 6148.535 9467.469 7012.404 8387.148 8276.564 3394.440 2678.422 1112.271 5283.441 2541.263 8214.587 2132.580 4419.214 2826.433 4464.935 724.882 8951.655 5144.997 2211.928 3626.006 4967.053 5062.030 7344.758 1647.591 2908.676 683.591 2135.152 4862.484 2182.954 3008.240 2385.107 1961.566 2937.475 1782.496 5164.891 7161.642 3099.264 3147.275 2202.974 5201.083 1393.514 1666.178 8268.993 6507.440 2563.227 9252.708 1525.936
2187.946 8075.321 2622.352 2459.662 1869.550 1818.043 5477.799 3639.384 4039.909 846.966 1542.341 4473.317 1249.652 798.491 7966.519 5574.021 4996.134 1611.707 4542.474 1698.160 2119.882 4600.750 2662.958 4511.368 2448.986 5763.272 1822.625 2466.351 1686.672 1883.559 2255.800 1542.995 3462.323 4442.309 1970.265 5590.529 1827.924 5336.369 3931.038 1983.837 586.123 4440.827 9156.200 6399.174 5935.162 6705.011 9001.184 770.152 1711.104 1676.963 2788.593 2540.770 1907.923 3722.741 2812.590 2211.337 4147.807 6204.891 2471.726 2543.411 2080.916 5220.284 8636.656 1989.848 2452.164 5635.394 2588.708 2013.414 9528.096 8395.973 2521.043 1883.266 4416.875 3032.726 6746.306 6511.295 5800.474 1899.569 2530.240 5289.085 4200.954 2248.110 1587.740 1332.031 2936.646 4595.961 8429.315 2511.480 1562.177 1062.090 6380.865 2095.003 2428.724 1659.218 8696.034 2390.526 1491.258 1520.725 2179.389 5243.618 6617.918 4279.394 2131.025 4380.047 5248.861 1315.603 5828.847 836.374 2429.364 1642.183 3258.652 2648.818 2308.982 4775.767 4047.561 9447.112 3115.915 6373.602 2360.044 3861.069 3336.237 5845.212 8291.076 4046.243 726.365 0.000 2022.642 1565.147 1502.265 2568.123 2452.720 3262.850 3505.796 2001.150 8378.408 8891.251 2833.291 6280.781 4008.771 2393.780 1523.737 4692.741 2203.140 2111.346 1131.665 5490.466 6281.599 9600.532 6545.414 8520.211 8714.010 2918.779 2979.355 1561.232 5854.371 2842.195 8652.034 2433.512 4680.717 3087.936 4082.752 986.385 9389.102 5406.500 2492.768 3887.509 4491.393 5632.961 7606.261 1928.431 3170.179 945.094 2436.084 4516.802 2483.886 3269.742 2664.779 2262.498 3432.005 2046.214 4697.901 6685.982 3562.192 3034.675 2503.906 5334.147 1964.444 1947.017 8530.496 6640.504 3134.157 9514.211 1928.477
327.837 6450.046 1257.236 568.563 367.557 553.724 4739.760 2089.541 3776.872 1209.424 2837.753 6246.506 1627.518 1729.553 6106.410 4024.178 4850.336 722.186 6365.510 832.098 3712.662 3230.558 3254.765 6334.404 557.887 3948.629 405.805 1184.865 641.709 139.083 395.691 3316.184 1837.049 2627.665 52.377 3775.885 1021.989 3521.725 3668.002 657.302 2409.158 6214.016 7296.091 6197.642 4309.888 4844.902 8149.969 1521.027 3332.401 787.441 1054.213 1259.284 491.103 2871.526 952.481 351.227 2333.164 7500.303 794.130 865.815 203.860 3670.441 6776.546 155.560 1170.678 3820.751 697.609 153.304 9043.901 8171.277 629.944 466.447 2867.032 1225.460 6262.112 4696.652 4250.631 482.749 670.131 4225.131 2651.111 388.001 434.901 701.502 1386.803 3046.118 6569.206 650.533 3385.213 2041.626 7676.276 768.467 537.625 420.497 7070.760 499.427 2786.669 501.917 319.280 4392.403 7913.329 6102.429 270.915 3230.228 3388.751 1111.517 4279.004 2659.410 603.423 3263.479 1584.263 789.039 672.263 6598.803 2232.918 8962.917 1259.718 7669.013 723.325 5156.480 1661.849 4030.569 6430.967 2420.968 1675.407 2011.665 0.000 675.626 3275.454 708.344 592.611 1402.741 1871.441 424.038 9893.217 7341.408 1020.873 7576.192 2458.928 757.062 634.216 3142.898 343.031 251.236 1494.124 3675.822 5430.384 8749.317 8368.450 7668.996 6853.901 4214.191 1119.245 671.711 4039.727 982.086 6791.925 542.413 3055.443 1538.093 4847.973 1042.343 7528.993 3781.225 815.172 2262.234 5786.804 3818.317 6056.418 430.160 1544.905 1066.629 575.975 6289.990 592.787 1537.794 805.000 402.389 2366.681 736.800 6520.937 7981.393 3698.215 4202.010 643.796 4596.107 734.056 168.066 6905.221 5789.289 1319.513 7964.368 511.658
835.145 6767.570 1314.601 1106.861 516.749 617.743 4601.883 2331.633 4058.171 626.423 2254.751 5663.505 1044.517 1146.552 6613.718 4266.270 5030.595 46.560 5782.508 686.395 3129.661 3472.650 3164.717 5751.402 1096.185 4455.937 469.824 1158.600 222.175 530.758 902.999 2733.183 2154.572 3134.973 617.464 4283.193 816.160 4029.034 3949.300 631.036 1826.157 5631.015 7803.399 6433.635 4627.411 5352.210 8125.268 938.026 2901.292 111.816 1480.842 1233.019 555.122 2846.824 1459.789 858.536 2840.472 6917.301 1118.925 1190.610 728.115 3912.533 7283.855 637.047 1144.413 4328.059 1235.907 660.613 9325.200 8452.576 1168.242 530.465 3109.124 1724.975 6543.410 5203.960 4492.723 546.768 1177.439 4732.440 2893.203 895.309 240.724 244.007 1628.895 3288.210 7076.514 1158.679 2802.212 1458.625 7093.275 742.202 1075.923 306.417 7388.283 1037.725 2203.668 173.709 826.588 4367.702 7330.328 5519.428 778.224 3472.320 3896.060 528.516 4521.096 2076.409 1076.563 2832.370 1950.901 1297.184 956.181 6015.801 2740.226 9244.216 1798.016 7086.012 1007.243 4573.479 2028.487 4537.877 6938.275 2738.492 1092.406 1428.664 669.841 0.000 2692.453 1216.489 1099.919 1910.049 2198.046 720.444 9568.595 7583.500 1525.540 6993.191 2701.020 1040.979 41.410 3384.990 850.339 758.545 911.123 4183.130 5405.682 8724.616 7785.449 7644.295 7361.210 3631.190 1626.554 3.915 4547.036 1489.394 7299.233 1080.711 3372.966 1780.185 4264.972 459.342 8036.301 4098.749 1139.967 2579.758 5203.803 4325.625 6298.511 575.630 1862.428 483.628 1083.283 5706.989 1131.086 1961.992 1313.146 909.697 2647.980 710.535 5937.936 7398.392 3703.727 4111.962 1151.105 4458.230 1015.355 594.217 7222.745 5764.587 1826.822 8206.460 575.677
3542.405 9446.486 3993.517 3814.121 3240.715 2902.504 6848.965 5010.549 3355.469 2218.131 2755.624 3243.289 2636.225 1730.352 8940.612 6945.186 4422.874 2773.912 3952.347 3069.325 2356.228 5971.915 1722.226 3921.241 3803.444 6065.465 3193.790 3837.516 2949.526 3254.724 3610.259 209.347 4833.488 4797.014 3324.723 5869.905 3199.089 5615.745 3246.598 3355.003 1269.819 3210.799 10239.034 5746.777 7306.327 8059.469 10372.349 1914.192 451.229 2853.065 4159.758 3911.935 3160.772 5093.906 4167.049 3565.795 4562.100 7068.986 3842.892 3914.576 3452.081 6591.449 9991.114 3361.014 3823.329 5914.771 3943.167 3342.302 8523.467 7165.944 3875.502 3136.115 5788.040 4403.891 5741.678 6790.672 7171.639 3152.418 3884.698 5235.501 5572.119 3602.569 2958.906 2703.196 4307.811 5967.126 9403.409 3882.645 1778.806 1937.911 7244.959 3466.168 3783.182 3030.383 10067.199 3744.984 2806.708 2891.890 3533.847 6614.783 7482.012 3689.267 3224.691 5751.212 6331.695 2515.667 7200.012 1955.727 3800.529 382.308 4629.817 4019.983 3680.147 4185.640 4461.853 8442.483 4487.080 7237.696 3731.209 4725.163 4707.403 6124.589 9265.169 5417.408 1690.569 1742.808 3377.100 2763.746 0.000 3939.288 3807.178 4617.309 4876.962 3085.610 7148.379 10262.416 4204.456 7144.875 5379.937 3764.945 2805.156 6063.907 3557.598 3465.804 2502.830 5790.515 7652.764 10971.697 5893.361 9891.377 9688.104 3782.874 4333.813 2767.661 6133.748 4196.653 9626.127 3787.970 6051.882 4459.101 4971.888 2357.550 10471.937 6777.665 3863.933 5258.674 5311.288 5912.337 8977.427 3299.596 4541.345 2316.259 3790.542 3286.773 3838.345 4640.908 4035.945 3616.956 3982.124 3417.379 4386.946 7550.076 2719.392 1804.647 3858.364 6705.312 2976.973 3318.183 9901.661 8011.669 4083.508 10885.376 3181.326
806.099 5802.018 548.892 419.008 891.342 1130.525 4031.416 1381.197 4255.134 1734.210 3215.435 6771.292 2028.825 2254.339 6156.298 3315.834 5328.598 1298.987 6890.295 932.281 4090.344 2522.214 3733.026 6859.189 567.321 4426.890 982.606 512.662 1218.510 715.883 873.953 3838.436 1189.021 3105.927 686.956 4254.147 1007.013 3999.987 4146.263 654.864 2933.944 6738.802 7774.352 6675.903 3661.860 4380.956 7441.626 2045.813 3810.663 1364.242 345.870 587.081 1067.904 2163.182 494.475 829.489 2811.425 7877.985 278.180 349.864 943.194 2962.097 6312.601 894.894 498.475 4299.012 361.097 631.566 9522.163 8649.539 639.379 1043.248 2158.689 577.432 6740.373 5174.914 3542.287 1059.550 740.069 4703.393 1942.768 866.263 1011.702 1278.303 678.459 2337.775 6323.574 57.810 3909.999 2566.412 8053.959 868.650 547.059 997.298 6422.732 208.917 3164.352 1078.718 797.541 3684.060 8291.011 6627.215 749.177 2521.885 3835.424 1636.303 3570.660 3184.196 413.206 3741.741 936.235 80.695 482.047 7123.588 2711.179 9441.179 655.469 8046.696 469.059 5534.162 1013.821 4508.830 6480.856 1772.940 2200.193 2536.451 739.333 1252.427 3800.239 0.000 633.409 976.847 1223.413 902.300 10371.479 6633.065 372.845 7953.875 1750.585 566.845 1211.017 2434.555 821.292 729.498 1942.679 4154.084 4722.040 8040.973 8893.236 6960.653 6825.948 4591.873 1189.184 1248.512 4517.989 1052.024 6841.813 551.847 2407.414 829.749 4604.082 1567.129 8007.255 3133.197 299.221 1614.206 6164.486 4296.579 5348.075 1006.961 896.877 1591.415 723.955 6814.776 443.233 889.766 96.657 752.900 2844.943 686.218 7045.723 8359.075 4176.477 4680.271 582.224 3887.764 1212.318 744.867 6257.193 5080.945 1797.775 7256.025 1088.459
264.773 6095.884 1141.843 214.401 808.847 991.292 4624.367 1974.148 4049.169 1646.992 3275.321 6684.074 2065.086 2167.121 5990.404 3908.785 4940.474 1159.754 6803.078 1087.933 4150.230 3115.165 3580.728 6771.972 384.188 4038.766 843.373 1105.613 1079.277 576.651 485.829 3686.137 1482.886 2717.803 547.723 3866.023 1179.948 3611.863 3940.298 810.516 2846.726 6651.584 7288.413 6287.780 3955.725 4252.291 8034.576 1958.595 3658.364 1225.010 890.682 1180.032 928.672 2756.133 359.870 441.365 2423.301 7937.871 678.738 750.422 803.961 3555.048 6183.936 755.661 1091.426 3910.888 343.447 479.268 9316.197 8443.574 483.749 904.015 2751.639 871.298 6534.408 4786.790 4135.238 920.317 177.391 4315.269 2533.048 478.139 872.469 1139.070 1271.410 2750.934 6194.909 535.141 3822.781 2425.024 8113.844 1024.302 289.711 858.066 6716.597 384.034 3224.237 939.485 409.418 4277.010 8350.897 6539.998 596.879 3114.835 3272.746 1549.085 4163.611 3096.978 488.030 3589.442 1230.101 673.646 556.870 7036.371 2323.055 9235.213 768.515 8106.581 607.932 5594.048 1307.687 4120.707 6314.961 2066.806 2112.975 2449.233 600.101 1113.194 3713.022 592.951 0.000 848.183 1517.279 750.001 10219.180 7226.015 666.711 8013.761 2343.535 641.669 1071.784 3027.505 433.169 341.374 1931.692 3765.960 5314.991 8633.924 8806.018 7553.603 6697.283 4651.759 626.506 1109.279 4129.865 489.346 6675.919 396.218 2701.280 1422.700 5016.166 1479.911 7521.315 3427.063 699.779 1908.072 6224.372 3908.455 5941.026 867.728 1190.743 1504.197 161.277 6727.558 238.625 999.529 689.607 190.222 2589.492 841.870 6958.505 8418.961 4024.178 4527.973 51.186 4480.714 1060.019 605.634 6551.059 5673.896 1409.651 7848.975 949.226
1112.881 5940.636 1013.719 960.137 1656.955 1839.400 4496.243 1846.024 4897.276 2495.099 4123.428 7532.181 2913.194 3015.228 5193.937 3780.661 5788.582 2007.861 7651.185 1833.668 4998.337 2987.041 4428.835 7620.079 1150.019 4778.457 1691.481 1385.842 1927.384 1424.758 1333.936 4534.245 1327.638 3332.105 1395.831 4252.900 1925.684 3998.740 4788.405 1556.251 3694.834 7499.691 7460.047 7135.887 3800.477 3900.900 7906.452 2806.702 4506.471 2073.117 939.798 1460.261 1776.779 2628.009 514.024 1289.472 3187.400 8785.978 1260.891 1332.576 1652.068 3426.924 5832.545 1603.768 1371.655 4297.766 951.680 1327.375 10164.305 9291.681 1331.857 1752.122 2623.515 716.050 7382.515 4992.465 4007.114 1768.424 798.198 5163.376 2377.800 1326.246 1720.577 1987.177 1143.286 2595.685 5656.733 1040.521 4670.889 3273.131 8961.952 1770.038 1137.819 1706.173 6429.495 1069.443 4072.345 1787.592 1257.525 4148.886 9199.004 7388.105 1444.986 2986.712 3444.380 2397.192 4035.487 3945.085 1233.766 4437.550 1074.853 934.486 1302.606 7884.478 3171.163 10083.320 530.437 8954.689 1353.668 6442.155 1152.439 4507.584 5518.494 1911.558 2961.082 3297.340 1448.208 1961.301 4561.129 982.711 848.107 0.000 1362.031 1598.108 11067.288 7097.892 668.843 8861.868 2215.412 1387.404 1919.891 2899.382 1281.276 1189.481 2779.799 4173.510 5186.867 8505.800 9654.125 7425.479 5941.428 5499.866 716.223 1957.386 4516.742 564.364 5879.452 1244.325 2546.032 1294.576 5573.791 2328.018 7692.950 3271.815 1281.933 1752.824 7072.479 4295.332 5812.902 1715.835 1035.495 2352.304 921.961 7575.666 984.361 648.139 918.524 1038.329 3437.599 1587.606 7806.612 9267.068 4872.285 5376.080 796.921 4352.590 1908.127 1453.741 6395.811 5545.772 2257.758 7720.851 1797.333
1674.891 4921.119 844.332 1224.877 1940.826 2206.337 3950.238 1300.020 5330.946 2632.080 4113.305 7669.161 2926.695 3152.209 6176.086 3186.249 6350.591 2374.799 7788.165 1867.798 4988.214 2441.037 4808.838 7757.059 1414.760 5448.884 2058.418 1314.004 2294.322 1791.695 1895.946 4738.840 308.122 4127.920 1762.768 5276.140 1904.883 5021.980 5222.075 1704.348 3831.814 7636.671 8491.533 7697.897 2780.961 3862.628 7360.448 2943.683 4886.475 2440.054 1065.572 1388.423 2143.716 2082.004 1300.344 1851.482 3833.419 8775.855 1336.303 1407.988 2019.006 2832.512 5794.273 1970.706 1299.816 5321.006 1166.966 1707.378 10597.975 9725.351 1647.094 2119.060 1883.427 832.068 7816.185 6023.950 3267.026 2135.362 1587.508 5725.386 1544.106 1888.256 2087.514 2246.075 597.281 1576.169 5805.246 1187.574 4807.869 3464.281 8951.828 1804.168 1554.775 2073.110 5541.833 1284.729 4062.221 2154.530 1819.535 3602.882 9188.881 7525.085 1824.989 2440.707 4475.866 2534.172 3295.399 4082.065 1489.018 4817.553 420.719 1049.069 1557.859 8021.458 3733.173 10516.990 1120.639 8944.565 1527.182 6432.032 498.304 5530.824 6463.743 892.041 3098.062 3434.321 1815.145 2328.239 4698.109 1129.764 1439.278 1322.193 0.000 1978.111 11447.291 6357.803 838.015 8851.745 1465.612 1642.657 2286.829 2159.293 1843.286 1751.491 2840.549 5176.077 4640.862 7959.796 9791.105 6879.475 6307.620 5489.743 1747.709 2324.324 5539.982 1595.850 6378.581 1559.562 1526.515 748.571 5369.437 2464.999 8724.435 2252.298 1357.345 733.307 7062.356 5318.572 5218.490 2082.773 251.012 2489.285 1571.394 7712.646 1249.102 681.551 1033.107 1600.339 3920.755 1742.882 7943.593 9256.945 5252.289 5756.083 1388.093 3806.586 2288.130 1820.679 5376.294 4999.767 2819.768 6980.763 2164.271
941.030 7094.229 1802.429 1212.746 750.554 622.018 5224.864 2733.724 3352.834 1119.940 2748.268 6008.599 1538.034 1558.810 6445.576 4668.360 4442.553 724.012 6272.135 1293.660 3623.178 3874.741 2830.727 6241.029 1202.069 4108.846 595.382 1646.428 710.002 707.190 1008.884 2936.136 2481.231 2787.883 723.348 3936.103 1439.141 3681.943 3243.964 1118.864 2315.784 5976.109 7635.257 5789.859 4954.070 5458.094 8748.249 1350.284 2908.363 803.165 1698.396 1720.847 559.397 3469.805 1565.674 964.420 2493.381 7410.818 1438.313 1509.998 950.245 4314.623 7389.739 870.852 1632.241 3980.968 1341.792 740.927 8619.863 7747.239 1274.127 534.740 3511.215 1869.643 5838.074 4856.869 4894.813 551.043 1283.324 4385.349 3295.294 1001.194 808.648 943.248 2030.985 3690.301 6908.373 1294.716 3291.839 1675.023 7586.792 1230.030 1181.808 794.245 7714.942 1143.609 2697.185 839.415 932.473 4990.683 7823.845 6009.055 623.316 3874.411 3727.918 912.199 4923.187 2566.035 1247.606 2839.441 2228.446 1433.222 1316.446 6505.428 2393.135 8538.879 1903.901 7579.529 1367.508 5066.995 2306.032 4190.786 6770.133 3065.151 1504.663 1918.290 775.725 713.847 3004.123 1352.526 1205.803 2015.934 2515.624 0.000 9469.179 7985.591 1665.056 7486.708 3103.111 1401.244 755.257 3787.081 956.224 864.429 1404.639 3836.039 6028.663 9347.597 8194.857 8267.276 7193.068 4124.706 1732.438 717.762 4199.945 1595.279 7131.091 1186.595 3699.625 2182.275 4758.489 979.639 7868.160 4425.408 1459.354 2906.417 5697.320 3978.535 6700.601 809.435 2189.087 977.144 1189.168 6052.084 1236.970 2181.977 1449.183 1015.582 1942.644 1198.363 6427.562 7891.908 3274.177 3777.972 1256.989 5081.212 310.018 736.173 7549.404 6387.568 1479.731 8608.551 579.952
10045.067 16073.719 10620.750 10316.783 9822.898 9481.301 13551.315 11637.782 8393.397 8920.481 9476.362 4351.544 9338.576 8432.702 14735.148 13572.419 9049.954 9352.709 6813.360 9771.676 9076.966 12674.266 6760.154 7312.199 10306.106 11348.797 9699.419 10464.749 9528.323 9811.227 10108.495 7120.242 11460.721 10964.401 9827.385 11998.750 9901.440 11744.590 8284.526 9937.185 8136.081 4319.054 15540.034 8717.766 13933.560 14562.131 16723.397 8616.543 7053.303 9431.862 10786.991 10539.168 9663.434 11796.256 10669.711 10068.457 10729.486 11881.135 10425.074 10496.759 10034.264 13218.682 15906.507 9943.196 10450.562 12043.615 10445.829 9844.964 7316.633 5304.543 10378.164 9638.777 12415.273 10973.680 7574.116 12876.974 13798.872 9655.080 10387.360 10273.429 12199.352 10105.231 9583.268 9405.547 10935.044 12594.359 15197.944 10398.753 8525.003 8385.250 11984.939 10048.351 10285.844 9612.565 16694.432 10247.646 9527.445 9516.252 10036.510 13317.134 12091.263 7157.241 9727.353 12453.563 12709.057 9218.018 13827.245 8782.871 10351.642 6984.381 11257.050 10537.258 10262.330 7326.266 10629.240 7738.157 11007.938 11714.935 10313.391 10031.870 11334.635 12253.433 15059.705 12044.641 8392.919 8445.159 9879.762 9342.544 7166.119 10456.563 10309.840 11119.971 11504.195 9588.272 0.000 16889.649 10769.093 11957.025 12007.169 10347.128 9383.954 12691.139 10060.260 9968.466 9205.181 11475.752 14355.115 17322.745 7609.336 16242.424 15482.639 10503.612 10836.475 9346.459 12262.592 10699.315 15420.663 10290.632 12679.115 11086.334 11692.626 9059.901 15286.021 13404.898 10446.116 11885.907 10444.663 12041.182 15604.659 9881.779 11168.577 9018.610 10293.204 4395.029 10341.007 11268.141 10553.220 10119.619 10149.510 10016.684 8734.518 12362.226 7757.320 6035.250 10361.026 13407.663 9354.334 9840.210 16528.894 14714.019 10460.870 17512.609 9683.988
7451.815 4386.661 6360.284 7051.157 7456.778 7776.241 7240.525 5280.641 10900.850 8148.032 9124.031 13185.114 8442.647 8668.161 9097.963 4676.973 11974.314 7944.703 13304.117 7383.750 9998.941 5544.879 10378.742 13273.011 7213.037 10627.667 7628.322 6829.956 7864.226 7361.600 7519.669 10254.792 6072.494 9576.282 7332.672 10102.110 7420.835 9847.950 10791.979 7220.300 9347.766 13152.623 12919.950 13321.620 4490.020 7890.543 7549.464 8459.635 10422.901 8009.959 6621.276 6904.375 7713.621 6317.891 7126.623 7475.205 9457.141 13786.581 6852.256 6923.940 7588.910 4531.239 8556.597 7540.610 6815.768 9929.942 6993.245 7277.282 16167.879 15295.255 7285.095 7688.964 4395.665 6658.348 13386.089 10452.367 3114.764 7705.266 7385.785 11349.109 5268.031 7511.979 7657.419 7762.027 6112.030 5380.951 8727.123 6703.526 10261.208 8980.233 13962.555 7320.120 7192.775 7643.015 5039.663 6854.633 9072.948 7724.434 7443.258 6573.860 14199.608 13041.037 7394.893 5706.844 9012.611 8050.124 3031.682 9570.672 7058.923 10353.979 6246.998 6565.021 7127.763 13537.410 9356.895 16086.895 6946.918 13955.292 7043.134 11442.759 6324.584 10022.223 9372.637 5842.294 8614.015 8950.273 7385.050 7898.143 10214.061 6645.716 7265.558 7148.473 6199.229 7548.016 17017.195 0.000 6664.294 13862.471 4929.248 7212.561 7856.733 4260.864 7467.009 7375.214 8356.501 10022.719 6658.844 8406.007 15307.058 8308.579 9069.944 10500.470 7573.989 7894.228 10063.836 7422.129 9140.905 7197.563 6143.074 5851.430 10512.678 7980.951 13152.852 5954.764 6873.297 5934.684 12073.083 10144.542 3545.991 7652.677 6138.098 8005.237 7369.671 13228.598 7075.381 6507.830 6549.060 7398.616 9490.659 7258.834 13195.973 14267.672 10822.193 11325.988 7214.372 6885.771 7858.034 7390.583 5125.220 7017.749 8443.491 841.323 7734.175
879.849 5812.846 885.929 429.836 1228.851 1411.296 4368.453 1718.234 4535.905 2066.996 3565.806 7104.077 2379.196 2587.125 6128.752 3652.871 5555.550 1579.757 7223.081 1282.652 4440.716 2859.251 4013.797 7191.975 619.719 4653.842 1263.377 863.033 1499.280 996.654 1100.905 4119.206 1199.848 3332.879 967.727 4481.099 1357.384 4226.939 4427.034 1005.235 3266.730 7071.587 7903.489 6902.855 3672.687 4353.410 7778.662 2378.599 4091.433 1645.013 607.644 937.452 1348.675 2500.219 466.928 1056.441 3038.377 8228.356 628.551 700.236 1223.964 3299.134 6285.055 1175.664 848.846 4525.964 371.924 912.337 9802.933 8930.310 852.053 1324.018 2495.725 588.260 7021.144 5401.866 3879.324 1340.321 792.467 4930.345 2250.010 1093.215 1292.473 1559.073 1015.496 2467.895 6296.028 408.181 4242.785 2858.093 8404.330 1219.021 759.733 1278.069 6433.559 489.687 3514.723 1359.489 1024.493 4021.096 8641.383 6960.001 1029.948 2858.921 3887.821 1969.088 3907.697 3516.981 693.977 4022.511 947.063 431.067 762.817 7456.374 2938.131 9721.949 666.297 8397.067 813.879 5884.534 1024.649 4735.782 6453.309 1783.768 2532.978 2869.237 1020.104 1533.197 4133.025 350.371 644.237 949.301 1234.241 1183.070 10652.250 6970.101 0.000 8304.246 2087.621 847.616 1491.787 2771.591 1048.244 956.450 2293.051 4381.036 5059.077 8378.010 9226.021 7297.689 6798.402 4942.244 1241.582 1529.282 4744.941 1104.422 6814.267 764.521 2418.242 1166.786 4954.453 1899.915 8136.391 3144.025 649.592 1625.034 6514.858 4523.531 5685.111 1287.731 907.704 1924.201 776.352 7147.562 454.060 900.594 447.028 805.298 3125.714 1036.589 7378.509 8709.447 4457.247 4961.042 593.051 4224.800 1493.088 1025.637 6268.021 5417.982 2024.727 7593.061 1369.229
7656.454 13437.168 7984.199 7928.170 7338.058 7346.216 9132.882 8535.460 9898.903 6270.807 4642.479 7684.545 5852.713 6657.485 13435.027 9898.499 10855.128 7080.216 5536.883 7097.706 4715.383 8549.902 8379.881 5191.019 7917.494 11277.246 7291.133 7828.198 7155.181 7352.067 7724.309 6935.802 8824.170 9956.283 7438.773 11104.502 7130.600 10850.343 9790.032 7407.226 6280.108 7717.035 14624.708 12258.168 11017.691 12127.698 8958.951 6622.064 7177.684 7145.471 8150.440 7902.617 7376.431 7671.892 8281.098 7679.845 9661.781 116.857 7850.498 7922.183 7549.424 9887.332 14059.343 7458.357 7814.011 11149.368 8057.216 7481.922 13971.604 12089.965 7989.551 7351.774 9312.952 8394.573 12399.333 12025.269 10696.550 7368.077 7998.748 11148.080 9294.663 7716.619 7056.248 6800.539 8298.493 9689.670 13897.823 7955.363 5602.418 6921.085 100.084 7507.046 7897.232 7127.726 14057.881 7859.034 4693.562 6989.233 7647.897 9122.587 337.137 4888.404 7599.533 8329.198 10717.369 6948.283 10724.923 5851.829 7873.247 7108.762 8620.499 8010.665 7752.864 5455.418 9561.535 14393.128 8477.762 341.071 7803.926 2688.564 8698.085 11359.186 13759.584 9408.090 6617.702 6041.874 7491.150 7033.655 6850.189 7929.970 7921.228 8731.358 8867.644 7541.753 12072.400 13681.698 8195.138 0.000 8904.848 7837.663 6992.245 9588.818 7671.648 7579.854 6071.325 11004.439 7980.597 9558.299 8080.299 8477.978 14182.519 3406.173 8447.863 7029.740 11368.345 8310.703 14120.542 7902.020 10042.564 8449.783 4864.304 6454.893 14857.610 10768.347 7871.539 9249.356 2996.970 11146.935 11446.230 7396.939 8532.027 6413.602 7904.592 7717.663 7952.395 8631.590 8026.627 7731.006 9206.953 7445.760 3674.848 405.201 9377.047 8185.849 7972.414 9027.538 7575.476 7415.526 13892.343 7902.105 8648.131 14304.658 7396.986
2558.873 5053.254 1467.342 2159.894 2563.836 2883.299 3471.324 369.387 6007.908 3255.090 4242.925 8292.172 3549.705 3775.219 6734.592 1880.960 7081.372 3051.761 8411.175 2490.809 5117.834 1325.845 5485.800 8380.069 2320.095 6179.664 2735.380 1937.014 2971.284 2468.658 2626.727 5361.850 1259.015 4858.701 2439.730 6006.921 2527.893 5752.761 5899.038 2327.358 4454.824 8259.681 9437.214 8428.678 2210.496 4421.134 6826.151 3566.693 5529.959 3117.017 1728.334 2011.433 2820.679 1588.193 2235.360 2582.263 4564.199 8905.475 1959.314 2030.998 2695.968 1527.223 6352.779 2647.668 1922.826 6051.786 2101.983 2384.340 11274.937 10402.313 2392.153 2796.022 691.208 1767.238 8493.147 6927.688 2074.807 2812.324 2492.844 6456.167 462.148 2619.037 2764.477 2869.085 1219.089 857.155 6363.752 1810.584 5380.101 4087.291 9081.448 2427.178 2299.833 2750.073 5736.299 1961.691 4191.841 2831.492 2550.316 3082.285 9318.501 8148.095 2501.951 1487.809 5421.547 3157.182 2103.180 4689.565 2165.981 5461.037 1433.519 1672.079 2234.821 8644.468 4463.953 11193.953 2055.655 9074.185 2150.193 6561.652 1511.105 6261.605 7022.249 1450.548 3721.073 4057.331 2492.108 3005.201 5321.119 1752.774 2374.295 2267.874 1385.749 2655.074 12124.253 5165.585 1773.032 8981.364 0.000 2319.619 2963.791 967.075 2574.067 2482.272 3463.559 5906.858 4120.266 7425.498 10414.116 6345.178 6866.127 5619.363 2693.390 3001.286 6270.763 2541.531 6937.087 2304.621 2085.022 940.177 5631.572 3088.009 9670.117 2579.847 1980.355 1546.320 7191.976 6049.353 3913.201 2759.735 1324.618 3112.295 2476.729 8335.656 2184.118 1694.351 1656.118 2505.674 4597.717 2365.892 8314.866 9386.565 5929.251 6433.046 2323.109 3290.499 2965.092 2497.641 5508.429 4479.171 3550.549 5788.544 2841.233
845.104 6040.631 805.890 492.573 861.931 1169.530 4288.414 1638.195 4294.139 1710.771 3215.621 6747.853 2005.387 2230.900 6394.911 3572.832 5367.603 1337.992 6866.857 902.870 4090.531 2779.212 3772.031 6835.751 606.326 4465.895 1021.611 769.660 1257.515 754.889 912.958 3817.531 1427.633 3144.932 725.961 4293.152 994.886 4038.992 4185.269 625.453 2910.506 6715.363 7813.357 6714.909 3900.472 4619.568 7698.623 2022.374 3849.668 1403.248 602.867 844.079 1106.910 2420.180 733.087 868.494 2850.430 7878.171 342.784 414.469 982.199 3219.095 6551.213 933.899 755.473 4338.017 434.662 670.571 9561.168 8688.544 678.384 1082.253 2415.686 816.045 6779.378 5213.919 3799.285 1098.555 779.075 4742.398 2199.765 905.268 1050.708 1317.308 935.457 2594.772 6562.187 199.188 3886.561 2542.973 8054.145 839.240 586.064 1036.304 6661.344 247.922 3164.538 1117.723 836.547 3941.057 8291.198 6603.777 788.182 2778.882 3874.429 1612.864 3827.658 3160.757 117.072 3780.746 1174.848 337.693 371.808 7100.150 2750.184 9480.184 894.082 8046.882 422.870 5534.349 1252.434 4547.836 6719.468 2011.553 2176.754 2513.013 778.339 1291.432 3776.801 256.998 695.849 1215.460 1462.026 941.305 10410.484 6890.062 611.458 7954.061 2007.582 0.000 1250.022 2691.552 860.298 768.503 1919.241 4193.089 4979.038 8297.971 8869.797 7217.650 7064.561 4592.059 1228.189 1287.517 4556.994 1091.030 7080.426 590.852 2646.027 1086.747 4680.213 1543.691 8046.260 3371.810 363.826 1852.819 6164.673 4335.584 5605.072 1045.966 1135.489 1567.976 762.960 6791.338 516.797 1128.379 353.654 791.905 2883.948 656.808 7022.284 8359.262 4215.482 4719.277 655.788 4144.761 1251.323 783.872 6495.806 5337.943 1836.780 7513.022 1127.464
799.521 6731.945 1278.976 1071.237 481.124 582.118 4643.293 2296.008 4037.654 667.833 2296.161 5704.915 1085.927 1187.962 6578.093 4230.645 5072.005 87.970 5823.918 727.805 3171.071 3437.025 3206.127 5792.812 1060.560 4420.312 434.199 1122.975 193.101 495.133 867.375 2774.593 2118.948 3099.349 581.839 4247.569 857.570 3993.409 3928.783 595.412 1867.567 5672.425 7767.774 6474.678 4591.787 5316.585 8166.678 979.436 2942.702 153.226 1445.217 1197.394 519.497 2888.234 1424.164 822.911 2804.847 6958.711 1083.301 1154.985 692.490 3876.908 7248.230 601.423 1108.788 4292.434 1200.283 624.988 9304.683 8432.059 1132.618 494.841 3073.499 1689.350 6522.893 5168.335 4457.098 511.143 1141.814 4696.815 2857.579 859.685 199.315 202.597 1593.270 3252.585 7040.890 1123.054 2843.622 1500.035 7134.685 706.577 1040.298 270.792 7352.658 1002.100 2245.078 132.299 790.963 4409.112 7371.738 5560.838 742.599 3436.696 3860.435 569.926 4485.471 2117.819 1040.938 2873.780 1915.276 1261.560 920.556 6057.211 2704.601 9223.698 1762.391 7127.422 971.618 4614.889 1992.862 4502.252 6902.650 2702.867 1133.816 1470.074 634.216 41.410 2733.862 1180.864 1064.294 1874.424 2162.421 684.819 9610.005 7547.876 1489.915 7034.601 2665.396 1005.354 0.000 3349.366 814.714 722.920 952.532 4147.506 5447.092 8766.026 7826.859 7685.705 7325.585 3672.600 1590.929 37.495 4511.411 1453.769 7263.608 1045.086 3337.341 1744.560 4306.382 500.752 8000.677 4063.124 1104.342 2544.133 5245.213 4290.001 6262.886 540.005 1826.804 525.038 1047.658 5748.399 1095.461 1926.367 1277.521 874.072 2627.463 674.910 5979.346 7439.802 3745.137 4153.372 1115.480 4499.640 994.838 558.592 7187.120 5805.997 1791.197 8170.835 540.052
3314.125 5245.810 2222.594 2915.147 3319.088 3638.552 3471.434 1124.640 6763.161 4010.342 4905.107 9047.424 4304.958 4530.471 7102.155 1665.267 7836.625 3807.014 9166.428 3246.061 5780.016 1325.954 6241.053 9135.322 3075.348 6934.917 3490.633 2692.266 3726.536 3223.910 3381.980 6117.102 1952.696 5613.954 3194.983 6762.173 3283.145 6508.014 6654.290 3082.611 5210.077 9014.934 10192.466 9183.930 1891.294 4788.697 6582.652 4321.945 6285.211 3872.269 2483.586 2766.685 3575.931 2098.967 2990.613 3337.516 5319.452 9567.657 2714.566 2786.251 3451.220 1244.729 6720.342 3402.920 2678.079 6807.039 2857.235 3139.593 12030.189 11157.566 3147.405 3551.274 275.866 2522.490 9248.400 7682.940 1255.244 3567.577 3248.096 7211.420 1148.232 3374.289 3519.729 3624.338 1974.341 1543.239 6731.315 2565.837 6042.283 4842.544 9743.630 3182.431 3055.086 3505.325 5980.984 2716.943 4854.023 3586.745 3305.568 3082.395 9980.683 8903.348 3257.204 1487.919 6176.799 3912.435 1283.617 5351.747 2921.233 6216.290 2127.200 2427.331 2990.074 9399.721 5219.206 11949.205 2810.908 9736.367 2905.445 7223.834 2204.785 7016.857 7389.812 2143.449 4476.325 4812.583 3247.360 3760.454 6076.372 2508.027 3129.548 3023.127 2079.430 3410.326 12879.506 4346.021 2528.284 9643.547 809.449 3074.872 3719.044 0.000 3329.319 3237.525 4218.812 6662.110 4120.375 7182.000 11169.368 6101.679 7233.689 6281.545 3448.643 3756.538 7026.016 3296.783 7304.649 3059.874 2452.584 1695.429 6293.754 3843.261 10425.369 2824.532 2735.607 2240.001 7854.158 6804.605 3263.837 3514.987 2018.299 3867.547 3231.981 9090.908 2939.371 2388.032 2411.370 3260.927 5352.970 3121.145 8977.048 10048.747 6684.503 7188.298 3078.362 3290.609 3720.344 3252.893 5700.986 4479.280 4305.802 4968.981 3596.485
312.218 6621.178 1521.497 739.695 703.090 885.535 5004.021 2353.802 3654.165 1541.235 3169.564 6578.317 1959.329 2061.364 5767.765 4288.439 4545.470 1053.997 6697.320 1251.724 4044.473 3494.819 3422.402 6666.214 729.019 3643.762 737.616 1485.267 973.520 470.893 55.241 3527.812 2008.181 2322.799 441.966 3471.019 1441.615 3216.859 3545.294 1076.928 2740.969 6545.827 6957.446 5892.776 4481.020 4829.282 8414.231 1852.838 3500.039 1119.252 1318.475 1559.686 822.914 3135.787 936.862 99.705 2028.297 7832.113 1058.392 1130.076 698.204 3934.702 6760.927 649.904 1471.080 3515.884 868.741 373.510 8921.193 8048.570 828.580 798.258 3131.294 1396.593 6139.404 4391.786 4514.892 814.560 527.221 3920.265 2915.373 245.091 766.712 1033.312 1651.064 3276.228 6230.561 914.795 3717.024 2266.699 8008.087 1188.094 634.542 752.308 7241.892 763.688 3118.480 833.728 131.652 4656.665 8245.140 6434.240 491.121 3494.490 3050.107 1443.328 4543.265 2991.221 867.684 3431.117 1755.396 1053.300 936.525 6930.614 1928.051 8840.209 1345.506 8000.824 987.587 5488.291 1832.981 3725.703 6092.322 2592.101 2007.218 2343.476 494.343 1007.437 3595.799 972.605 576.991 1259.831 2042.574 644.244 10060.855 7605.670 1192.006 7908.003 2723.190 1021.323 966.027 3407.160 0.000 235.617 1825.935 3370.956 5694.645 9013.578 8700.261 7933.258 6515.256 4546.002 976.335 1003.522 3734.861 839.176 6453.280 741.049 3226.575 1802.354 5179.784 1374.154 7190.348 3952.357 1079.433 2433.367 6118.615 3513.451 6320.680 761.971 1716.037 1398.440 433.065 6621.801 763.920 1576.521 1069.262 386.769 2194.488 1156.427 6852.748 8313.204 3865.853 4369.647 628.177 4860.369 873.092 499.877 7076.354 6053.550 1014.647 8228.630 843.469
76.601 6385.561 1285.880 504.078 467.473 649.918 4768.404 2118.185 3707.795 1305.618 2933.947 6342.700 1723.712 1825.747 5855.173 4052.822 4599.100 818.380 6461.703 1016.107 3808.856 3259.202 3239.354 6430.597 493.402 3697.392 501.999 1249.650 737.903 235.276 144.455 3344.763 1772.564 2376.429 206.349 3524.649 1205.998 3270.489 3598.924 841.311 2505.352 6310.210 7044.854 5946.405 4245.403 4593.665 8178.614 1617.221 3316.990 883.635 1082.858 1324.069 587.297 2900.170 701.245 99.991 2081.927 7596.496 822.775 894.459 462.587 3699.085 6525.310 414.287 1235.463 3569.514 633.124 137.893 8974.823 8102.200 592.963 562.641 2895.677 1160.976 6193.034 4445.416 4279.275 578.943 418.894 3973.895 2679.756 136.765 531.095 797.695 1415.447 3040.611 6317.970 679.178 3481.407 2083.650 7772.470 952.477 398.925 516.691 7006.275 528.071 2882.863 598.111 68.043 4421.048 8009.523 6198.623 255.504 3258.873 3137.515 1207.711 4307.648 2755.604 632.067 3248.068 1519.779 817.683 700.908 6694.997 1981.681 8893.839 1109.889 7765.207 751.970 5252.674 1597.364 3779.332 6179.731 2356.484 1771.601 2107.859 258.726 771.820 3371.648 736.988 341.374 1151.505 1806.957 408.627 9877.806 7370.053 956.389 7672.386 2487.573 785.706 730.410 3171.543 91.794 0.000 1590.318 3424.586 5459.028 8777.961 8464.644 7697.641 6602.665 4310.385 868.009 767.905 3788.491 730.849 6540.688 505.432 2990.958 1566.737 4944.167 1138.537 7277.757 3716.740 843.816 2197.750 5882.998 3567.081 6085.063 526.354 1480.420 1162.823 324.738 6386.184 528.303 1340.904 833.645 151.152 2248.118 920.810 6617.131 8077.587 3682.804 4186.599 392.560 4624.752 718.645 264.260 6840.737 5817.933 1068.277 7993.013 607.852
1670.347 7536.008 2083.039 1942.063 1351.951 1360.109 4602.804 3100.071 4391.894 284.700 1428.846 5312.705 218.612 1090.494 7448.919 5034.708 5348.119 1094.108 5431.709 1158.847 2303.756 3725.755 3108.659 5400.603 1931.386 5291.138 1305.026 1927.038 1169.073 1365.960 1738.201 2382.384 2923.011 3970.175 1452.665 5118.395 1191.741 4864.235 4283.023 1466.238 1475.358 5280.215 8638.600 6751.159 5395.850 6187.411 8126.189 881.968 2550.493 1159.364 2249.281 2001.457 1390.324 2847.745 2294.991 1693.737 3675.673 6091.396 1949.338 2021.023 1563.317 4680.971 8119.056 1472.249 1912.851 5163.260 2071.109 1495.814 9686.684 8814.060 2003.444 1365.667 3877.563 2493.413 6904.895 6039.162 5261.161 1381.969 2012.641 5567.641 3661.642 1730.511 1070.141 814.432 2397.333 4056.648 7911.716 1993.881 2451.413 1402.567 6267.370 1568.187 1911.125 1141.618 8156.722 1872.926 1377.763 1003.125 1661.790 4368.623 6504.423 5168.629 1613.425 3505.051 4731.261 962.176 5289.534 1725.610 1911.765 2481.571 2719.339 2109.506 1791.382 5665.002 3575.427 9605.700 2576.602 6260.107 1842.444 3747.574 2796.925 5373.079 7773.477 3506.930 1036.348 1077.865 1505.042 1047.548 2341.653 2028.810 1935.120 2745.251 2966.484 1555.646 9217.796 8351.939 2293.978 6167.286 3469.459 1876.180 1006.138 4153.429 1685.541 1593.746 0.000 5018.332 5406.603 8725.536 7434.650 7645.216 8196.411 2805.285 2461.755 1043.633 5382.237 2324.596 8134.435 1915.912 4141.404 2548.623 3439.067 468.786 8871.503 4867.187 1970.379 3348.196 4377.898 5160.827 7066.949 1410.831 2630.867 427.495 1918.485 5356.190 1966.287 2730.430 2125.467 1744.899 3220.846 1506.901 5500.788 6572.487 4007.892 3874.063 1986.306 4459.151 1589.368 1429.418 7991.183 5765.508 2662.023 8974.899 1410.878
2802.250 7436.462 4011.529 3229.728 3193.122 3284.169 7494.053 4843.835 3596.366 3782.091 5410.419 7415.229 4200.185 4220.961 4321.423 6778.471 3305.477 3386.163 8583.553 3741.756 6285.329 5984.852 4053.996 8762.322 3219.051 1112.707 3227.648 3975.299 3372.154 2960.926 2616.778 4814.422 4498.213 534.257 2931.998 1250.717 3931.647 996.557 3487.495 3566.960 4977.935 7382.739 5672.897 4652.783 6859.258 5372.821 10904.263 4012.435 4747.484 3465.317 3808.507 4049.718 3221.548 5625.819 3426.894 2661.242 748.918 10072.969 3548.424 3620.109 3188.236 6424.734 5492.782 3139.936 3961.112 1295.582 3358.774 2863.542 8227.289 7940.141 3318.613 3196.892 5621.326 3886.625 5624.882 2171.483 7004.924 3213.194 3094.180 2422.317 5405.405 2812.050 3256.744 3523.345 4141.096 5766.260 4784.220 3404.827 5953.990 4033.440 10248.943 3678.126 3124.575 3242.340 7563.489 3253.720 5359.336 3323.760 2693.190 7146.697 10485.996 8530.348 2981.154 5984.522 2046.092 3574.350 7033.298 5228.186 3357.717 4678.562 4245.428 3543.333 3426.557 9026.721 939.378 7922.574 3818.236 10241.680 3477.619 7729.147 4323.013 1505.400 4645.981 5082.133 4166.815 4580.442 2984.375 3375.998 4924.593 3462.637 3067.023 3512.919 4532.606 3134.276 10692.449 10095.702 3682.038 10148.859 5213.222 3511.355 3417.408 5897.192 2672.019 2725.649 4066.790 0.000 8184.677 11503.611 9379.530 10423.290 5068.915 6786.858 3000.648 3379.913 1514.559 3014.143 5006.938 3231.081 5716.607 4292.386 7420.640 3641.791 5905.800 5285.716 3569.465 4923.399 8359.471 1293.149 8810.712 3252.003 4206.069 3639.296 3000.024 7458.714 3253.952 3935.938 3559.294 2876.802 1698.328 3646.459 8756.928 10554.060 3225.723 5001.241 3118.209 7350.401 2639.833 2989.909 7891.637 8543.582 2002.626 10484.611 3242.103
5642.922 8355.545 4551.391 5243.944 5633.217 5838.586 1152.286 3830.899 9091.958 5430.235 5597.210 10237.933 5210.647 6196.278 10245.145 3297.131 10083.085 5572.585 9244.714 5368.019 6472.119 2869.168 8214.443 8898.850 5404.145 9263.714 5783.503 5021.063 5647.550 5552.707 5710.776 7307.611 4763.804 7942.751 5523.780 9090.970 4984.228 8836.811 8983.087 5396.739 6400.586 10205.443 12521.263 11486.126 5583.618 7931.687 2719.586 5987.752 7475.720 5637.841 4812.383 5095.482 5868.801 2560.612 5319.410 5666.313 7648.249 8391.192 5043.363 5115.048 5780.017 4012.950 9863.331 5731.717 5006.876 9135.836 5186.032 5468.390 14358.986 13486.363 5476.202 5844.144 3878.879 4851.287 11577.197 10011.737 4907.170 5860.446 5576.893 9540.217 4567.746 5703.086 5548.618 5292.909 4303.138 4962.753 9874.305 4894.634 6734.386 6508.351 8567.166 5496.559 5383.883 5620.095 9413.404 5045.740 5546.126 5481.602 5634.365 1141.990 8804.219 8596.235 5586.001 2706.500 8505.596 5581.006 4873.206 6043.850 5250.030 7406.799 4560.133 4756.128 5318.871 9163.249 7548.003 14278.002 5139.705 8559.903 5234.242 7085.060 4637.718 9345.654 10532.802 4961.100 6142.132 6003.092 5576.157 5526.025 7266.881 4836.824 5458.345 5351.924 4807.277 5739.123 14143.024 6899.830 4857.081 8467.082 4105.598 5403.669 5484.615 4154.745 5658.116 5566.322 5341.082 8990.907 0.000 3318.933 11788.130 2238.613 10376.679 6494.134 5777.440 5522.110 9354.813 5625.580 10447.639 5388.671 5595.574 4024.226 6242.392 5509.068 12754.166 6256.952 5064.404 5056.872 7393.466 9133.402 3967.957 5832.006 4471.660 5533.354 5560.778 10281.418 5268.168 4820.965 4740.167 5589.724 7681.767 5435.274 7999.503 8810.949 8756.217 8799.291 5407.159 1046.941 6049.141 5581.690 8810.720 358.905 6634.599 7522.790 5889.355
9005.144 10549.502 7913.613 8606.165 8995.439 9200.807 4514.507 7193.120 12454.179 8792.456 8959.431 13397.140 8572.868 9558.499 13607.366 5825.968 13445.307 8934.806 11249.478 8730.240 9538.990 6231.389 11576.664 10903.614 8766.366 12625.935 9145.724 8383.284 9009.771 8914.928 9072.998 10669.833 8126.025 11304.972 8886.001 12453.192 8346.450 12199.032 12345.308 8758.961 9762.807 13429.630 15883.485 14848.347 8393.231 11293.908 1255.510 9349.974 10837.942 9000.062 8174.605 8457.704 9231.022 5922.833 8681.631 9028.534 11010.470 10395.956 8405.584 8477.269 9142.239 6541.787 13225.553 9093.939 8369.097 12498.057 8548.253 8830.611 17721.208 16848.584 8838.424 9206.365 7241.100 8213.508 14939.418 13373.958 7325.398 9222.668 8939.114 12902.438 7929.968 9065.308 8910.839 8655.130 7665.359 8324.975 13236.526 8256.855 10096.607 9870.572 10571.930 8858.781 8746.104 8982.316 11842.680 8407.962 8908.347 8843.823 8996.586 4504.211 10808.983 10600.999 8948.222 6068.721 11867.818 8943.227 7291.433 9406.071 8612.251 10769.020 7922.354 8118.350 8681.092 11168.013 10910.224 17640.223 8501.926 10564.667 8596.463 9089.824 7999.939 12707.875 13895.023 8323.321 9504.353 9365.314 8938.378 8888.246 10629.102 8199.045 8820.566 8714.145 8169.499 9101.344 17505.245 8826.692 8219.302 10471.846 7467.820 8765.890 8846.836 7086.208 9020.337 8928.543 8703.303 12353.129 3362.221 0.000 13792.894 1878.881 13738.900 8498.897 9139.661 8884.331 12717.034 8987.802 13809.860 8750.892 8957.795 7386.447 8247.156 8871.290 16116.387 9619.173 8426.626 8419.093 9398.230 12495.624 6827.855 9194.227 7833.881 8895.575 8923.000 13430.258 8630.389 8183.186 8102.388 8951.945 11043.988 8797.495 10004.267 10815.713 12118.439 12161.512 8769.380 4409.163 9411.363 8943.912 11004.677 3283.730 9996.820 8336.924 9251.576
8252.788 14140.163 8687.194 8524.504 7934.392 7882.885 11121.671 9704.226 8270.316 6911.808 6425.397 3445.910 7314.494 6755.019 13750.328 11593.219 9337.720 7676.549 2832.626 7763.002 5971.376 10244.622 6637.073 3331.465 8513.828 10875.180 7887.467 8531.193 7751.514 7948.401 8320.642 5581.826 9527.165 9606.730 8035.107 10679.621 7892.766 10425.461 8161.445 8048.679 5666.864 3478.400 15101.802 10375.763 12000.004 12769.853 12742.664 6834.994 5823.708 7741.805 8853.435 8605.612 7972.765 9366.612 8877.432 8276.179 9371.815 7900.402 8536.568 8608.253 8145.758 11285.126 14701.498 8054.690 8517.006 10724.486 8653.550 8078.256 9732.969 7851.330 8585.885 7948.108 10481.717 9097.568 9437.482 11600.388 11865.316 7964.411 8595.082 10150.347 10265.796 8312.952 7652.582 7396.873 9001.488 10660.803 14213.124 8576.322 5475.007 7018.619 8004.205 8159.845 8493.566 7724.060 14760.876 8455.368 6476.480 7585.567 8244.231 10887.490 8110.529 3176.507 8195.867 10023.918 11313.703 7380.445 11893.689 6352.772 8494.206 5754.787 9323.494 8713.660 8373.824 3345.532 9271.569 10154.493 9180.757 7734.201 8424.886 6051.136 9401.079 10934.304 14074.885 10111.085 6715.236 6253.471 8087.484 7629.989 5496.213 8632.965 8517.562 9327.692 9570.638 8065.992 7833.765 14956.093 8898.133 7976.291 10073.613 8458.622 7588.579 10757.583 8267.982 8176.188 7196.507 10600.231 11764.309 13342.011 0.000 12261.691 14497.819 6566.554 9044.197 7626.074 10943.463 8907.037 14435.843 8498.354 10745.559 9152.778 8042.808 7051.227 15334.704 11471.342 8557.610 9952.351 6463.929 10722.053 13671.103 7993.273 9235.021 7009.936 8500.926 3479.028 8548.728 9334.584 8729.621 8327.340 8791.839 8111.056 4753.784 8381.492 7634.239 6172.864 8568.748 10978.018 8029.286 8011.859 14595.338 11685.818 9198.999 15579.053 7993.319
7908.582 9452.940 6817.051 7509.603 7898.877 8104.246 3417.946 6096.558 11357.617 7695.895 7862.869 12300.578 7476.306 8461.938 12510.804 4729.406 12348.745 7838.245 10152.916 7633.678 8442.428 5134.828 10480.103 9807.052 7669.804 11529.374 8049.162 7286.723 7913.210 7818.367 7976.436 9573.271 7029.464 10208.410 7789.440 11356.630 7249.888 11102.470 11248.747 7662.399 8666.245 12333.069 14786.923 13751.785 7296.669 10197.346 1623.325 8253.412 9741.380 7903.500 7078.043 7361.142 8134.460 4826.271 7585.069 7931.972 9913.909 9299.394 7309.023 7380.707 8045.677 5445.225 12128.991 7997.377 7272.536 11401.496 7451.692 7734.049 16624.646 15752.022 7741.862 8109.804 6144.538 7116.947 13842.857 12277.397 6228.836 8126.106 7842.553 11805.876 6833.406 7968.746 7814.278 7558.568 6568.798 7228.413 12139.964 7160.293 9000.045 8774.011 9475.368 7762.219 7649.543 7885.755 10746.118 7311.400 7811.786 7747.262 7900.025 3407.650 9712.421 9504.437 7851.660 4972.160 10771.256 7846.666 6194.871 8309.509 7515.690 9672.458 6825.792 7021.788 7584.530 10071.451 9813.662 16543.662 7405.364 9468.105 7499.902 7993.262 6903.378 11611.314 12798.461 7226.760 8407.792 8268.752 7841.817 7791.685 9532.541 7102.483 7724.004 7617.583 7072.937 8004.783 16408.683 7997.225 7122.741 9375.284 6371.258 7669.328 7750.275 5989.646 7923.776 7831.981 7606.742 11256.567 2265.660 1862.640 12696.332 0.000 12642.339 7402.336 8043.099 7787.770 11620.472 7891.240 12713.299 7654.330 7861.234 6289.886 7150.594 7774.728 15019.826 8522.611 7330.064 7322.532 8301.668 11399.062 5731.293 8097.665 6737.320 7799.014 7826.438 12333.696 7533.827 7086.624 7005.827 7855.383 9947.426 7700.933 8907.706 9719.152 11021.877 11064.951 7672.818 3312.601 8314.801 7847.350 9908.115 2187.168 8900.258 8620.184 8155.015
6863.461 6958.991 6560.910 6710.717 7407.535 7589.980 9622.203 6798.974 8452.465 8245.679 9874.008 12151.667 8663.774 8765.809 906.864 8384.257 7166.002 7758.441 13401.765 7584.248 10748.918 7843.476 9136.077 13370.659 6900.599 5254.956 7442.061 7081.281 7677.964 7175.338 7084.516 9896.504 5900.374 5616.338 7146.411 4343.630 7672.160 4583.088 8343.594 7306.831 9445.414 12119.177 5163.266 7868.835 6151.233 2814.130 13032.413 8557.283 9829.565 7823.697 6668.330 7155.700 7527.359 7753.969 6264.604 7040.053 5830.999 14536.558 7011.471 7083.156 7402.648 8030.520 1165.866 7354.348 7067.094 4261.777 6702.260 7077.955 11443.341 11156.193 7082.437 7502.702 6899.637 6434.825 8840.934 3923.416 7582.451 7519.004 6754.863 5523.534 6231.762 7076.826 7471.157 7737.757 6538.788 6147.460 1060.917 6791.102 10421.469 8717.683 14712.532 7520.618 6888.399 7456.753 4608.344 6820.023 9822.925 7538.173 7008.105 9274.847 14949.584 13138.685 7195.566 7997.266 3647.492 8147.772 7536.241 9695.665 6984.346 9760.643 6362.225 6653.261 7053.186 13635.058 6021.460 11138.626 6281.017 14705.269 7104.248 12192.735 6439.811 3973.088 581.000 5407.605 8711.662 9047.921 7198.788 7711.881 10006.674 6733.292 6598.687 6247.372 6027.109 7348.688 15428.887 9368.471 6419.423 14612.448 6623.947 7137.984 7670.471 7175.504 7031.856 6940.062 8530.379 5179.610 10312.827 13631.760 14461.611 12551.440 0.000 11250.446 6465.803 7707.966 4321.654 6479.298 252.126 6994.905 5049.605 6690.078 11171.379 8078.599 5396.169 4577.691 7032.513 5499.995 12823.060 4901.793 9647.296 7466.415 6192.518 8102.884 6759.964 12195.152 6734.941 6164.699 6637.300 6788.909 6780.409 7338.186 13557.192 15017.648 8307.804 9737.679 6547.501 9478.551 7324.076 7204.321 7414.167 10671.732 7084.707 8896.333 7547.913
4390.414 10171.128 4718.159 4662.130 4072.018 4080.176 6160.911 5269.420 6632.863 3004.767 1376.438 6228.509 2586.673 3391.445 10168.987 6632.459 7589.088 3814.175 4080.847 3831.666 1449.343 5283.862 5244.866 3734.982 4651.454 8011.206 4025.093 4562.158 3889.140 4086.027 4458.268 3805.423 5558.130 6690.242 4172.732 7838.462 3864.560 7584.302 6523.992 4141.185 3014.067 6260.999 11358.668 8992.128 7751.651 8861.658 8002.911 3356.024 4047.305 3879.431 4884.400 4636.577 4110.391 4405.852 5015.058 4413.804 6395.741 3426.244 4584.458 4656.142 4283.384 6621.292 10793.302 4192.316 4547.971 7883.328 4791.176 4215.881 12119.543 10526.048 4723.511 4085.734 6046.911 5128.533 9337.754 8759.229 7430.510 4102.037 4732.708 7882.039 6028.623 4450.578 3790.208 3534.499 5032.453 6423.629 10631.783 4689.322 2336.378 3655.044 3602.218 4241.005 4631.192 3861.685 10791.841 4592.994 1427.522 3723.192 4381.857 5926.730 3839.271 3432.368 4333.493 5063.158 7451.329 3682.243 7458.883 2585.788 4607.207 3978.383 5354.459 4744.625 4486.824 3999.381 6295.495 12038.559 5211.722 3594.955 4537.886 1082.422 5432.044 8093.146 10493.544 6142.050 3351.662 2775.834 4225.110 3767.615 3764.692 4663.930 4655.188 5465.318 5601.603 4275.713 10508.483 10521.287 4929.098 3502.134 5638.807 4571.622 3726.205 6322.777 4405.608 4313.813 2805.285 7738.399 6964.710 8602.259 6624.263 7521.938 10916.478 0.000 5181.822 3763.700 8102.304 5044.663 10854.502 4635.979 6776.524 5183.743 1598.264 3188.853 11591.570 7502.307 4605.499 5983.316 1712.746 7880.894 9154.314 4130.898 5265.986 3147.562 4638.552 6261.627 4686.354 5365.549 4760.586 4464.966 5940.913 4179.720 2835.636 3907.335 6144.099 5164.750 4706.373 6017.258 4309.435 4149.485 10626.303 6946.065 5382.090 11144.247 4130.945
694.170 6522.109 1595.192 791.478 1238.244 1420.689 5077.716 2427.497 4478.566 2076.389 3704.718 7113.471 2494.483 2596.518 5598.537 4362.134 5369.871 1589.151 7232.475 1665.010 4579.627 3568.514 4010.125 7201.369 867.099 4214.956 1272.770 1682.690 1508.674 1006.048 915.226 4115.534 1909.111 2768.603 977.120 3689.398 1757.025 3435.239 4369.695 1387.593 3276.123 7080.981 6896.546 6717.177 4381.950 4482.373 8487.925 2387.992 4087.761 1654.406 1467.759 1757.109 1358.069 3209.482 936.947 870.762 2623.898 8367.268 1255.814 1327.499 1233.358 4008.397 6414.018 1185.058 1668.503 3734.264 920.524 908.664 9745.594 8872.971 966.661 1333.412 3204.988 1297.523 6963.805 4428.963 4588.587 1349.714 399.686 4744.666 2959.273 907.536 1301.866 1568.467 1724.759 3177.158 6061.333 1112.218 4252.178 2854.421 8543.241 1601.379 772.623 1287.462 7010.968 961.111 3653.634 1368.882 838.815 4730.359 8780.294 6969.395 1026.276 3568.185 2880.878 1978.482 4616.960 3526.375 1065.107 4018.839 1656.326 1250.723 1133.947 7465.768 2752.452 9664.610 1111.910 8535.978 1185.009 6023.445 1733.912 3944.082 5923.094 2493.031 2542.372 2878.630 1029.497 1542.591 4142.419 1170.028 577.077 806.592 1943.504 1179.398 10648.577 7679.364 1243.788 8443.157 2796.885 1218.746 1501.181 3480.854 862.566 770.771 2361.089 3610.008 5768.340 9087.273 9235.415 8006.952 6346.028 5081.156 0.000 1538.676 3953.241 307.816 6284.052 879.129 3127.505 1876.049 5593.243 1909.308 7129.448 3853.288 1276.856 2334.297 6653.769 3731.830 6394.375 1297.125 1616.967 1933.594 523.448 7156.955 815.702 1229.612 1266.684 673.133 3018.889 1418.947 7387.902 8848.358 4453.575 4957.370 628.263 4934.063 1489.416 1035.031 6977.284 6127.245 1839.048 8302.324 1378.623
837.015 6769.440 1316.471 1108.731 518.619 619.613 4605.798 2333.503 4062.086 630.338 2258.667 5667.420 1048.432 1150.467 6615.588 4268.140 5034.510 50.475 5786.424 690.311 3133.576 3474.520 3168.632 5755.318 1098.055 4457.807 471.694 1160.470 226.090 532.628 904.869 2737.098 2156.442 3136.844 619.334 4285.063 820.075 4030.904 3953.216 632.906 1830.072 5634.930 7805.269 6437.551 4629.281 5354.080 8129.183 941.941 2905.207 115.731 1482.712 1234.889 556.992 2850.739 1461.659 860.406 2842.342 6921.217 1120.795 1192.480 729.985 3914.403 7285.725 638.918 1146.283 4329.929 1237.777 662.483 9329.115 8456.491 1170.112 532.335 3110.994 1726.845 6547.325 5205.830 4494.593 548.638 1179.309 4734.310 2895.073 897.179 236.809 240.092 1630.765 3290.080 7078.384 1160.549 2806.127 1462.540 7097.190 744.072 1077.793 308.287 7390.153 1039.595 2207.583 169.794 828.458 4371.617 7334.243 5523.343 780.094 3474.190 3897.930 532.431 4522.966 2080.324 1078.433 2836.285 1952.771 1299.054 958.051 6019.717 2742.096 9248.131 1799.886 7089.927 1009.113 4577.394 2030.357 4539.747 6940.145 2740.362 1096.321 1432.579 671.711 3.915 2696.368 1218.359 1101.789 1911.919 2199.916 722.314 9572.511 7585.370 1527.410 6997.106 2702.890 1042.849 37.495 3386.860 852.209 760.415 915.038 4185.000 5409.597 8728.531 7789.364 7648.210 7363.080 3635.105 1628.424 0.000 4548.906 1491.264 7301.103 1082.581 3374.836 1782.055 4268.887 463.257 8038.171 4100.619 1141.837 2581.628 5207.718 4327.495 6300.381 577.500 1864.298 487.543 1085.153 5710.904 1132.956 1963.862 1315.016 911.567 2651.895 712.405 5941.851 7402.307 3707.642 4115.877 1152.975 4462.146 1019.270 596.087 7224.615 5768.502 1828.692 8208.330 577.547
3994.843 8072.707 5159.534 4343.868 4385.716 4476.762 8642.058 5991.839 4788.959 4974.684 6603.013 8607.823 5392.778 5413.554 3305.474 7926.476 4320.573 4578.757 9776.147 4934.350 7477.922 7132.856 5246.589 9954.915 4411.644 1772.482 4420.242 5167.893 4564.747 4153.519 3809.372 6007.016 5473.453 1726.850 4124.592 546.806 5124.241 709.647 4680.088 4759.554 6170.528 8575.333 4656.948 5354.203 7495.503 5297.769 12052.267 5205.028 5940.077 4657.910 5001.100 5242.312 4414.142 6773.824 4489.337 3853.836 1941.511 11265.563 4741.017 4812.702 4380.829 7572.739 4476.833 4332.529 5153.705 389.628 4472.914 4056.136 8928.709 8641.562 4511.206 4389.485 6769.330 4861.865 6326.303 1155.534 8152.929 4405.787 4063.014 3008.903 6523.615 4004.644 4449.338 4715.938 5289.101 6741.500 3768.271 4597.420 7146.583 5226.033 11441.536 4870.719 4317.168 4434.934 7919.311 4446.314 6551.929 4516.354 3885.783 8294.701 11678.589 9722.941 4173.747 7132.526 1631.821 4766.944 8181.302 6420.780 4550.310 5871.155 5220.668 4735.926 4619.150 10219.314 2131.972 8623.995 4676.252 11434.273 4670.212 8921.740 5298.254 489.451 3630.032 6057.373 5359.408 5773.035 4176.969 4568.591 6117.186 4655.230 4129.467 4370.934 5507.846 4326.869 11885.042 10784.776 4796.178 11341.452 6361.226 4703.949 4610.001 7045.196 3864.613 3918.242 5259.384 1290.123 9332.682 12651.615 10572.123 11571.294 4052.966 7979.451 3858.663 4572.507 0.000 3872.158 3990.990 4423.674 6393.874 5440.391 8613.233 4834.384 4889.851 5921.960 4762.059 5898.639 9552.064 1163.802 9958.717 4444.596 5181.309 4831.889 3968.858 8651.307 4368.092 4793.954 4751.887 4069.395 2890.921 4839.052 9949.521 11746.653 4418.316 6193.834 4180.653 8498.405 3832.427 4182.502 8527.882 9691.587 3195.219 11120.856 4434.696
659.954 6214.292 1287.375 703.747 1204.028 1386.473 4769.899 2119.681 4444.349 2042.173 3670.501 7079.254 2460.267 2562.302 5583.160 4054.317 5335.655 1554.934 7198.258 1577.279 4545.411 3260.698 3975.908 7167.152 779.368 4214.093 1238.554 1594.959 1474.457 971.831 881.009 4081.318 1601.295 2767.741 942.904 3688.536 1669.294 3434.376 4335.479 1299.862 3241.907 7046.764 6895.683 6682.960 4074.134 4174.557 8180.109 2353.776 4053.545 1620.190 1213.455 1669.378 1323.852 2901.665 787.681 836.546 2623.036 8333.051 1168.084 1239.768 1199.141 3700.580 6106.202 1150.841 1580.772 3733.401 832.793 874.448 9711.378 8838.754 878.930 1299.195 2897.172 989.707 6929.588 4428.101 4280.771 1315.498 311.955 4710.450 2651.457 873.319 1267.650 1534.250 1416.942 2869.342 6045.957 1024.487 4217.962 2820.205 8509.025 1513.648 684.892 1253.246 6703.152 873.380 3619.418 1334.666 804.598 4422.543 8746.078 6935.178 992.059 3260.368 2880.016 1944.265 4309.144 3492.158 977.376 3984.623 1348.510 1162.992 1046.217 7431.551 2718.236 9630.394 804.093 8501.762 1097.279 5989.229 1426.095 3943.219 5907.718 2185.215 2508.155 2844.414 995.281 1508.374 4108.202 1082.297 489.346 498.776 1635.688 1145.182 10614.361 7371.548 942.500 8408.941 2489.068 1131.015 1466.964 3173.038 828.349 736.555 2326.872 3609.146 5460.523 8779.457 9201.198 7699.136 6330.652 5046.939 151.859 1504.459 3952.378 0.000 6268.675 791.398 2819.689 1568.233 5505.512 1875.092 7128.586 3545.471 1189.125 2026.481 6619.553 3730.968 6086.558 1262.908 1309.151 1899.378 435.717 7122.739 727.971 921.795 1178.953 585.402 2984.672 1331.216 7353.686 8814.142 4419.359 4923.153 540.532 4626.247 1455.200 1000.814 6669.468 5819.428 1804.832 7994.508 1344.406
6743.570 6951.472 6553.390 6703.197 7287.644 7470.089 9614.683 6791.454 8249.286 8125.789 9754.117 11948.488 8543.883 8645.918 756.149 8376.737 6962.823 7638.551 13281.874 7576.729 10629.027 7835.956 8932.898 13250.768 6893.079 5051.777 7322.170 7073.761 7558.074 7055.447 6908.340 9693.325 5892.855 5413.159 7026.520 4140.451 7664.640 4379.908 8140.415 7299.312 9325.523 11915.998 4960.087 7665.656 6143.714 2758.980 13024.893 8437.392 9626.386 7703.806 6660.810 7148.180 7407.468 7746.449 6257.084 6920.162 5627.820 14416.667 7003.952 7075.636 7282.757 8023.000 1158.346 7234.458 7059.574 4058.598 6694.740 6958.064 11240.162 10953.014 7074.917 7382.812 6892.118 6427.306 8637.755 3720.237 7574.931 7399.114 6588.074 5320.355 6224.242 6956.936 7351.266 7617.866 6531.268 6139.940 962.398 6783.582 10301.578 8514.504 14592.641 7513.098 6880.879 7336.862 4600.824 6812.503 9703.034 7418.282 6888.214 9267.327 14829.694 13018.794 7075.675 7989.746 3444.313 8027.882 7528.722 9575.775 6976.826 9557.464 6354.705 6645.741 7045.666 13515.167 5818.281 10935.447 6273.497 14585.378 7096.728 12072.845 6432.291 3769.909 328.874 5400.085 8591.772 8928.030 7078.897 7591.991 9803.495 6725.772 6591.168 6145.945 6019.589 7228.798 15225.708 9360.951 6411.903 14492.557 6616.427 7130.465 7550.581 7167.984 6911.965 6820.171 8410.488 4976.431 10305.307 13624.241 14258.432 12543.920 252.073 11130.556 6262.624 7588.076 4118.475 6276.119 0.000 6987.385 5042.085 6682.558 11163.859 7958.708 5192.990 4570.171 7024.993 5492.475 12703.169 4698.614 9639.776 7346.525 6184.999 7982.994 6657.202 11991.973 6727.421 6157.179 6629.780 6781.389 6577.230 7330.666 13437.302 14897.758 8104.625 9534.500 6539.982 9471.031 7120.897 7084.431 7406.647 10664.212 6881.528 8888.814 7428.023
587.712 6219.741 1101.652 338.258 982.713 1165.158 4584.175 1933.957 4289.766 1820.857 3360.493 6857.939 2150.258 2340.986 6313.343 3868.593 5263.413 1333.619 6976.943 1047.742 4235.402 3074.974 3767.659 6945.837 327.582 4361.705 1017.239 1065.422 1253.142 750.516 808.768 3873.068 1606.744 3040.742 721.589 4188.962 1139.757 3934.802 4180.896 770.325 3020.592 6825.449 7611.352 6610.718 4079.583 4668.719 7994.385 2132.460 3845.295 1398.875 898.629 1139.841 1102.537 2715.941 776.975 764.304 2746.240 8023.043 638.546 710.231 977.826 3514.857 6600.364 929.526 1051.234 4233.827 467.304 666.198 9556.795 8684.171 87.532 1077.880 2711.448 995.155 6775.006 5109.729 4095.047 1094.182 500.330 4638.208 2495.527 801.078 1046.335 1312.935 1231.218 2874.791 6611.337 494.949 3996.647 2611.955 8199.016 984.111 156.544 1031.931 6840.455 343.843 3309.409 1113.350 732.357 4236.819 8436.069 6713.863 783.809 3074.644 3595.684 1722.950 4123.420 3270.843 447.839 3776.373 1353.958 633.455 516.679 7210.236 2645.994 9475.811 1029.413 8191.753 567.741 5679.220 1431.544 4443.645 6637.900 2190.663 2286.840 2623.098 773.966 1287.059 3886.887 552.759 417.104 1232.940 1641.136 936.932 10406.111 7185.824 790.568 8098.932 2303.344 601.478 1245.649 2987.314 756.107 664.313 2064.112 4088.899 5274.799 8593.733 8979.883 7513.412 7060.834 4736.931 949.445 1283.144 4452.804 812.285 6998.858 0.000 2825.137 1382.509 4975.974 1653.776 7844.254 3550.920 659.588 2031.929 6309.544 4231.394 5900.834 1041.593 1314.600 1678.062 484.215 6901.424 362.482 1307.489 649.416 513.161 2879.575 801.679 7132.370 8504.133 4211.109 4714.904 468.290 4440.523 1246.950 779.499 6674.916 5633.704 1732.590 7808.784 1123.091
2900.263 4172.205 2069.704 2450.250 3166.198 3431.710 4906.069 2082.840 6556.318 3857.452 5338.677 8894.534 4152.067 4377.581 4983.041 3668.123 7575.964 3600.171 9013.538 3093.171 6213.587 3127.342 6034.211 8982.432 2640.132 6390.474 3283.791 2539.376 3519.694 3017.068 3121.319 5964.212 1184.241 5339.089 2988.141 5864.916 3130.255 5610.757 6447.448 2929.720 5057.186 8862.044 8682.757 8923.269 2059.206 2669.583 8316.279 4169.055 6111.847 3665.427 2290.945 2613.795 3369.089 3037.835 2525.716 3076.855 5058.791 10001.227 2561.676 2633.360 3244.378 3314.386 4601.228 3196.078 2525.189 5692.749 2392.338 2932.750 11823.347 10950.723 2872.466 3344.432 2183.504 2057.441 9041.558 6215.174 3165.730 3360.734 2812.881 6950.759 1515.628 3113.629 3312.887 3471.448 1822.654 1431.326 4612.201 2412.947 6033.241 4689.654 10177.201 3029.540 2780.147 3298.483 4481.286 2510.101 5287.594 3379.902 3044.907 4558.713 10414.254 8750.458 3050.362 3281.132 4775.417 3759.545 3194.103 5307.438 2714.391 6042.925 1646.091 2274.441 2783.231 9246.831 4958.545 11742.363 2346.011 10169.938 2752.555 7657.405 1723.677 5785.030 5270.698 691.471 4323.435 4659.693 3040.518 3553.611 5923.482 2355.136 2664.651 2547.566 1310.975 3203.484 12672.663 6256.508 2063.387 10077.117 1907.813 2868.030 3512.201 2459.370 3068.658 2976.864 4065.922 5785.526 5596.693 8915.627 11016.478 7835.306 5114.576 6715.115 2973.081 3549.696 5826.643 2821.222 5185.536 2784.935 0.000 1973.944 6594.809 3690.371 8915.659 1059.253 2582.717 783.861 8287.729 5907.348 5565.786 3308.145 1476.385 3714.657 2796.766 8938.018 2474.474 1906.923 2258.480 2825.711 5146.127 2968.255 9168.965 10482.318 6477.661 6981.456 2613.465 4762.417 3513.502 3046.051 4627.380 5955.598 4045.141 6879.468 3389.643
1638.037 5371.916 546.506 1239.059 1643.000 1962.464 3336.414 570.789 5087.073 2334.254 3815.479 7371.336 2628.869 2854.383 6526.489 2505.426 6160.537 2130.925 7490.340 1569.973 4690.389 1711.806 4564.965 7459.234 1399.259 5258.829 1814.545 1016.178 2050.448 1547.822 1705.891 4441.014 758.919 3937.865 1518.895 5086.085 1607.057 4831.925 4978.202 1406.522 3533.988 7338.846 8516.378 7507.842 3053.020 4313.425 6746.623 2645.857 4609.123 2196.181 807.498 1090.597 1899.843 1468.180 1314.525 1661.428 3643.364 8478.029 1038.478 1110.163 1775.132 2151.689 6245.070 1726.832 1001.991 5130.951 1181.147 1463.505 10354.101 9481.478 1471.317 1875.186 1348.280 846.402 7572.312 6006.852 2731.879 1891.489 1572.008 5535.332 1329.992 1698.201 1843.641 1948.250 298.253 1724.999 6256.043 889.749 4510.043 3166.456 8654.003 1506.342 1378.998 1829.237 5992.630 1040.855 3764.396 1910.657 1629.480 2989.057 8891.056 7227.260 1581.116 1711.477 4500.711 2236.347 2760.252 3784.240 1245.145 4540.201 555.247 751.243 1313.985 7723.633 3543.118 10273.117 1134.820 8646.740 1229.357 6134.207 632.833 5340.769 6851.047 1342.838 2800.237 3136.495 1571.272 2084.365 4400.284 831.939 1453.460 1347.039 802.392 1734.238 11203.417 5822.657 852.196 8553.919 940.177 1398.784 2042.955 1624.147 1653.231 1561.437 2542.724 4986.022 4027.038 7345.971 9493.280 6265.651 6758.417 5191.917 1772.554 2080.450 5349.928 1620.695 6829.378 1383.785 1977.313 0.000 5071.611 2167.173 8749.281 2703.095 1059.519 1184.104 6764.531 5128.517 4537.667 1838.899 466.775 2191.459 1555.893 7414.820 1263.283 816.079 735.282 1584.838 3676.882 1445.057 7645.767 8959.120 5008.415 5512.210 1402.274 3192.761 2044.256 1576.805 5827.091 4385.943 2629.714 6445.616 1920.397
5033.747 9986.944 4533.976 4816.194 4518.140 4723.509 5976.728 5085.237 7723.027 3807.312 2583.167 7704.355 3479.107 4481.609 10636.045 6448.276 8679.252 4457.508 5556.693 4252.941 2656.071 5099.678 6346.076 5210.828 4805.517 8654.538 4668.425 4377.975 4532.473 4729.359 5101.601 5012.152 5373.947 7333.575 4772.428 8481.794 3869.151 8227.635 7614.156 4281.662 4203.027 7736.845 12002.000 10082.292 7567.467 8677.474 7848.521 4257.130 5254.034 4522.763 4700.217 4452.394 4753.723 4221.669 4974.221 5057.137 7039.073 4902.090 4400.274 4471.959 4699.273 6437.109 10609.119 4638.438 4363.787 8526.660 4840.843 4859.214 13209.296 11732.777 4877.575 4729.067 5862.728 4944.350 10427.507 9402.561 7246.327 4745.369 4978.265 8931.041 5844.439 5093.911 4433.540 4177.831 4848.269 6239.446 10620.093 4537.557 3543.107 4745.209 5078.064 4381.482 4785.255 4505.018 10607.658 4688.663 2634.250 4366.525 5025.189 5742.546 5315.117 4908.214 4976.825 4878.975 8073.620 4465.928 7274.700 3675.952 4747.683 5185.112 5170.276 4560.442 4627.300 5475.227 6938.827 13128.312 5027.538 5070.801 4591.153 2558.268 5247.861 8736.478 10960.602 5957.867 4412.570 3865.998 4720.051 4410.948 4971.421 4479.747 4895.040 5456.594 5417.420 4919.045 11715.212 10337.104 4744.915 4977.980 5454.624 4712.099 4369.538 6138.594 5048.940 4957.146 3609.543 8381.731 6780.527 8447.869 8100.109 7367.548 11122.467 1615.979 5427.380 4407.032 8745.637 5290.220 11193.427 4790.043 6592.341 4999.559 0.000 3991.398 12234.903 7318.123 4421.316 5799.133 3188.592 8524.227 8970.131 4716.928 5081.803 3950.107 4962.151 7737.473 4840.418 5181.366 4576.403 4991.096 6585.393 4320.196 4311.482 5383.181 7245.310 6371.479 4946.226 5833.075 4952.768 4792.818 10442.120 6791.675 6025.423 10960.064 4774.278
1294.103 7181.478 1728.509 1565.819 975.707 983.865 4619.854 2745.541 4179.390 357.861 1986.190 5394.943 775.955 877.990 7072.676 4680.178 5135.615 717.864 5513.947 804.317 2861.099 3742.804 2896.155 5482.841 1555.143 4914.895 928.782 1572.508 792.830 989.716 1361.958 2464.621 2568.480 3593.932 1076.422 4742.151 934.081 4487.992 4070.520 1089.994 1557.596 5362.453 8262.357 6538.656 5041.319 5811.168 8143.239 669.464 2632.730 783.120 1894.750 1646.927 1014.080 2864.795 1918.747 1317.494 3299.430 6648.740 1577.883 1649.568 1187.073 4326.441 7742.813 1096.006 1558.321 4787.017 1694.865 1119.571 9474.181 8601.557 1627.200 989.423 3523.032 2138.883 6692.391 5662.918 4906.631 1005.726 1636.397 5191.398 3307.111 1354.268 693.897 438.188 2042.803 3702.118 7535.472 1617.637 2533.651 1190.063 6824.714 1201.160 1534.881 765.375 7802.191 1496.683 1935.107 626.882 1285.546 4385.672 7061.766 5250.867 1237.182 3522.101 4355.018 726.285 4935.004 1807.847 1535.521 2563.809 2364.809 1754.975 1415.139 5747.240 3199.184 9393.196 2222.072 6817.450 1466.201 4304.917 2442.394 4996.835 7397.233 3152.400 823.844 1160.102 1128.799 671.304 2423.891 1674.280 1558.877 2369.007 2611.954 1179.402 9300.034 7997.408 1939.448 6724.630 3114.928 1499.937 629.894 3798.898 1309.297 1217.503 642.561 4642.088 5423.653 8742.586 7516.887 7662.266 7820.168 3362.628 2085.512 667.389 5005.994 1948.352 7758.191 1539.669 3786.874 2194.093 3996.410 0.000 8495.259 4512.657 1598.925 2993.666 4935.241 4784.583 6712.418 1034.588 2276.336 215.066 1542.241 5438.428 1590.044 2375.900 1770.936 1368.655 2845.750 1152.371 5669.374 7129.830 3795.389 3843.400 1610.063 4476.201 1213.124 1053.175 7636.653 5782.558 2285.780 8620.368 1034.635
7542.143 11559.623 8646.450 7830.784 8086.216 8268.661 12128.974 9478.755 8795.927 8874.981 10503.309 12495.129 9293.075 9313.851 4993.273 11413.392 7509.464 8437.123 13877.049 8634.850 11378.219 10619.772 9347.491 13996.070 7906.405 5466.370 8120.742 8721.996 8356.646 7854.020 7520.167 10107.918 8960.369 5827.752 7825.093 4555.044 8796.331 4794.502 8687.056 8426.899 10070.825 12462.639 814.652 6893.439 10646.611 6985.568 15539.183 9105.325 10040.979 8502.379 8507.065 8796.415 8206.041 10260.739 7976.253 7564.630 6042.413 15165.859 8295.120 8366.805 8081.330 11059.655 6164.632 8033.030 8707.808 4473.191 7959.830 7756.637 9508.074 10180.798 8005.967 8181.384 10256.246 8348.781 7865.539 4134.831 11639.845 8197.686 7549.930 5866.996 10010.531 7715.439 8149.839 8416.439 8776.017 10228.416 5456.070 8151.523 11046.880 9126.330 15341.833 8571.220 7811.929 8135.435 9607.110 8000.417 10452.226 8216.854 7596.578 11781.617 15578.886 13764.096 7874.248 10619.442 5210.076 8667.240 11668.218 10321.076 8104.413 9972.057 8707.584 8290.029 8173.253 14260.469 6232.874 8400.049 8163.167 15334.570 8224.315 12822.037 8785.170 4184.502 5317.831 9544.289 9259.704 9673.332 7877.470 8390.563 10218.088 8209.333 7616.383 7857.850 8994.762 8027.370 15308.034 14271.692 8283.094 15241.749 9848.142 8258.052 8349.153 10532.112 7575.408 7618.743 9159.680 5391.024 12819.598 16138.531 14673.025 15058.210 5740.765 11879.747 7345.579 8386.648 4533.068 7359.074 5678.789 7918.435 9544.982 8927.307 12513.530 8734.680 0.000 9073.069 8316.162 9385.555 13452.361 5113.207 13445.632 8145.097 8668.225 8732.186 7455.774 12538.614 7855.008 8280.870 8305.990 7585.965 6991.823 8458.253 14050.423 15646.950 8519.218 10081.141 7667.569 11985.321 7732.723 7883.003 12014.798 13178.502 7296.121 13895.100 8226.595
3603.281 3468.434 2772.722 3153.268 3869.216 4134.727 5609.087 2785.858 7259.336 4560.470 6041.695 9597.552 4855.085 5080.599 4401.352 4074.323 7532.083 4303.189 9716.555 3796.189 6916.604 3533.542 6737.228 9685.449 3343.150 5904.576 3986.808 3242.394 4222.712 3720.086 3824.336 6667.230 1887.258 4853.191 3691.158 5379.018 3833.273 5124.858 7150.465 3632.738 5760.204 9565.061 8196.858 8879.388 1582.539 2087.894 9019.296 4872.073 6814.865 4368.444 2993.962 3316.813 4072.107 3740.853 3228.734 3779.873 5067.852 10704.245 3264.694 3336.378 3947.396 3720.586 4019.539 3899.096 3228.207 5206.851 3095.356 3635.768 12453.895 11653.741 3575.484 4047.450 2589.703 2760.458 9744.575 5729.276 3013.756 4063.752 3515.898 6906.858 2218.646 3816.646 4015.904 4174.465 2525.672 2134.344 4030.512 3115.964 6736.259 5392.671 10880.219 3732.558 3483.165 4001.500 3528.366 3213.119 5990.612 4082.920 3747.925 5261.730 11117.271 9453.475 3753.379 3695.507 4289.519 4462.562 2967.547 6010.456 3417.409 6745.943 2349.109 2977.459 3486.249 9949.848 5258.313 12149.180 3049.029 10872.955 3455.573 8360.422 2426.695 5299.132 4689.009 1394.489 5026.453 5362.711 3743.535 4256.629 6626.499 3058.154 3367.669 3250.583 2013.993 3906.502 13375.681 5649.106 2766.405 10780.135 2610.831 3571.047 4215.219 2865.570 3771.676 3679.882 4768.939 5299.628 6299.711 9618.644 11719.496 8538.324 4532.887 7418.133 3676.099 4252.714 5340.745 3524.240 4603.847 3487.952 1078.440 2676.962 7297.827 4393.389 8429.761 0.000 3285.735 1486.878 8990.746 5421.450 5625.341 4011.163 2179.402 4417.675 3499.784 9641.036 3177.492 2609.941 2961.498 3528.729 5849.145 3671.272 9871.983 11185.335 7180.679 7684.474 3316.483 5465.434 4216.520 3749.069 3923.609 6658.616 4748.159 6272.066 4092.661
1113.967 6032.167 579.198 885.866 592.120 992.753 4246.449 1596.230 4366.838 1440.961 2927.740 6478.043 1735.576 1961.090 6681.267 3530.867 5456.557 1161.215 6597.046 633.060 3802.649 2737.247 3844.730 6565.940 875.189 4734.758 844.834 423.197 1080.738 824.317 1181.821 3547.721 1419.169 3413.795 846.408 4562.015 719.318 4307.855 4257.967 355.643 2640.695 6445.552 8082.220 6803.862 3892.008 4722.697 7656.658 1752.564 3715.830 1226.470 745.439 497.616 930.132 2378.215 1019.444 1137.357 3119.293 7590.290 445.497 50.643 768.945 3177.130 6654.342 712.419 409.010 4606.880 886.066 939.434 9633.866 8761.243 947.247 905.475 2373.721 989.572 6852.077 5482.782 3757.320 921.778 1047.937 5011.261 2157.800 1174.131 873.930 1054.956 893.492 2552.807 6665.315 582.779 3616.750 2273.162 7766.263 569.429 854.927 859.526 6652.880 733.886 2876.656 940.946 1105.410 3899.092 8003.316 6333.966 1057.045 2736.918 4143.292 1343.053 3785.693 2890.947 817.355 3646.908 1215.498 605.664 696.973 6830.339 3019.047 9552.882 1072.761 7759.000 636.376 5246.467 1293.084 4816.698 7005.824 2003.089 1906.944 2243.202 794.031 1114.655 3506.990 524.969 964.712 1501.816 1462.643 1014.003 10383.133 6848.097 790.137 7666.180 1965.618 781.771 1073.245 2649.587 1129.160 1037.366 1649.430 4461.952 4937.073 8256.006 8599.987 7175.685 7167.689 4304.178 1497.052 1110.740 4825.857 1359.892 7238.649 859.715 2637.563 1044.782 4316.387 1273.880 8315.123 3363.346 0.000 1844.355 5876.791 4604.447 5563.108 790.909 1127.025 1298.166 1031.823 6521.527 910.090 1226.589 621.626 1060.768 2956.647 386.997 6752.474 8071.380 4288.180 4791.975 1015.898 4102.796 1324.021 887.776 6487.342 5295.978 2105.643 7471.057 950.687
2141.208 4212.618 1310.649 1691.195 2407.143 2672.655 4369.060 1545.831 5797.263 3098.397 4579.622 8135.479 3393.012 3618.526 5467.584 3280.842 6816.909 2841.116 8254.483 2334.116 5454.532 2725.727 5275.156 8223.377 1881.077 5915.201 2524.736 1780.321 2760.639 2258.013 2362.264 5205.157 425.186 4594.238 2229.086 5742.458 2371.200 5488.298 5688.393 2170.665 4298.131 8102.989 8957.850 8164.214 2099.619 3154.126 7779.269 3410.000 5352.792 2906.372 1531.890 1854.740 2610.034 2500.826 1766.661 2317.800 4299.736 9242.172 1802.621 1874.305 2485.323 2927.105 5085.771 2437.023 1766.134 5787.323 1633.283 2173.695 11064.292 10191.668 2113.411 2585.377 1804.747 1298.386 8282.503 6490.268 2875.418 2601.679 2053.826 6191.704 1007.697 2354.574 2553.832 2712.393 1063.599 923.395 5096.745 1653.891 5274.186 3930.599 9418.146 2270.485 2021.092 2539.428 4833.331 1751.046 4528.539 2620.847 2285.852 4021.703 9655.199 7991.402 2291.306 2744.123 4942.183 3000.490 2903.792 4548.383 1955.336 5283.870 887.036 1515.386 2024.176 8487.776 4199.490 10983.308 1586.956 9410.883 1993.500 6898.349 964.622 5997.141 5755.242 183.540 3564.380 3900.638 2281.463 2794.556 5164.427 1596.081 1905.596 1788.511 551.920 2444.429 11913.608 5966.196 1304.332 9318.062 1399.882 2108.974 2753.146 2080.613 2309.603 2217.809 3306.867 5642.395 5059.684 8378.617 10257.423 7298.297 5599.119 5956.060 2214.026 2790.641 6006.300 2062.167 5670.079 2025.880 818.014 1214.889 5835.754 2931.316 9190.753 1543.797 1823.662 0.000 7528.674 5784.890 5265.357 2549.090 717.330 2955.602 2037.711 8178.963 1715.419 1147.868 1499.425 2066.656 4387.072 2209.200 8409.910 9723.262 5718.606 6222.401 1854.410 4225.407 2754.447 2286.996 4667.793 5418.589 3286.086 6589.156 2630.588
6030.883 11811.596 6358.628 6302.599 5712.486 5720.645 7801.380 6909.889 8273.332 4645.235 3016.907 6188.538 4227.141 5031.914 11809.455 8272.928 9229.556 5454.644 4040.876 5472.134 3089.811 6924.330 6855.545 3695.012 6291.922 9651.674 5665.562 6202.626 5529.609 5726.496 6098.737 5411.466 7198.599 8330.711 5813.201 9478.931 5505.028 9224.771 8164.461 5781.654 4654.536 6221.028 12999.136 10632.597 9392.119 10502.126 8473.639 4996.493 5653.348 5519.899 6524.869 6277.045 5750.860 6046.321 6655.527 6054.273 8036.209 3024.700 6224.926 6296.611 5923.853 8261.761 12433.771 5832.785 6188.439 9523.796 6431.645 5856.350 12475.597 10593.957 6363.980 5726.203 7687.380 6769.002 10874.997 10399.698 9070.979 5742.505 6373.177 9522.508 7669.091 6091.047 5430.677 5174.968 6672.921 8064.098 12272.252 6329.791 3976.846 5295.513 3200.674 5881.474 6271.660 5502.154 12432.310 6233.462 3067.990 5363.661 6022.326 7567.198 3437.727 3392.397 5973.961 6703.627 9091.797 5322.712 9099.352 4226.257 6247.675 5584.426 6994.927 6385.094 6127.293 3959.411 7935.963 12897.121 6852.190 3193.411 6178.355 944.037 7072.513 9733.614 12134.013 7782.518 4992.131 4416.303 5865.578 5408.084 5325.853 6304.398 6295.656 7105.787 7242.072 5916.182 10576.393 12161.756 6569.567 3100.590 7279.276 6212.091 5366.674 7963.246 6046.077 5954.282 4445.753 9378.868 7495.284 9072.986 6584.292 7992.666 12556.947 1780.601 6822.291 5404.169 9742.773 6685.131 12494.971 6276.448 8416.993 6824.211 3238.733 4829.322 13232.039 9142.775 6245.968 7623.784 0.000 9521.363 10794.783 5771.367 6906.455 4788.031 6279.020 6221.656 6326.823 7006.018 6401.055 6105.435 7581.382 5820.188 2795.665 3505.791 7784.568 6661.513 6346.842 7657.727 5949.904 5789.954 12266.772 7416.793 7022.559 12784.716 5771.414
3555.187 8189.399 4764.467 3982.665 3946.060 4037.107 8246.991 5596.772 4349.303 4535.028 6163.357 8168.167 4953.122 4973.898 3818.703 7531.409 3880.917 4139.101 9336.491 4494.694 7038.266 6737.789 4806.933 9515.259 3971.989 1455.414 3980.586 4728.237 4125.091 3713.863 3369.716 5567.360 5251.151 1287.194 3684.936 623.734 4684.585 647.711 4240.433 4319.898 5730.872 8135.677 5170.177 5228.223 7612.195 5810.997 11657.200 4765.372 5500.421 4218.254 4561.444 4802.656 3974.486 6378.757 4179.831 3414.180 1501.856 10825.907 4301.361 4373.046 3941.173 7177.672 4990.062 3892.873 4714.050 946.539 4111.711 3616.480 8802.729 8515.581 4071.550 3949.829 6374.263 4639.562 6200.323 1668.763 7757.862 3966.131 3847.118 2765.024 6158.342 3564.988 4009.682 4276.282 4894.034 6519.198 4281.500 4157.765 6706.927 4786.378 11001.880 4431.063 3877.512 3995.278 8316.426 4006.658 6112.273 4076.698 3446.127 7899.634 11238.933 9283.285 3734.091 6737.459 2149.146 4327.288 7786.235 5981.124 4110.654 5431.500 4998.365 4296.270 4179.494 9779.658 1692.316 8498.015 4571.174 10994.617 4230.556 8482.084 5075.951 960.037 4143.260 5835.070 4919.752 5333.379 3737.313 4128.936 5677.530 4215.575 3819.961 4265.857 5285.543 3887.213 11445.386 10848.639 4434.975 10901.797 5966.159 4264.293 4170.346 6650.129 3424.957 3478.587 4819.728 850.467 8937.615 12256.548 10132.467 11176.227 4566.195 7539.795 3753.585 4132.851 1165.516 3767.081 4504.218 3984.018 6469.544 5045.324 8173.577 4394.728 5403.080 6038.653 4322.403 5676.336 9112.408 0.000 9563.649 4004.940 4959.007 4392.233 3752.961 8211.651 4006.889 4688.876 4312.231 3629.739 2451.265 4399.396 9509.865 11306.997 3978.660 5754.179 3871.147 8103.338 3392.771 3742.846 8644.575 9296.520 2755.563 11237.549 3995.040
6391.404 5298.555 5299.873 5992.426 6396.367 6715.831 4634.336 4201.919 9840.440 7087.621 7979.200 12124.703 7382.237 7607.750 9325.235 2987.487 10913.904 6884.293 12243.707 6323.340 8854.109 4403.233 9318.332 12212.601 6152.627 10012.196 6567.912 5769.545 6803.815 6301.189 6459.259 9194.381 5393.145 8691.233 6272.262 9839.452 6360.424 9585.293 9731.569 6159.890 8287.356 12092.213 13147.221 12261.209 4577.032 8117.815 5740.700 7399.224 9362.490 6949.548 5560.865 5843.964 6653.210 4973.457 6067.892 6414.795 8396.731 12200.698 5791.845 5863.530 6528.499 3029.933 8783.868 6480.199 5755.358 9884.318 5934.514 6216.872 15107.468 14234.845 6224.684 6628.553 3716.315 5599.769 12325.679 10679.639 3342.036 6644.856 6325.375 10288.699 4588.681 6451.569 6597.008 6701.617 5051.620 4969.465 8954.395 5643.116 9116.376 7919.823 12376.672 6259.710 6132.365 6582.604 6591.733 5794.222 7928.116 6664.024 6382.847 4624.040 12613.725 11980.627 6334.483 4426.157 9239.882 6989.714 3258.953 8425.840 5998.512 9293.569 5308.615 5504.610 6067.353 12477.000 8296.485 15026.484 5888.187 12369.409 5982.724 10297.927 5386.200 10094.136 9599.908 5519.872 7553.604 7889.862 6324.639 6837.733 9153.651 5585.306 6206.827 6100.406 5519.880 6487.605 15956.785 3614.925 5605.563 12276.588 4148.242 6152.151 6796.323 3512.573 6406.598 6314.804 7296.091 9739.389 4052.656 6597.243 14246.647 6048.119 9297.216 9355.638 6525.922 6833.817 10103.295 6374.062 9368.176 6137.153 5820.652 4772.708 9367.847 6920.540 13380.124 6041.775 5812.886 5612.262 10928.251 9881.885 0.000 6592.266 5220.142 6944.826 6309.260 12168.188 6016.650 5569.447 5488.649 6338.206 8430.249 6198.424 11809.009 12620.456 9761.782 10265.577 6155.641 4528.991 6797.623 6330.172 5753.730 4411.561 7383.081 4237.885 6673.765
595.464 6705.718 1334.471 824.235 198.788 459.513 4995.431 2345.212 3833.598 1115.213 2743.542 6152.295 1533.307 1635.342 6374.037 4279.849 4923.317 627.975 6271.298 825.702 3618.451 3486.229 3311.490 6240.192 813.558 4216.256 311.594 1178.470 547.498 291.077 663.319 3221.973 2092.720 2895.293 377.783 4043.512 1015.593 3789.353 3724.727 650.906 2314.947 6119.805 7563.718 6270.622 4565.559 5112.529 8405.641 1426.816 3389.126 693.230 1309.885 1252.889 396.892 3127.197 1220.108 618.855 2600.791 7406.091 1049.802 1121.486 410.154 3926.112 7044.174 319.087 1164.282 4088.378 953.281 420.932 9100.626 8228.003 885.616 372.236 3122.704 1481.132 6318.837 4964.279 4506.302 388.538 937.758 4492.759 2906.783 655.629 340.690 607.290 1642.474 3301.789 6836.834 906.205 3291.002 1947.415 7582.065 762.072 793.296 326.286 7326.431 755.098 2692.458 407.706 586.907 4648.075 7819.118 6008.218 538.543 3485.900 3656.379 1017.306 4534.675 2565.199 859.094 3320.205 1839.935 1044.710 927.935 6504.592 2500.545 9019.642 1515.389 7574.802 978.997 5062.269 1917.520 4298.196 6698.594 2676.640 1581.196 1917.454 400.699 581.415 3181.243 964.015 860.238 1670.368 2127.113 480.763 9949.943 7597.080 1276.545 7481.981 2714.600 1012.733 540.005 3398.570 610.658 518.864 1399.913 3943.449 5686.055 9004.988 8274.239 7924.668 7121.529 4119.980 1386.873 577.500 4307.355 1249.713 7059.552 798.084 3311.114 1793.764 4753.762 948.132 7796.621 4036.897 1070.843 2517.906 5692.593 4085.945 6312.090 0.000 1800.576 972.418 843.602 6195.779 848.459 1793.466 1060.672 670.016 2423.407 730.405 6426.726 7887.182 3754.940 4258.735 911.424 4851.779 790.782 354.536 7160.893 6044.960 1587.141 8220.040 417.447
1423.879 4905.141 593.319 973.865 1689.814 1955.325 3699.226 1049.008 5079.934 2381.067 3862.293 7418.149 2675.683 2901.197 6160.108 2983.644 6099.579 2123.787 7537.153 1616.786 4737.202 2190.025 4557.826 7506.047 1163.748 5197.871 1807.406 1062.991 2043.310 1540.683 1644.934 4487.828 292.144 3876.908 1511.756 5025.128 1653.870 4770.968 4971.063 1453.336 3580.802 7385.659 8240.521 7446.885 2764.983 3846.650 7109.436 2692.671 4635.462 2189.042 814.560 1137.410 1892.704 1830.992 1049.331 1600.470 3582.406 8524.843 1085.291 1156.976 1767.993 2629.907 5778.295 1719.694 1048.804 5069.994 915.954 1456.366 10346.962 9474.339 1396.082 1868.047 1742.433 581.056 7565.173 5772.938 3126.032 1884.350 1336.496 5474.374 1403.112 1637.244 1836.502 1995.063 346.269 1560.191 5789.268 936.562 4556.857 3213.269 8700.816 1553.156 1303.763 1822.098 5525.855 1033.717 3811.209 1903.518 1568.523 3351.870 8937.869 7274.073 1573.977 2189.695 4224.854 2283.160 3154.405 3831.053 1238.006 4566.541 169.707 798.057 1306.847 7770.446 3482.160 10265.978 869.626 8693.553 1276.170 6181.020 247.292 5279.812 6447.765 876.064 2847.050 3183.309 1564.133 2077.227 4447.097 878.752 1188.266 1071.181 335.617 1727.099 11196.279 6216.809 587.003 8600.732 1324.618 1391.645 2035.817 2018.299 1592.274 1500.479 2589.537 4925.065 4389.850 7708.784 9540.093 6628.463 6291.643 5238.731 1496.697 2073.312 5288.970 1344.838 6362.603 1308.550 1510.538 497.559 5118.425 2213.987 8473.423 2236.320 1106.333 717.330 6811.344 5067.560 5015.885 1831.761 0.000 2238.272 1320.382 7461.634 998.089 430.539 782.095 1349.327 3669.743 1491.870 7692.581 9005.933 5001.276 5505.071 1137.080 3555.574 2037.118 1569.667 5360.317 4748.755 2568.756 6839.769 1913.259
1242.852 7130.227 1677.258 1514.568 924.456 932.614 4661.145 2694.290 3964.399 142.795 1771.124 5179.952 560.889 662.999 7021.425 4628.927 4920.624 666.613 5298.956 753.066 2646.033 3784.096 2681.164 5267.850 1503.892 4863.644 877.531 1521.257 741.578 938.465 1310.706 2249.630 2517.229 3542.680 1025.171 4690.900 882.830 4436.741 3855.529 1038.743 1342.604 5147.462 8211.106 6323.664 4990.068 5759.917 8184.530 454.473 2417.739 731.869 1843.499 1595.676 962.829 2906.086 1867.496 1266.243 3248.179 6433.674 1526.632 1598.317 1135.822 4275.190 7691.562 1044.754 1507.070 4735.766 1643.614 1068.320 9259.189 8386.566 1575.949 938.172 3471.781 2087.632 6477.400 5611.667 4855.380 954.475 1585.146 5140.147 3255.860 1303.016 642.646 386.937 1991.552 3650.867 7484.221 1566.386 2318.659 975.072 6609.647 1149.909 1483.630 714.124 7750.940 1445.432 1720.040 575.631 1234.295 4426.964 6846.700 5035.876 1185.931 3563.392 4303.767 534.681 4883.753 1592.856 1484.270 2348.817 2313.558 1703.724 1363.888 5532.249 3147.933 9178.205 2170.821 6602.384 1414.950 4089.851 2391.143 4945.584 7345.982 3101.149 608.853 945.111 1077.548 620.053 2208.900 1623.029 1507.626 2317.756 2560.702 1128.151 9085.043 7946.157 1888.197 6509.563 3063.677 1448.686 578.643 3747.647 1258.046 1166.252 427.495 4590.837 5464.944 8783.877 7301.896 7703.557 7768.916 3147.562 2034.261 616.138 4954.743 1897.101 7706.940 1488.418 3735.623 2142.842 3781.344 41.291 8444.008 4461.406 1547.674 2942.415 4720.175 4733.332 6661.167 983.337 2225.085 0.000 1490.990 5223.436 1538.792 2324.648 1719.685 1317.404 2793.351 1101.120 5454.383 6914.764 3580.398 3628.409 1558.812 4517.492 1161.873 1001.923 7585.402 5823.849 2234.529 8569.117 983.383
331.216 6256.492 1302.451 375.010 875.290 1057.735 4784.975 2134.757 4115.612 1713.435 3341.764 6750.517 2131.529 2233.564 5936.107 4069.393 5006.917 1226.197 6869.521 1248.541 4216.673 3275.774 3647.171 6838.415 450.631 4105.209 909.816 1266.221 1145.720 643.094 552.272 3752.580 1643.495 2784.246 614.166 3932.466 1340.557 3678.306 4006.741 971.124 2913.169 6718.027 7234.116 6354.223 4116.334 4412.900 8195.185 2025.038 3724.807 1291.452 1051.290 1340.640 995.114 2916.741 520.479 507.808 2489.744 8004.314 839.346 911.031 870.404 3715.656 6344.544 822.104 1252.034 3977.331 504.055 545.710 9382.640 8510.017 550.192 970.458 2912.248 1031.907 6600.851 4766.534 4295.846 986.760 123.094 4381.712 2693.657 544.582 938.912 1205.513 1432.018 2911.542 6355.518 695.749 3889.224 2491.467 8180.287 1184.911 356.154 924.508 6877.206 544.642 3290.680 1005.928 475.861 4437.619 8417.340 6606.440 663.322 3275.444 3218.449 1615.528 4324.220 3163.421 648.639 3655.885 1390.710 834.255 717.479 7102.814 2389.498 9301.656 929.124 8173.024 768.541 5660.491 1468.295 4187.149 6260.664 2227.415 2179.418 2515.676 666.543 1179.637 3779.465 753.559 160.609 855.705 1677.888 816.444 10285.623 7386.624 827.320 8080.203 2504.144 802.277 1138.227 3188.114 499.611 407.817 1998.135 3832.403 5475.599 8794.533 8872.461 7714.212 6683.599 4718.202 572.209 1175.722 4196.308 435.049 6621.622 462.661 2861.889 1583.308 5176.774 1546.354 7467.019 3587.671 860.387 2068.681 6290.815 3974.898 6101.634 934.171 1351.351 1570.640 0.000 6794.001 399.234 1160.138 850.216 256.665 2655.935 1002.479 7024.948 8485.404 4090.621 4594.416 211.794 4641.323 1126.462 672.077 6711.668 5834.504 1476.094 8009.584 1015.669
6642.160 12556.389 7103.420 6913.876 6350.618 6012.407 9958.868 8120.452 5128.584 5328.034 5581.729 43.484 5746.128 4840.255 11470.335 10055.089 6195.989 5883.815 2494.933 6179.228 5182.332 9081.818 3495.342 2993.773 6903.200 8083.985 6296.512 6947.419 6059.429 6364.627 6705.589 3340.452 7943.391 7425.899 6424.479 8498.789 6308.992 8244.630 5019.714 6464.906 4269.068 75.975 12531.145 6973.337 10416.230 11159.225 12404.971 5024.095 3514.800 5962.968 7269.661 7021.838 6260.528 8203.809 7266.804 6665.551 7190.984 7562.709 6952.795 7024.479 6561.984 9701.352 12641.694 6470.917 6933.232 8543.655 7042.922 6442.058 6330.543 4448.904 6975.257 6235.871 8897.943 7513.794 6035.057 9419.556 10281.542 6252.173 6984.454 7008.616 8682.022 6702.325 6068.808 5813.099 7417.714 9077.029 11933.132 6992.548 4630.370 4982.344 7666.513 6576.071 6882.938 6140.286 13177.102 6844.740 5632.812 6001.793 6633.603 9724.686 7772.836 2838.814 6324.447 8861.115 9294.164 5625.570 10309.915 4954.976 6910.432 3445.879 7739.720 7129.886 6790.050 3007.839 7090.738 6752.067 7596.983 7396.509 6841.112 5713.443 7817.306 8753.473 11794.893 8527.311 4800.472 4852.711 6476.856 5873.649 3271.486 7049.191 6906.934 7717.064 7986.865 6185.366 4431.339 13372.319 7314.359 7638.599 8489.840 6874.848 5915.059 9173.809 6657.354 6565.560 5612.733 8210.939 10762.667 13004.319 3290.909 11923.998 12217.827 6228.861 7433.569 5877.564 8762.632 7296.409 12155.850 6887.726 9161.785 7569.004 7705.115 5467.453 12764.047 9887.568 6973.836 8368.577 6126.236 8541.221 12087.330 6409.499 7651.247 5426.162 6890.298 0.000 6938.101 7750.811 7145.848 6716.712 6611.008 6527.282 4416.091 8043.799 4492.508 2770.438 6958.120 9815.215 5951.428 6428.086 13011.564 11121.572 7057.963 13995.279 6281.082
589.695 6137.959 903.218 340.240 784.279 966.724 4385.742 1735.523 4091.332 1622.423 3162.059 6659.505 1951.824 2142.553 6315.325 3670.160 5164.797 1135.185 6778.509 849.308 4036.968 2876.540 3569.225 6747.403 329.564 4263.089 818.805 866.988 1054.708 552.082 710.151 3674.634 1524.961 2942.125 523.155 4090.345 941.323 3836.185 3982.462 571.891 2822.158 6627.015 7610.551 6512.102 3997.800 4670.701 7795.951 1934.027 3646.861 1200.441 700.195 941.407 904.103 2517.507 778.957 665.688 2647.624 7824.609 440.112 511.797 779.392 3316.423 6602.346 731.092 852.801 4135.211 469.286 467.764 9358.361 8485.737 401.621 879.446 2513.014 913.373 6576.572 5011.112 3896.613 895.748 502.312 4539.591 2297.093 702.461 847.901 1114.501 1032.785 2692.100 6613.319 296.515 3798.213 2413.521 8000.582 785.677 309.302 833.497 6758.672 145.409 3110.975 914.917 633.740 4038.385 8237.635 6515.429 585.376 2876.210 3597.667 1524.516 3924.986 3072.409 249.405 3577.939 1272.176 435.021 318.245 7011.802 2547.378 9277.377 991.410 7993.319 369.307 5480.786 1349.762 4345.029 6639.882 2108.881 2088.406 2424.665 575.532 1088.625 3688.453 354.326 419.087 1234.922 1559.354 738.498 10207.677 6987.390 708.786 7900.499 2104.910 403.044 1047.215 2788.880 657.491 565.696 1865.678 3990.282 5076.366 8395.299 8781.449 7314.978 7062.816 4538.497 951.427 1084.710 4354.188 814.267 7000.840 314.090 2743.355 1184.075 4777.541 1455.343 7843.453 3469.138 461.154 1950.147 6111.110 4132.777 5702.400 843.159 1232.817 1479.628 486.198 6702.990 0.000 1225.707 450.982 515.143 2681.142 603.245 6933.937 8305.699 4012.675 4516.470 470.273 4242.089 1048.516 581.065 6593.134 5435.270 1633.973 7610.350 924.657
1360.232 5570.411 643.494 910.218 1707.882 1891.678 4126.018 1475.799 5016.287 2481.941 3963.166 7519.022 2776.556 3002.070 6142.508 3410.436 6035.932 2060.140 7638.026 1717.659 4838.075 2616.816 4494.179 7606.920 1100.101 5134.225 1743.759 1163.864 1979.663 1477.036 1581.287 4588.701 957.413 3813.261 1448.109 4925.250 1754.743 4671.090 4907.416 1471.404 3681.675 7486.532 8132.397 7383.238 3430.252 4099.279 7536.227 2793.544 4571.815 2125.395 750.913 1238.283 1829.057 2257.784 980.290 1536.823 3518.760 8625.716 1094.720 1166.404 1704.347 3056.699 6030.924 1656.047 1149.677 4970.116 852.307 1392.719 10283.316 9410.692 1332.435 1804.401 2253.290 517.409 7501.526 5664.815 3636.889 1820.703 1272.849 5410.727 2007.575 1573.597 1772.855 2039.455 773.061 2225.460 6041.897 874.350 4657.730 3314.142 8801.689 1654.029 1240.116 1758.451 6191.124 970.070 3912.082 1839.871 1504.876 3778.661 9038.742 7374.946 1510.330 2616.486 4116.730 2384.033 3665.262 3931.926 1174.359 4502.894 704.628 735.845 1243.200 7871.319 3418.513 10202.331 805.979 8794.426 1285.599 6281.893 782.214 5179.934 6467.066 1541.333 2947.923 3284.182 1500.486 2013.580 4547.970 816.540 1124.619 963.058 991.806 1663.452 11132.632 6727.666 523.356 8701.605 1845.187 1327.998 1972.170 2529.156 1528.627 1436.832 2690.410 4845.860 4816.642 8135.575 9640.966 7055.254 6544.272 5339.604 1388.573 2009.665 5189.092 1236.714 6615.232 1244.903 2175.807 924.351 5253.963 2314.860 8365.300 2901.590 1115.761 1382.599 6912.217 4967.682 5442.677 1768.114 665.269 2339.145 1256.735 7562.507 934.442 0.000 719.883 1285.680 3606.096 1502.758 7793.454 9106.806 4937.629 5441.424 1073.433 3982.365 1973.471 1506.020 6025.586 5175.547 2505.109 7350.626 1849.612
902.755 5717.015 452.236 515.665 987.998 1227.182 3934.760 1284.541 4351.791 1830.866 3312.092 6867.948 2125.482 2350.995 6252.955 3219.177 5425.255 1395.643 6986.952 1028.937 4187.001 2425.558 3829.683 6955.846 663.978 4523.547 1079.263 609.319 1315.166 812.540 970.609 3935.092 1104.017 3202.583 783.613 4350.803 1103.669 4096.644 4242.920 751.520 3030.601 6835.458 7871.009 6772.560 3576.856 4300.871 7344.969 2142.469 3907.319 1460.899 249.213 683.738 1164.561 2066.525 591.131 926.146 2908.082 7974.641 374.836 446.521 1039.850 2865.441 6232.516 991.550 595.132 4395.669 457.753 728.223 9618.819 8746.196 736.035 1139.904 2062.032 493.346 6837.030 5271.570 3445.631 1156.207 836.726 4800.050 1846.111 962.919 1108.359 1374.959 581.803 2241.118 6243.489 154.467 4006.656 2663.068 8150.615 965.307 643.716 1093.955 6337.728 305.573 3261.008 1175.375 894.198 3587.403 8387.668 6723.872 845.834 2425.228 3932.080 1732.959 3474.004 3280.852 509.863 3838.397 851.232 15.961 578.703 7220.245 2807.836 9537.835 576.535 8143.352 565.715 5630.819 928.818 4605.487 6577.512 1687.937 2296.849 2633.108 835.990 1349.083 3896.896 96.657 730.066 1073.504 1138.410 998.956 10468.136 6536.408 293.911 8050.531 1653.928 663.502 1307.673 2337.898 917.949 826.155 2039.336 4250.740 4625.384 7944.317 8989.892 6863.996 6745.864 4688.530 1285.840 1345.168 4614.646 1148.681 6816.824 648.503 2322.411 733.093 4700.739 1663.785 8103.911 3048.194 395.878 1529.203 6261.143 4393.235 5251.418 1103.617 811.873 1688.071 820.611 6911.433 539.889 804.763 0.000 849.557 2941.600 782.874 7142.379 8455.732 4273.133 4776.928 678.880 3791.107 1308.974 841.523 6172.190 4984.288 1894.432 7159.368 1185.115
74.552 6234.409 1280.368 352.926 618.626 801.071 4762.892 2112.673 3858.947 1456.770 3085.099 6493.852 1874.865 1976.899 6006.326 4047.310 4750.253 969.532 6612.856 1167.260 3960.008 3253.690 3390.506 6581.750 342.249 3848.545 653.152 1244.138 889.055 386.429 295.607 3495.916 1621.412 2527.581 357.502 3675.801 1318.473 3421.641 3750.076 949.041 2656.505 6461.362 7196.007 6097.558 4094.251 4442.513 8173.101 1768.373 3468.142 1034.788 1029.207 1318.557 738.450 2894.658 550.092 251.143 2233.080 7747.649 817.263 888.947 613.739 3693.573 6374.158 565.439 1229.951 3720.667 481.972 289.046 9125.976 8253.352 441.811 713.793 2890.164 1009.823 6344.186 4596.568 4273.763 730.095 273.447 4125.047 2671.573 287.917 682.248 948.848 1409.935 2889.459 6385.131 673.666 3632.560 2234.802 7923.623 1103.629 247.773 667.844 6855.122 522.559 3034.016 749.264 219.196 4415.535 8160.675 6349.776 406.657 3253.361 3288.668 1358.863 4302.136 2906.756 626.555 3399.221 1368.626 812.171 695.396 6846.149 2132.834 9044.992 958.737 7916.360 746.458 5403.826 1446.212 3930.485 6330.883 2205.331 1922.753 2259.011 409.879 922.972 3522.800 731.476 190.222 1006.057 1655.804 559.779 10028.959 7364.540 805.236 7823.539 2482.061 780.194 881.562 3166.030 242.947 151.152 1741.470 3575.738 5453.516 8772.449 8615.796 7692.128 6753.817 4461.537 722.562 919.057 3939.643 585.402 6691.841 354.279 2839.805 1561.225 5095.320 1289.689 7428.909 3565.588 838.304 2046.597 6034.150 3718.233 6079.551 677.506 1329.268 1313.975 257.333 6537.337 377.150 1189.751 828.132 0.000 2399.270 980.395 6768.283 8228.739 3833.956 4337.751 241.408 4619.239 869.798 415.412 6689.584 5812.421 1219.429 7987.500 759.004
1404.694 7713.655 2613.973 1832.172 1795.566 1886.613 6096.497 3446.279 2904.191 2384.535 4012.863 6849.338 2802.629 2823.405 5700.072 5380.915 2703.546 1988.608 7536.730 2344.201 4887.773 4587.296 3488.105 7505.624 1821.495 2557.862 1830.093 2577.743 1974.598 1563.370 1219.223 3830.008 3100.657 1481.145 1534.443 2629.365 2534.092 2375.205 2795.320 2169.404 3580.379 6816.848 7051.546 4050.851 5573.496 5921.758 9506.707 2614.879 3802.234 2067.761 2410.951 2652.163 1823.992 4228.263 2029.338 1263.686 942.397 8675.413 2150.868 2222.553 1790.680 5027.178 6871.430 1742.380 2563.556 2674.230 1961.218 1465.987 7625.357 7298.596 1921.057 1799.336 4223.770 2489.069 5022.951 3550.132 5607.368 1815.638 1696.624 2803.546 4007.849 1414.495 1859.189 2125.789 2743.540 4368.704 6162.868 2007.271 4556.434 2568.894 8851.387 2280.570 1727.019 1844.785 8334.368 1856.164 3961.780 1926.204 1295.634 5749.141 9088.440 7273.650 1583.598 4586.966 3424.740 2176.795 5635.742 3830.631 1960.161 3733.313 2847.872 2145.777 2029.001 7770.023 842.151 7320.643 2437.983 8844.124 2080.063 6331.591 2925.458 2884.049 6024.629 3684.577 2769.259 3182.886 1586.820 1978.442 3897.994 2065.081 1669.467 2429.234 3135.050 1736.720 10126.557 8698.146 2284.482 8751.303 3815.666 2113.799 2019.852 4499.636 1274.464 1328.093 2669.234 2285.056 6787.121 10106.055 8813.638 9025.734 6447.563 5389.302 2108.401 1982.357 2893.207 1982.500 6385.587 1833.525 4319.051 2894.830 6023.084 2244.235 7284.448 5044.834 2171.909 3525.843 6961.915 2671.797 7413.156 1854.447 2808.513 2241.740 1602.468 6892.822 1856.396 2668.997 2161.738 1479.246 0.000 2248.903 7692.158 9156.504 2659.831 4435.350 1720.653 5952.845 1242.278 1592.353 8168.830 7146.026 605.070 9321.106 1844.547
726.970 6353.917 1007.212 498.869 318.318 718.951 4601.700 1951.482 4093.036 1374.651 2913.815 6411.733 1703.580 1894.780 6473.953 3886.118 5182.755 887.413 6530.736 601.064 3788.724 3092.499 3570.928 6499.630 488.192 4347.761 571.032 851.210 806.935 500.867 794.824 3481.411 1740.920 3026.798 514.050 4175.018 693.079 3920.858 3984.165 209.631 2574.385 6379.242 7695.223 6530.060 4213.759 4829.330 8011.910 1686.254 3648.564 952.668 916.154 925.629 656.330 2733.466 937.585 750.360 2732.296 7576.365 472.721 544.405 381.948 3532.381 6760.975 438.617 837.023 4219.884 627.915 552.437 9360.064 8487.441 560.250 631.673 2728.973 1129.332 6578.275 5095.785 4112.571 647.976 660.941 4624.264 2513.052 787.134 600.128 866.728 1248.743 2908.059 6771.948 512.474 3550.440 2206.852 7752.339 537.433 467.930 585.724 6974.631 429.732 2862.732 667.144 718.413 4254.344 7989.391 6267.656 670.048 3092.169 3756.295 1276.743 4140.945 2824.637 430.358 3579.642 1488.135 650.980 309.976 6764.029 2632.050 9279.080 1190.024 7745.075 361.038 5232.542 1565.720 4429.702 6798.511 2324.840 1840.634 2176.892 461.673 840.853 3440.680 570.284 577.715 1393.551 1775.313 740.201 10209.381 7203.349 924.745 7652.255 2320.869 394.774 799.443 3004.839 742.164 650.369 1617.435 4074.955 5292.324 8611.258 8533.677 7530.937 7221.445 4290.253 1110.055 836.937 4438.860 972.896 7159.468 472.718 2959.314 1400.033 4672.169 1207.570 7928.126 3685.096 493.762 2166.106 5862.866 4217.450 5918.359 517.107 1448.776 1231.856 644.826 6455.217 523.093 1441.666 666.941 673.771 2682.845 0.000 6686.164 8057.455 4014.378 4518.173 628.901 4458.048 1050.219 564.326 6809.093 5651.229 1718.646 7826.309 676.885
6705.842 12593.217 7140.248 6977.558 6387.446 6335.940 8779.135 7887.644 7479.666 5364.862 3994.662 4450.315 5204.897 5208.073 12484.415 9250.683 8547.071 6129.604 2302.652 6216.056 3628.986 7902.086 5846.423 1956.788 6966.882 10189.662 6340.521 6984.247 6204.569 6401.455 6773.697 4402.344 7980.219 8921.212 6488.161 9994.102 6345.820 9739.943 7370.795 6501.734 4119.918 4482.805 13674.096 9870.975 10369.875 11222.907 8916.344 5288.048 4644.226 6194.859 7306.489 7058.666 6425.819 7024.076 7330.486 6729.233 8665.703 3586.612 6989.622 7061.307 6598.812 9239.516 13154.552 6507.745 6970.060 10038.968 7106.604 6531.310 10737.373 8855.734 7038.939 6401.163 8665.135 7550.622 9865.875 10914.869 10048.734 6417.465 7048.136 9359.698 8646.847 6766.007 6105.636 5849.927 7454.542 9041.854 12947.212 7029.376 3399.851 5471.673 3690.415 6612.899 6946.620 6177.114 13213.930 6908.422 4045.746 6038.621 6697.285 8544.954 3796.739 1654.174 6648.921 7681.382 9766.757 5833.499 10077.107 4442.774 6947.260 4575.305 7776.548 7166.714 6826.878 2221.187 8565.457 11158.897 7633.811 3420.411 6877.940 2224.816 7854.134 10248.786 12808.972 8564.139 5168.290 4706.525 6540.538 6083.043 4316.731 7086.019 6970.616 7780.746 8023.693 6519.046 8838.169 13139.512 7351.187 3662.502 8257.032 6911.676 6041.634 8941.002 6721.036 6629.242 5423.509 9914.712 7937.990 9515.692 4846.069 8435.371 13231.907 2740.234 7497.251 6079.128 10257.945 7360.091 13169.930 6951.408 9198.613 7605.832 4216.488 5504.281 13906.999 9924.396 7010.664 8405.405 2637.610 10036.535 11403.623 6446.327 7688.075 5462.990 6953.980 4483.432 7001.783 7787.639 7182.675 6780.394 7841.588 6564.110 0.000 4067.702 6843.589 5652.392 7021.802 8635.483 6482.341 6464.914 13048.392 7859.498 7652.053 13762.472 6446.374
8061.655 13842.368 8389.400 8333.371 7743.259 7751.417 9538.083 8940.661 10304.104 6676.008 5047.679 8024.719 6257.914 7062.686 13840.228 10303.700 11260.329 7485.416 5877.057 7502.906 5120.583 8955.102 8785.082 5531.192 8322.694 11682.446 7696.334 8233.399 7560.381 7757.268 8129.509 7341.003 9229.371 10361.483 7843.973 11509.703 7535.801 11255.543 10195.233 7812.426 6685.308 8057.209 15029.908 12663.369 11422.891 12532.898 9364.152 7027.265 7582.885 7550.672 8555.641 8307.818 7781.632 8077.093 8686.299 8085.045 10066.981 522.058 8255.698 8327.383 7954.625 10292.533 14464.543 7863.557 8219.211 11554.568 8462.417 7887.122 14311.778 12430.138 8394.752 7756.975 9718.152 8799.774 12804.534 12430.470 11101.751 7773.277 8403.949 11553.280 9699.863 8121.819 7461.449 7205.740 8703.693 10094.870 14303.024 8360.563 6007.619 7326.285 505.284 7912.246 8302.433 7532.926 14463.082 8264.235 5098.762 7394.433 8053.098 9527.787 369.129 5228.578 8004.733 8734.399 11122.569 7353.484 11130.124 6257.029 8278.447 7513.963 9025.700 8415.866 8158.065 5795.592 9966.735 14733.301 8882.962 587.500 8209.127 3093.764 9103.285 11764.387 14164.785 9813.291 7022.903 6447.075 7896.350 7438.856 7255.390 8335.171 8326.428 9136.559 9272.844 7946.954 12412.573 14086.899 8600.339 405.201 9310.048 8242.863 7397.446 9994.018 8076.849 7985.054 6476.525 11409.640 8385.797 9963.499 8420.473 8883.179 14587.719 3811.374 8853.063 7434.941 11773.545 8715.904 14525.743 8307.220 10447.765 8854.983 5269.505 6860.094 15262.811 11173.547 8276.740 9654.557 3402.170 11552.135 11851.431 7802.139 8937.227 6818.803 8309.793 8057.837 8357.595 9036.790 8431.827 8136.207 9612.154 7850.961 4015.022 0.000 9782.248 8591.050 8377.614 9432.738 7980.676 7820.726 14297.544 8307.306 9053.331 14709.859 7802.186
3484.048 9637.247 4297.555 3755.764 3293.573 3158.106 7530.366 5276.742 1255.717 3425.442 4535.388 4507.797 3843.536 2711.042 8095.228 7211.379 3047.253 3029.514 6357.123 3614.879 4802.098 6417.759 1156.174 6565.454 3745.088 4708.878 3138.400 4141.554 3205.129 3250.209 3547.477 2617.554 5024.250 4253.261 3266.367 5326.152 3744.643 5071.992 1146.846 3613.991 3329.089 4475.307 9156.038 4371.157 7497.089 8001.113 11053.751 2985.576 2550.616 3108.667 4241.414 4215.973 3102.416 5775.307 4108.692 3507.439 4018.346 9197.938 3981.332 4053.016 3493.264 6857.642 9266.587 3413.871 4127.367 5371.017 3884.810 3283.946 7148.951 6276.327 3817.145 3077.759 6054.233 4412.662 4367.162 6237.055 7437.832 3094.061 3826.342 3633.509 5838.312 3544.212 3260.073 3248.750 4574.004 6233.319 8558.025 3837.735 4238.156 2422.850 9373.911 3725.156 3724.826 3289.371 10257.961 3686.628 4484.304 3193.058 3475.491 7296.185 9610.964 6333.480 3166.335 6417.430 6121.527 3217.701 7466.205 3820.750 3790.624 2481.694 4771.465 3976.240 3859.465 6829.853 3918.100 7067.967 4446.919 9366.648 3910.527 6854.115 4849.050 5580.835 8419.785 5608.170 2892.702 3324.940 3318.744 3019.349 2727.724 3895.545 3748.822 4558.952 5058.643 3027.254 7785.017 10528.609 4208.074 9273.828 5646.130 3944.263 3060.759 6330.099 3499.242 3407.448 3710.141 4835.832 8334.165 11653.099 7153.099 10572.778 8842.720 5911.826 4275.457 3023.264 5589.994 4138.297 8780.743 3729.614 6242.644 4725.294 7063.991 3285.141 9388.940 6968.426 4002.373 5449.436 7484.439 5368.584 9243.620 3352.453 4732.106 3282.647 3732.186 4551.282 3779.989 4724.996 3992.201 3558.600 3300.198 3693.489 6530.498 9679.028 0.000 2093.809 3800.008 7386.714 2793.316 3279.192 10092.423 8693.070 3853.552 11151.569 3122.970
4276.749 10244.923 4791.954 4548.465 4039.152 3700.941 7647.402 5808.986 2687.781 3016.568 3751.693 2767.820 3434.662 2528.789 9029.532 7743.623 3755.186 3572.349 4955.897 3867.762 3597.275 6770.352 1054.539 5103.148 4537.789 5643.182 3931.101 4635.953 3747.963 4042.910 4340.178 1216.328 5631.926 5060.488 4059.068 6133.378 3997.526 5879.219 2578.911 4153.440 2232.168 2735.330 10090.342 5079.090 8104.765 8793.814 11170.787 2712.629 1149.389 3651.502 4958.195 4710.372 3895.117 5892.343 4901.393 4300.140 4825.573 8275.889 4641.329 4713.013 4250.518 7389.886 10200.891 4159.451 4621.766 6178.244 4677.511 4076.647 7855.780 6062.604 4609.846 3870.460 6586.477 5202.328 5073.990 7054.145 7970.076 3886.762 4619.043 4567.813 6370.557 4336.913 3757.343 3501.633 5106.248 6765.563 9492.329 4630.436 3019.853 2616.933 8379.692 4264.605 4517.527 3828.820 10865.636 4479.329 3700.610 3690.327 4268.192 7413.221 8486.016 4871.174 3959.036 6549.649 6928.753 3314.105 7998.449 2878.957 4583.325 1080.468 5428.254 4768.941 4478.584 5367.547 4725.327 7774.796 5239.620 8109.688 4529.646 5966.210 5505.840 6388.062 9354.089 6215.845 2489.006 2541.245 4111.445 3562.183 1326.498 4688.246 4541.523 5351.653 5675.399 3819.955 6045.040 11060.854 5000.775 8351.778 6178.374 4563.382 3603.593 6862.344 4291.943 4200.149 3301.267 5770.136 8451.201 11770.134 5751.873 10689.814 9777.024 5023.921 5068.158 3566.099 6397.221 4930.998 9715.047 4522.315 6850.319 5257.538 6212.935 3155.987 10323.244 7576.102 4662.370 6057.111 6493.195 6175.810 9775.864 4098.033 5339.782 3114.696 4524.887 2811.305 4572.690 5439.345 4784.902 4351.301 4245.597 4215.816 5129.271 8756.979 2051.705 0.000 4592.709 7503.749 3586.017 4071.893 10700.098 8810.106 4692.552 11683.813 3915.671
315.959 6044.698 1090.657 163.215 860.033 1042.478 4573.181 1922.962 4100.355 1698.178 3326.507 6735.260 2116.272 2218.307 5976.447 3857.599 4991.660 1210.940 6854.264 1036.747 4201.416 3063.979 3631.914 6823.157 353.098 4089.952 894.559 1054.427 1130.463 627.836 537.015 3737.323 1431.701 2768.989 598.909 3917.209 1128.763 3663.049 3991.484 759.330 2897.912 6702.770 7339.599 6338.965 3904.540 4201.105 7983.390 2009.781 3709.550 1276.195 839.496 1128.846 979.857 2704.947 308.685 492.551 2474.487 7989.057 627.552 699.236 855.147 3503.862 6132.750 806.847 1040.240 3962.074 292.261 530.453 9367.383 8494.760 534.935 955.201 2700.453 820.112 6585.594 4837.976 4084.052 971.503 228.577 4366.455 2481.862 529.325 923.655 1190.256 1220.224 2699.748 6143.723 483.955 3873.967 2476.210 8165.030 973.117 340.897 909.251 6665.412 332.848 3275.423 990.671 460.604 4225.824 8402.083 6591.183 648.064 3063.650 3323.931 1600.271 4112.425 3148.164 436.844 3640.628 1178.915 622.460 505.685 7087.557 2374.241 9286.399 717.329 8157.767 556.747 5645.234 1256.501 4171.892 6301.005 2015.620 2164.161 2500.419 651.286 1164.380 3764.208 541.765 51.186 796.997 1466.093 801.187 10270.366 7174.830 615.525 8064.946 2292.350 590.483 1122.970 2976.320 484.354 392.560 1982.878 3817.146 5263.805 8582.738 8857.204 7502.417 6646.098 4702.945 677.692 1160.465 4181.051 540.532 6661.963 447.404 2650.094 1371.514 4964.980 1531.097 7572.501 3375.877 648.593 1856.886 6275.558 3959.641 5889.840 918.914 1139.557 1555.383 212.462 6778.744 187.439 948.344 638.421 241.408 2640.678 790.684 7009.691 8470.147 4075.364 4579.159 0.000 4429.528 1111.205 656.820 6499.873 5622.710 1460.837 7797.789 1000.412
4812.843 7900.279 3721.312 4413.864 4667.208 4872.577 498.059 3000.819 8144.652 4464.226 4631.200 9271.924 4244.637 5230.269 9415.065 2467.051 9117.076 4606.576 9225.623 4402.010 5506.110 2039.089 7248.434 9194.517 4574.065 8433.634 4817.493 4190.984 4681.541 4722.628 4880.697 6341.602 3933.724 7112.671 4693.701 8260.891 4018.219 8006.731 8035.781 4430.730 5434.576 9239.434 11691.184 10520.116 4753.539 7101.607 3760.174 5021.743 6509.711 4671.831 3982.304 4265.403 4902.792 1730.532 4489.330 4836.233 6818.169 9293.750 4213.284 4284.968 4848.341 3182.870 9033.252 4787.507 4176.797 8305.756 4355.953 4638.310 13411.681 12539.057 4646.123 4878.135 3048.799 4021.208 10629.891 9181.658 4077.091 4894.437 4746.814 8710.137 3737.667 4873.007 4582.609 4326.900 3473.059 4132.674 9044.225 4064.554 5768.377 5542.342 9469.724 4530.550 4553.803 4654.086 8583.324 4215.661 4580.117 4515.593 4804.286 311.911 9706.777 8962.543 4755.921 1876.421 7675.517 4614.997 4043.126 5077.841 4419.951 6440.789 3730.053 3926.049 4488.791 9458.916 6717.923 13330.697 4309.625 9462.461 4404.163 6949.928 3807.639 8515.575 9702.722 4131.020 5176.123 5037.083 4746.078 4560.016 6300.872 4006.744 4628.265 4521.844 3977.198 4909.044 13177.015 6966.838 4027.002 9369.640 3275.519 4573.589 4518.606 3324.665 4828.037 4736.242 4375.073 8160.828 1040.588 4359.522 11228.563 3279.201 9546.600 6007.639 4947.360 4556.101 8524.733 4795.501 9617.560 4558.591 4765.495 3194.147 6019.848 4543.059 11924.087 5426.872 4234.325 4226.793 7580.252 8303.323 4452.830 4865.996 3641.581 4567.345 4730.699 9315.408 4438.088 3990.885 3910.088 4759.644 6734.461 4469.265 8703.142 9774.841 7790.208 7833.282 4577.079 0.000 5101.836 4751.611 8355.454 1399.493 5804.519 7589.798 4923.346
963.348 7116.547 1824.747 1235.064 772.872 644.336 5247.182 2756.041 3071.418 1142.257 2770.586 5727.183 1560.351 1581.127 6135.558 4690.678 4132.535 746.330 6294.453 1315.978 3645.495 3897.058 2549.310 6263.347 1224.387 3798.828 617.700 1668.746 732.320 729.508 817.338 2654.720 2503.549 2477.864 745.666 3626.084 1461.459 3371.925 2962.548 1141.182 2338.102 5694.693 7325.239 5479.841 4976.388 5480.412 8770.567 1372.601 2626.947 825.483 1720.714 1743.165 581.715 3492.123 1587.992 861.802 2183.363 7433.136 1460.631 1532.315 972.563 4336.941 7306.917 893.170 1654.558 3670.950 1364.110 763.245 8338.447 7465.823 1296.445 557.058 3533.533 1891.961 5556.657 4546.851 4917.131 573.361 1294.740 4075.331 3317.612 1012.610 830.966 965.566 2053.303 3712.618 6598.354 1317.034 3314.156 1393.607 7609.110 1252.348 1204.125 816.562 7737.260 1165.927 2719.503 861.733 893.750 5013.001 7846.162 6031.373 645.634 3896.729 3417.900 934.517 4945.504 2588.353 1269.923 2558.025 2250.764 1455.539 1338.764 6527.746 2083.117 8257.463 1926.218 7601.846 1389.826 5089.313 2328.349 3880.768 6460.115 3087.469 1526.981 1940.608 798.043 736.165 2722.707 1374.844 1228.121 2027.350 2537.942 506.553 9187.763 8007.909 1687.374 7509.026 3125.429 1423.562 777.575 3809.399 872.579 886.747 1426.957 3526.021 6050.981 9369.915 7913.440 8289.594 6883.049 4147.024 1743.854 740.080 3889.927 1606.695 6821.073 1208.913 3721.943 2204.593 4780.807 1001.957 7558.141 4447.726 1481.672 2928.735 5719.637 3668.516 6722.919 831.752 2211.405 999.462 1200.584 5770.667 1259.288 2204.295 1471.501 1037.899 1632.625 1220.681 6449.880 7914.226 2992.761 3496.556 1279.307 5103.529 0.000 758.491 7571.722 6409.886 1169.713 8630.869 602.269
333.370 6486.569 1293.759 605.086 295.655 478.100 4776.283 2126.064 3760.337 1133.800 2762.128 6170.882 1551.894 1653.929 6111.943 4060.701 4850.056 646.562 6289.885 844.289 3637.038 3267.081 3238.229 6258.779 594.410 3954.162 330.181 1197.057 566.085 63.458 401.224 3240.560 1873.572 2633.199 115.689 3781.418 1034.180 3527.259 3651.466 669.493 2333.534 6138.392 7301.624 6197.361 4346.411 4850.435 8186.492 1445.403 3315.865 711.817 1090.737 1271.476 415.479 2908.049 958.014 356.761 2338.697 7424.678 830.654 902.338 306.513 3706.964 6782.080 258.213 1182.869 3826.284 734.132 158.838 9027.365 8154.742 666.467 390.823 2903.555 1261.984 6245.576 4702.185 4287.154 407.125 675.664 4230.665 2687.634 393.534 359.277 625.877 1423.326 3082.641 6574.739 687.057 3309.589 1966.002 7600.652 780.659 574.148 344.873 7107.283 535.950 2711.045 426.293 324.813 4428.926 7837.705 6026.805 276.449 3266.752 3394.285 1035.893 4315.527 2583.786 639.946 3246.943 1620.787 825.562 708.787 6523.178 2238.451 8946.381 1296.241 7593.389 759.849 5080.856 1698.372 4036.102 6436.500 2457.492 1599.783 1936.041 168.066 600.002 3199.829 744.867 598.144 1408.274 1907.965 407.502 9876.681 7377.931 1057.396 7500.568 2495.452 793.585 558.592 3179.422 348.564 256.770 1418.499 3681.355 5466.907 8785.840 8292.826 7705.519 6859.435 4138.567 1124.779 596.087 4045.261 987.619 6797.458 578.936 3091.966 1574.616 4772.349 966.719 7534.526 3817.748 851.695 2298.758 5711.180 3823.850 6092.942 354.536 1581.428 991.005 581.508 6214.366 629.311 1574.318 841.523 407.922 2350.146 748.992 6445.313 7905.769 3681.679 4185.474 649.330 4632.630 717.520 0.000 6941.745 5825.812 1325.047 8000.891 436.034
6426.672 1098.593 5596.113 5976.659 6692.607 6958.119 8211.781 5459.386 10050.900 7383.861 8865.086 12420.943 7678.477 7903.990 6602.800 6299.635 9760.012 7126.580 12539.947 6619.580 9739.996 6066.301 9560.620 12508.841 6166.542 8132.504 6810.200 6065.785 7046.103 6543.477 6647.728 9490.621 4710.650 7081.119 6514.550 7606.947 6656.664 7352.787 9942.029 6456.129 8583.595 12388.453 10424.787 11107.317 3576.120 5395.381 10563.952 7695.464 9638.256 7191.836 5817.354 6140.204 6895.498 6564.244 6052.125 6603.264 7295.781 13527.636 6088.085 6159.770 6770.787 5919.856 6061.434 6722.487 6051.598 7434.779 5918.747 6459.159 14681.823 14394.675 6398.876 6870.841 5122.463 5583.850 12079.417 7957.205 4661.889 6887.143 6339.290 9134.787 4770.146 6640.038 6839.296 6997.857 5349.063 4685.844 6231.960 5939.356 9559.650 8216.063 13703.610 6555.949 6306.556 6824.892 3869.299 6036.510 8814.003 6906.312 6571.316 7822.742 13940.663 12276.867 6576.771 6228.266 6517.448 7285.954 4615.679 8833.847 6240.800 9569.334 5172.500 5800.850 6309.640 12773.240 7486.241 14377.109 5872.420 13696.347 6278.964 11183.814 5250.086 7527.060 6877.474 4217.880 7849.844 8186.102 6566.927 7080.020 9449.891 5881.546 6191.060 6073.975 4837.385 6729.893 16199.072 5209.173 5589.796 13603.526 5162.331 6394.439 7038.610 5291.898 6595.067 6503.273 7592.331 7527.557 8433.244 11163.300 14542.887 10082.979 6574.782 10241.524 6499.491 7076.105 7568.673 6347.631 6645.742 6311.344 4248.532 5500.353 10121.218 7216.780 10657.690 3545.205 6109.126 4310.270 11814.138 7649.379 6166.438 6834.554 5002.794 7241.066 6323.175 12464.427 6000.883 5433.332 5784.889 6352.120 8245.191 6494.664 12695.374 14008.727 9680.257 10507.865 6139.874 8030.956 7039.911 6572.460 0.000 8792.149 7571.550 4737.035 6916.052
6324.030 8605.862 5232.499 5925.051 6178.395 6383.764 1501.154 4512.006 9655.839 5975.413 6142.387 10783.111 5755.824 6741.456 10926.252 3882.328 10628.263 6117.763 9121.838 5913.196 7017.297 3550.275 8759.621 8775.973 6085.252 9944.821 6328.680 5702.171 6192.728 6233.814 6391.884 7852.789 5444.911 8623.858 6204.887 9772.078 5529.406 9517.918 9546.968 5941.917 6945.763 10750.621 13202.371 12031.303 6264.725 8612.794 2596.709 6532.930 8020.898 6183.018 5493.491 5776.590 6413.978 3241.719 6000.517 6347.420 8329.356 8268.316 5724.470 5796.155 6359.528 4598.147 10544.439 6298.693 5687.983 9816.943 5867.139 6149.497 14922.868 14050.244 6157.310 6389.322 4559.986 5532.394 12141.078 10692.845 5320.164 6405.624 6258.000 10221.324 5248.854 6384.194 6093.796 5838.086 4984.245 5643.861 10555.412 5575.741 7279.563 7053.528 8444.290 6041.737 6064.990 6165.273 9899.041 5726.848 6091.304 6026.780 6315.472 1823.097 8681.342 8473.359 6267.108 3387.607 9186.704 6126.183 5286.199 6589.027 5931.137 7951.976 5241.240 5437.236 5999.978 9040.372 8229.110 14841.883 5820.812 8437.026 5915.349 6962.184 5318.825 10026.761 11213.909 5642.207 6687.310 6548.270 6257.264 6071.203 7812.059 5517.931 6139.452 6033.031 5488.385 6420.231 14688.201 7150.147 5538.188 8344.206 4786.706 6084.776 6029.793 4835.852 6339.223 6247.429 5886.260 9672.015 752.640 3196.057 11665.254 2115.736 11057.786 6371.257 6458.547 6067.287 10035.920 6306.688 11128.747 6069.778 6276.681 4705.333 6119.516 6054.246 13435.273 6938.059 5745.512 5737.979 7270.590 9814.510 4218.274 6377.183 5152.767 6078.532 6241.886 10826.595 5949.275 5502.072 5421.274 6270.831 8245.648 5980.451 7876.627 8688.073 9301.395 9344.469 6088.266 1511.187 6613.023 6262.798 9061.037 0.000 7315.706 7773.107 6434.533
1135.060 7444.021 2344.340 1562.538 1410.079 1281.543 5826.864 3176.645 3274.485 1779.465 3407.793 6364.390 2197.559 2218.335 6267.809 5111.282 4300.870 1383.537 6931.660 1953.186 4282.703 4317.662 3186.518 6900.554 1551.862 3399.162 1254.907 2305.953 1369.528 1293.736 949.589 3291.927 2831.024 2078.199 1264.809 3226.419 2098.666 2972.259 3165.614 1778.390 2975.309 6331.900 7457.490 5648.175 5303.863 5652.125 9237.073 2009.809 3264.154 1462.691 2141.317 2380.372 1218.922 3958.630 1759.704 994.053 1783.697 8070.343 1881.235 1952.919 1521.046 4757.545 7439.167 1472.746 2291.766 3271.284 1691.584 1196.353 8541.513 7668.890 1651.423 1194.266 3954.136 2219.435 5759.724 4147.185 5337.735 1210.568 1426.991 3675.665 3738.215 1144.861 1468.174 1602.773 2473.907 4099.071 6730.605 1737.638 3951.364 2030.814 8246.317 1889.555 1457.385 1453.770 8064.735 1586.531 3356.710 1498.940 1026.000 5479.507 8483.370 6668.580 1282.841 4317.333 3550.150 1571.725 5366.108 3225.561 1690.527 3195.232 2578.238 1876.143 1759.368 7164.953 1683.451 8460.529 2168.349 8239.054 1810.430 5726.521 2655.824 3481.102 6592.366 3414.943 2164.189 2577.816 1317.186 1373.372 3359.914 1795.448 1399.834 2159.601 2865.416 1143.761 9824.971 8428.512 2014.848 8146.233 3546.033 1844.166 1414.782 4230.002 1004.830 1058.460 2064.164 3126.356 6517.488 9836.421 8550.648 8756.100 7015.300 4784.232 1876.105 1377.287 3490.261 1738.946 6953.324 1563.891 4049.418 2625.197 5418.014 1639.165 7690.392 4775.200 1902.276 3256.209 6356.845 3268.851 7143.523 1468.960 2538.880 1636.670 1332.835 6407.875 1586.762 2399.363 1892.104 1209.612 1814.808 1857.888 7087.088 8551.434 3607.729 4133.763 1451.020 5683.211 637.207 1322.719 7899.196 6876.393 0.000 9051.472 1239.477
8132.241 3881.488 7040.710 7731.583 8137.204 8456.667 7920.950 5961.067 11581.276 8828.458 9804.457 13865.539 9123.073 9348.587 9006.765 5357.399 12654.740 8625.129 13984.543 8064.176 10679.367 6225.305 11059.168 13953.437 7893.463 11168.335 8308.748 7510.382 8544.652 8042.025 8200.095 10935.218 6752.920 10116.951 8013.098 10642.778 8101.260 10388.618 11472.405 7900.726 10028.192 13833.049 13107.841 14002.045 5170.446 8223.908 7164.164 9140.061 11103.327 8690.384 7301.702 7584.801 8394.046 6998.317 7807.049 8155.631 10137.567 14467.007 7532.681 7604.366 8269.336 5211.665 8102.018 8221.036 7496.194 10470.611 7673.671 7957.708 16848.305 15975.681 7965.521 8369.390 5076.091 7338.774 14066.515 10993.036 3795.190 8385.692 8066.211 12029.535 5948.456 8192.405 8337.844 8442.453 6792.456 6061.377 8728.750 7383.952 10941.633 9660.659 14642.981 8000.546 7873.201 8323.440 4534.489 7535.059 9753.374 8404.860 8123.683 7254.286 14880.034 13721.463 8075.319 6387.269 9553.279 8730.550 3712.108 10251.097 7739.348 11034.405 6927.424 7245.447 7808.189 14217.836 10037.321 16767.321 7627.344 14635.718 7723.560 12123.184 7005.010 10562.892 9165.554 6522.720 9294.440 9630.699 8065.475 8578.569 10894.487 7326.142 7945.984 7828.899 6879.655 8228.442 17697.621 840.131 7344.720 14542.897 5609.674 7892.987 8537.159 4941.290 8147.434 8055.640 9036.927 10563.388 7339.270 8020.706 15987.483 8787.489 8862.862 11180.895 8254.414 8574.654 10604.504 8102.555 8933.822 7877.989 6823.500 6531.856 11193.104 8661.377 13340.743 6581.036 7553.723 6615.110 12753.509 10685.210 4226.417 8333.103 6818.524 8685.663 8050.097 13909.024 7755.807 7188.256 7229.485 8079.042 10171.085 7939.260 13876.399 14948.098 11502.619 12006.413 7894.798 7566.196 8538.460 8071.009 4620.046 7698.175 9123.917 0.000 8414.601
743.022 6675.446 1222.478 1014.738 424.625 525.619 4866.407 2239.509 3981.155 890.947 2519.276 5928.029 1309.041 1411.076 6521.594 4174.146 5070.874 311.084 6047.033 713.709 3394.185 3380.526 3429.241 6015.927 1004.061 4363.813 377.700 1066.476 130.051 438.635 810.876 2997.707 2062.449 3042.850 525.340 4191.070 903.600 3936.910 3872.284 538.913 2090.682 5895.539 7711.275 6418.180 4535.288 5260.086 8299.938 1202.550 3165.816 376.340 1388.719 1140.895 462.999 3021.494 1367.666 766.412 2748.348 7181.826 1026.802 1098.486 635.992 3820.409 7191.731 544.924 1052.289 4235.935 1143.784 568.489 9248.184 8375.560 1076.119 438.342 3017.001 1632.851 6466.394 5111.837 4400.599 454.644 1085.315 4640.316 2801.080 803.186 228.697 395.546 1536.771 3196.087 6984.391 1066.555 3066.737 1723.149 7357.800 650.078 983.799 214.293 7296.160 945.601 2468.193 259.463 734.465 4542.372 7594.852 5783.953 686.100 3380.197 3803.936 793.040 4428.973 2340.933 984.440 3096.895 1858.777 1205.061 864.057 6280.326 2648.102 9167.200 1705.892 7350.536 915.119 4838.003 1936.363 4445.753 6846.152 2646.368 1356.930 1693.188 577.717 264.524 2956.977 1124.365 1007.795 1817.926 2105.922 628.321 9833.120 7491.377 1433.416 7257.716 2608.897 948.855 223.114 3292.867 758.215 666.421 1175.647 4091.007 5580.352 8899.286 8049.973 7818.965 7269.086 3895.714 1534.430 260.609 4454.912 1397.270 7207.109 988.587 3280.843 1688.061 4529.496 723.866 7944.178 4006.625 1047.843 2487.634 5468.327 4233.502 6206.387 483.506 1770.305 748.152 991.159 5971.514 1038.962 1869.868 1221.022 817.574 2570.964 618.411 6202.460 7662.916 3902.498 4376.486 1058.981 4722.755 938.339 502.093 7130.621 5939.257 1734.698 8114.337 0.000
NODE_COORD_SECTION
1 921.392520 -51.003361
2 5783.496731 -2399.629980
3 1139.209936 -979.092677
4 1074.049257 -279.697011
5 636.854370 -276.317161
6 379.892163 -25.243469
7 -307.207274 -3785.147398
8 1476.410321 -1808.039514
9 -499.641734 1965.465147
10 -286.237601 -339.170852
11 -1555.866317 -1280.200577
12 -4317.438079 2412.364865
13 -511.940389 -677.331708
14 -585.399466 125.201644
15 5027.559475 1943.510921
16 1594.988552 -3483.683873
17 308.567228 3852.949663
18 313.705950 -168.468111
19 -5165.272478 269.129035
20 415.140809 -327.752182
21 -2094.710532 -981.081534
22 983.998369 -2617.156529
23 -1365.141114 1671.940708
24 -5242.226602 -95.378101
25 1067.162213 -141.515847
26 2462.377929 2614.312385
27 488.975393 -119.488155
28 995.335283 -771.318701
29 369.164866 -190.607245
30 689.500573 -115.663252
31 911.691582 111.800208
32 -1670.310978 839.446766
33 1916.008655 -1073.197570
34 1788.682209 1497.211750
35 751.226366 -110.339200
36 2776.673144 2121.162000
37 393.945936 -717.989812
38 2561.920846 1908.139522
39 -477.208937 2071.427536
40 674.867677 -462.205592
41 -1483.569693 -37.568643
42 -4302.091490 2440.845841
43 4999.353999 4718.450606
44 45.751976 4909.318995
45 3347.712479 -2217.241949
46 4571.370351 347.822439
47 -198.643553 -7289.162997
48 -438.536307 -54.977559
49 -1498.022849 967.737655
50 179.464799 -252.473497
51 1131.469870 -639.882966
52 965.522475 -774.471329
53 420.436194 -72.962158
54 474.377695 -2210.662882
55 1415.510418 -356.134725
56 890.834003 73.105684
57 1590.852230 1779.878378
58 -5631.570081 -3150.251524
59 868.443646 -604.286784
60 822.681593 -574.655473
61 774.499055 -334.152701
62 1927.050985 -3150.907352
63 5709.597371 1318.864713
64 689.409401 -202.854480
65 1009.254518 -774.063139
66 2877.230260 1898.096656
67 1097.952106 -376.681390
68 766.744670 -39.038218
69 -1466.915865 7502.854491
70 -2763.851890 6252.623334
71 937.453205 -96.631475
72 439.610378 -85.316462
73 1965.797732 -2371.136061
74 1260.944347 -776.235645
75 -905.195366 5310.542610
76 3447.743451 2427.300457
77 2924.376187 -3309.114252
78 426.787447 -92.323906
79 1204.461238 -46.644890
80 1406.781923 3308.628202
81 2046.643975 -1704.318257
82 918.095559 3.690796
83 441.105519 -275.880303
84 184.839347 -297.336751
85 1328.578097 -1145.336220
86 2110.752402 -1708.030876
87 5053.733516 1612.451753
88 1042.871990 -532.635272
89 -2123.942279 -281.428050
90 -373.634661 335.776852
91 -5709.036325 -3151.428685
92 450.628114 -380.564572
93 933.748579 -132.665210
94 494.464234 -274.229824
95 6592.285928 -1350.718407
96 1000.319084 -390.901880
97 -1510.213474 -1257.281115
98 376.979674 -290.865482
99 897.982365 47.505534
100 138.642926 -3627.788302
101 -5894.255700 -3168.394229
102 -4987.973419 -168.703146
103 678.860170 34.851519
104 835.153504 -2533.293190
105 3412.298861 1333.647799
106 -111.707221 -235.248349
107 2973.932275 -3318.007048
108 -1451.914965 -477.492282
109 994.777659 -468.696544
110 -1558.456490 934.601653
111 1674.801480 -987.997788
112 1121.533692 -646.635635
113 792.198705 -474.223271
114 -5403.771397 -29.105957
115 1489.110406 1690.178441
116 -904.225547 7446.692446
117 1415.879805 -659.313013
118 -5708.591198 -3038.314585
119 750.018509 -503.000026
120 -3595.468538 -2190.928882
121 1746.648953 -958.715342
122 3071.305495 2082.226545
123 5279.643675 2178.207155
124 2466.403311 -1143.354760
125 -595.062147 24.888256
126 -1049.400791 -206.111929
127 778.148255 -155.198912
128 273.880149 -192.581271
129 -1738.558205 791.723908
130 1075.704432 -580.217108
131 1147.849617 -134.671160
132 1777.637886 -304.160108
133 1835.628998 -991.394257
134 536.800943 89.942077
135 -6719.411244 5015.607636
136 5197.842950 -4938.486656
137 1324.415756 -603.139683
138 -5712.406309 -3207.899062
139 1691.277761 -1932.814452
140 947.437272 -415.800735
141 291.524745 -229.558782
142 2063.381537 -2567.558014
143 946.078309 68.977741
144 877.561375 11.802774
145 -454.976138 -503.332508
146 2063.921441 1838.411100
147 -196.076368 -4678.934383
148 -690.337101 -7224.253502
149 -6380.497622 1722.382205
150 -490.818117 -6586.985312
151 5696.074081 2204.311773
152 -2762.205210 -1864.353533
153 1482.133582 -10.599800
154 275.928904 -195.917567
155 2883.375529 2061.873112
156 1453.625553 -134.921614
157 5507.143346 2229.354338
158 871.888274 -117.650414
159 2980.002051 -832.605381
160 1309.516220 -1292.231041
161 -2072.303400 -2631.023852
162 -141.948532 -262.995365
163 5337.531208 4866.771387
164 3624.410913 -1019.069125
165 851.282762 -616.445061
166 2327.518702 -1088.108778
167 -4037.025353 -2045.068147
168 2485.072125 2282.916729
169 2706.413145 -4894.004777
170 553.192057 -306.164699
171 1624.724003 -1061.824915
172 -173.085688 -252.851826
173 1100.159439 -38.892856
174 -4357.750954 2428.667135
175 1054.097882 -293.435696
176 1617.301728 -789.644016
177 1130.795859 -659.634569
178 988.176315 -43.340332
179 887.631168 1312.234138
180 715.512065 -452.269131
181 -4654.295334 -868.926408
182 -6083.618774 -3370.284755
183 -686.691087 1780.514738
184 -2142.124218 1710.044777
185 1188.463139 -165.824528
186 -115.520638 -3747.186739
187 429.478462 364.162569
188 730.300596 -144.406640
189 5127.981582 -2348.641527
190 -301.388282 -4901.132113
191 902.742450 717.778241
192 5638.890152 -5520.940594
193 404.524480 -110.764747
DEMAND_SECTION
1 0
2 1
3 1
4 1
5 1
6 1
7 1
8 1
9 1
10 1
11 1
12 1
13 1
14 1
15 1
16 1
17 1
18 1
19 1
20 1
21 1
22 1
23 1
24 1
25 1
26 1
27 1
28 1
29 1
30 1
31 1
32 1
33 1
34 1
35 1
36 1
37 1
38 1
39 1
40 1
41 1
42 1
43 1
44 1
45 1
46 1
47 1
48 1
49 1
50 1
51 1
52 1
53 1
54 1
55 1
56 1
57 1
58 1
59 1
60 1
61 1
62 1
63 1
64 1
65 1
66 1
67 1
68 1
69 1
70 1
71 1
72 1
73 1
74 1
75 1
76 1
77 1
78 1
79 1
80 1
81 1
82 1
83 1
84 1
85 1
86 1
87 1
88 1
89 1
90 1
91 1
92 1
93 1
94 1
95 1
96 1
97 1
98 1
99 1
100 1
101 1
102 1
103 1
104 1
105 1
106 1
107 1
108 1
109 1
110 1
111 1
112 1
113 1
114 1
115 1
116 1
117 1
118 1
119 1
120 1
121 1
122 1
123 1
124 1
125 1
126 1
127 1
128 1
129 1
130 1
131 1
132 1
133 1
134 1
135 1
136 1
137 1
138 1
139 1
140 1
141 1
142 1
143 1
144 1
145 1
146 1
147 1
148 1
149 1
150 1
151 1
152 1
153 1
154 1
155 1
156 1
157 1
158 1
159 1
160 1
161 1
162 1
163 1
164 1
165 1
166 1
167 1
168 1
169 1
170 1
171 1
172 1
173 1
174 1
175 1
176 1
177 1
178 1
179 1
180 1
181 1
182 1
183 1
184 1
185 1
186 1
187 1
188 1
189 1
190 1
191 1
192 1
193 1
DEPOT_SECTION
1
-1
EOF
