NAME : mamut-besancon-n183-k10-poi
COMMENT : Mamut2026 euclidean metric; city besancon; No of trucks: 10 (lower bound, fleet not fixed); 3-decimal seconds/meters; ENU ref in mamut-besancon-n183-k10-poi.vrp.json
TYPE : CVRP
DIMENSION : 184
EDGE_WEIGHT_TYPE : EXPLICIT
EDGE_WEIGHT_FORMAT : FULL_MATRIX
CAPACITY : 1001
EDGE_WEIGHT_SECTION
0.000 2060.428 1599.999 9344.197 1733.073 11218.877 1701.526 2222.072 1433.044 2921.731 1691.152 2109.211 1544.876 3091.244 1791.260 11415.707 1928.093 1803.989 12118.347 1551.645 842.491 2301.390 2106.309 5807.624 2179.683 1801.285 4180.353 2238.222 1692.903 6297.942 1836.652 4334.438 1724.930 2222.862 2573.260 10511.401 1888.420 1926.885 12889.253 7840.925 2711.932 1285.920 8672.865 6148.903 1304.551 5527.627 2566.326 10565.982 6689.454 1342.339 4523.759 4875.795 874.836 12951.127 2219.757 2079.192 1925.447 1975.735 2113.617 5428.594 1024.032 8833.680 8372.286 4337.058 5794.033 1401.987 8358.273 535.268 1807.715 1565.782 2645.465 2706.069 6121.434 4002.843 1512.906 4241.228 2223.195 1817.409 3866.882 1959.044 1428.094 1454.765 8746.808 1595.994 1806.725 1451.490 4975.230 1460.529 1415.403 2301.202 2203.137 6579.922 11375.238 6266.867 6885.886 1603.065 3089.658 1777.617 3947.747 506.380 1964.638 8497.021 4259.965 3019.501 2439.637 1607.788 329.274 7374.586 2521.777 1478.666 4029.400 13264.142 12736.254 2570.344 1466.388 1610.288 2246.396 2867.477 2184.868 1473.025 3597.461 1912.733 2454.846 8677.805 1998.424 1271.567 4362.785 2054.731 1006.948 1456.678 1135.729 4186.178 2085.631 7382.343 2449.146 2257.164 2219.669 3939.307 4854.310 2202.071 3262.723 2576.446 2862.775 2928.652 2458.007 5869.367 2372.721 5192.394 1685.814 6140.906 2241.886 4366.627 8599.362 2309.589 4459.202 643.957 4328.642 8477.232 2222.402 2916.631 3017.587 10474.317 2254.687 4643.780 3220.349 2501.894 2442.697 2039.487 2187.464 12115.083 6258.037 8934.409 1960.658 1522.432 1789.273 4990.182 1739.322 8982.717 3501.600 1999.690 1277.899 7478.598 6576.843 5340.614
2060.428 0.000 1167.732 11394.527 1446.087 13203.729 2147.261 1565.596 1194.161 3149.819 1095.367 2300.941 1262.764 3949.196 571.968 10275.171 1620.166 1220.750 14126.625 521.014 1362.834 2269.712 2694.146 4452.884 3147.355 1442.363 3081.241 1338.376 1241.079 8318.982 1408.017 5146.753 1398.357 1459.809 2645.589 9458.456 1241.024 1087.158 14134.576 8415.011 1778.494 2205.987 9218.183 8172.183 3361.951 4859.468 1640.547 11175.290 6567.447 2509.869 3587.143 3898.726 2766.036 14091.624 1534.971 1409.898 1474.548 1286.833 2748.258 5811.559 1669.106 9318.947 10375.532 3514.977 4937.950 1178.105 10357.950 1835.733 1273.114 1048.628 1238.818 2012.443 4700.192 4957.926 1185.021 3096.387 1536.333 1220.070 4890.433 1332.421 645.358 1479.606 9303.555 1358.317 305.114 1461.452 4314.843 1573.372 1196.751 1153.915 2028.993 7645.490 13422.430 6460.426 5444.641 1204.926 3977.890 1346.517 5997.004 2332.190 1375.597 8471.072 3114.441 5074.831 1590.670 3552.783 1998.585 5467.675 750.498 1396.449 5022.923 14767.785 13873.532 1233.983 774.971 1046.401 1087.414 4339.670 1990.656 2479.467 2610.372 2518.772 1300.752 7543.848 476.464 2981.670 2408.456 441.097 2668.053 1331.077 2073.964 3052.362 1620.282 5933.967 3849.818 1103.704 160.280 3223.274 4082.902 3709.519 4094.761 2030.575 3651.041 1853.548 541.024 4516.144 4426.331 5652.950 1204.383 7056.903 1252.547 3285.974 10605.159 1390.655 3385.156 1505.656 3457.066 7319.564 2835.579 1693.157 1911.479 11079.969 2879.706 3869.734 4130.048 1508.024 1471.131 2450.706 1176.110 14122.058 4863.879 8677.316 1818.811 2117.217 1051.260 4003.898 2197.633 8207.763 4695.361 1280.664 1260.786 9422.410 8423.846 4244.946
1599.999 1167.732 0.000 10609.515 303.264 12754.224 983.108 679.315 166.955 2033.530 112.676 1149.977 106.420 2781.468 598.436 11425.763 525.331 210.017 13629.313 837.713 772.739 1164.833 1526.429 5612.547 1993.940 330.109 4185.697 640.416 119.719 7476.124 325.842 3984.839 258.932 646.354 3321.421 10596.081 294.284 339.240 12967.158 7301.352 1137.517 1128.224 8113.417 7334.747 2736.645 5886.097 984.296 10064.328 7440.532 2635.598 4663.398 4990.166 1985.244 12924.783 666.342 509.555 424.024 385.178 1580.849 4717.947 716.376 8227.003 9490.309 4559.473 6014.695 199.638 9467.618 1709.932 230.213 130.140 1078.033 1205.505 4528.242 3790.255 87.362 4211.056 669.550 222.643 3723.326 382.167 1016.025 338.819 8196.873 190.588 1165.099 323.007 5330.301 427.611 184.600 2162.261 944.915 6478.114 12817.864 7210.258 6611.637 37.637 2810.255 247.485 5422.090 2057.815 402.394 9325.821 4229.589 4485.098 864.132 2728.816 1735.436 6547.208 1912.315 252.891 3855.237 13620.700 12706.731 2320.889 495.358 121.435 2089.666 4384.855 909.198 2686.512 3673.870 2933.698 858.819 7156.630 764.073 2059.752 3498.221 829.844 1771.712 208.112 1039.027 4163.843 610.554 5789.957 2747.382 2106.418 1288.016 4228.631 5125.429 2643.316 2927.523 1129.518 2483.455 1339.793 1708.216 5675.910 3859.202 4541.506 94.613 7473.086 642.521 4390.366 9722.667 713.329 4489.904 968.565 4513.691 6948.189 1667.886 1316.678 1427.483 9969.453 1712.022 4908.802 2962.421 906.638 847.240 1284.642 592.706 13627.553 6027.828 7815.551 2489.044 974.286 218.591 5099.024 1032.459 7596.323 3539.740 406.409 323.250 9047.097 8173.161 3803.635
9344.197 11394.527 10609.515 0.000 10541.460 4522.539 9918.438 10932.749 10472.962 10146.649 10722.112 10155.195 10511.026 9084.779 11031.692 19147.873 10591.541 10746.726 4655.326 10876.147 10060.448 10403.775 9691.633 14511.007 9140.043 10603.205 12880.828 11103.455 10640.236 3173.570 10658.024 9046.708 10566.969 11007.634 10782.440 18142.514 10810.629 10932.742 9948.620 10491.059 11361.022 9541.948 10963.757 3302.563 8040.023 13346.106 11280.593 11716.653 13108.387 9524.452 12972.720 13286.642 8658.041 10594.177 10952.152 10889.678 10694.754 10865.320 9629.919 10268.377 9898.919 11264.662 1672.124 12706.273 13828.008 10461.667 1738.140 9683.336 10718.565 10649.380 11645.871 11155.746 14332.112 8718.404 10534.434 12972.375 10954.932 10758.948 8570.922 10820.941 10771.567 10300.884 10956.309 10488.985 11150.571 10311.507 12946.663 10235.875 10459.500 11487.713 10529.484 8314.077 3138.786 12139.915 15583.448 10590.175 9026.348 10646.142 5585.650 9179.769 10798.656 14064.799 12987.891 6413.578 11162.802 7886.455 9470.516 16617.179 11843.350 10375.924 8617.775 8536.872 10472.349 11766.919 10711.693 10684.217 11451.072 8471.910 10544.782 9679.468 12339.423 10091.056 11373.798 15842.099 11246.457 8553.522 13683.029 11310.855 8837.978 10403.845 9588.058 12918.399 10747.765 15438.569 8259.753 11457.188 11554.742 12314.724 13012.402 8202.129 9105.403 10971.461 9256.124 11595.253 11799.385 14563.222 7048.136 10015.360 10656.257 10078.630 11159.613 13007.746 1515.426 11149.343 13073.142 9896.897 12756.196 15733.274 9639.010 11704.622 11673.952 11678.670 9617.539 12865.997 8956.584 11296.137 11250.180 9914.597 11144.897 4678.586 14957.429 13747.045 10767.443 9802.046 10827.795 13386.006 9899.812 15200.713 8246.469 10892.334 10332.847 4467.702 5614.860 13199.642
1733.073 1446.087 303.264 10541.460 0.000 12789.171 746.560 490.410 395.338 1731.518 351.318 856.248 255.791 2512.453 874.381 11716.315 233.531 247.877 13649.472 1140.737 958.978 861.583 1262.494 5898.121 1762.979 70.272 4484.640 571.536 205.869 7393.116 119.210 3700.689 47.735 509.890 3608.319 10890.740 282.024 438.230 12699.106 7000.685 984.512 1002.996 7811.871 7254.215 2772.474 6189.347 846.747 9763.560 7737.051 2858.937 4964.933 5290.726 1986.097 12647.996 491.194 369.930 193.046 324.084 1320.653 4415.220 744.456 7924.516 9386.571 4862.316 6316.545 434.552 9361.900 1917.034 200.955 433.210 1104.497 983.778 4396.979 3518.984 339.071 4508.744 494.631 254.982 3459.378 280.118 1317.401 284.491 7895.517 155.794 1463.813 284.289 5633.564 316.656 408.946 2464.529 644.394 6203.761 12806.676 7495.580 6889.092 267.550 2543.929 116.917 5440.744 2216.759 263.198 9620.026 4527.221 4506.405 717.389 2689.816 1911.767 6759.334 2195.432 256.305 3587.055 13381.120 12429.838 2619.356 798.335 417.174 2391.959 4569.965 609.542 2922.165 3975.663 3195.267 836.614 6960.653 1011.153 1992.958 3724.133 1072.502 1728.757 295.025 957.762 4461.929 360.305 5656.053 2559.155 2408.734 1555.528 4531.894 5428.417 2481.742 2653.844 878.664 2212.520 1210.511 1982.877 5961.422 3894.545 4240.131 243.013 7712.114 618.780 4689.423 9619.635 629.063 4788.969 1139.006 4816.136 6756.356 1400.450 1236.109 1299.979 9668.628 1444.229 5211.830 2695.953 806.796 750.973 1009.741 605.457 13648.532 6309.961 7529.588 2780.709 783.602 405.363 5399.300 790.725 7352.902 3298.219 350.977 503.507 9109.316 8270.683 3614.292
11218.877 13203.729 12754.224 4522.539 12789.171 0.000 12340.995 13255.390 12593.151 12955.109 12858.857 12676.712 12675.163 12085.303 13009.352 18666.789 12911.772 12936.664 1081.971 12733.777 12049.654 12936.416 12299.756 15145.538 11833.766 12858.553 13703.950 13354.417 12822.010 6553.641 12907.424 12426.460 12799.778 13297.199 11704.123 17670.659 13015.362 13093.307 14453.317 14539.988 13739.776 11879.918 15110.766 6602.662 10020.385 13536.602 13621.723 16066.170 12588.338 10844.087 13608.815 13852.512 10805.786 15112.033 13265.217 13159.081 12972.606 13091.003 12249.589 13801.299 12056.330 15406.439 6055.507 13331.452 14075.738 12569.541 6125.233 11367.997 12924.721 12749.880 13830.946 13616.229 17049.456 12027.072 12668.454 13806.035 13268.499 12950.180 11847.296 13059.259 12560.697 12511.451 15116.575 12690.556 12912.246 12516.278 13291.768 12473.511 12576.561 12899.632 12988.405 12314.557 1947.941 11558.139 16112.080 12746.903 12030.842 12870.596 7355.218 10875.769 13050.420 12941.410 13817.114 8284.664 13492.937 10167.367 11214.745 17727.207 13427.216 12567.353 11940.666 12913.474 14992.708 13157.504 12685.223 12792.264 12887.059 9227.783 12991.612 10946.035 13268.613 11198.319 13604.269 19051.784 13214.042 10884.993 15141.837 13267.975 11093.742 12571.564 11863.191 13759.944 13080.891 18261.990 11057.641 12887.320 13353.392 13008.048 13458.267 10896.781 12158.664 13442.120 12168.346 13977.074 13466.981 15184.638 8896.867 13520.651 12825.879 9197.052 13382.721 13770.807 5960.578 13416.688 13807.970 11855.849 13410.796 18905.273 12294.756 14024.929 14064.870 16020.291 12287.286 13374.372 12007.847 13595.500 13540.115 12461.299 13343.425 1059.889 15544.653 17551.468 12012.233 12181.899 12963.833 13928.039 12340.334 18700.228 11418.454 13117.710 12437.042 3821.890 5040.033 16034.274
1701.526 2147.261 983.108 9918.438 746.560 12340.995 0.000 1022.885 963.169 1253.727 1070.403 412.381 884.776 1809.031 1581.083 12373.963 699.699 994.303 13170.843 1758.539 1214.411 639.568 559.495 6575.361 1017.241 783.138 5106.276 1227.802 931.247 6754.812 835.827 3035.720 789.910 1111.189 3996.101 11530.365 1021.856 1183.738 11988.507 6427.713 1446.196 487.911 7249.741 6619.764 2415.083 6737.948 1362.382 9187.332 8163.495 3004.686 5560.551 5896.246 1598.939 11954.690 1045.708 1015.627 832.452 1039.644 607.014 3892.694 763.402 7380.605 8717.636 5435.297 6904.104 986.913 8690.605 2068.699 947.159 1098.664 1783.996 1278.605 4723.722 2817.901 962.762 5138.790 1048.170 1001.536 2744.310 986.544 1877.972 673.077 7330.248 794.259 2110.199 691.501 6178.372 580.333 964.304 3066.047 647.410 5506.765 12271.510 7840.950 7585.376 946.907 1834.762 862.975 4989.240 2206.081 951.797 10021.179 5157.565 4071.588 1246.651 2174.404 1975.916 7505.820 2885.057 752.801 2879.484 12641.010 11736.812 3253.462 1414.209 1103.247 2994.007 4547.728 651.669 3107.397 4572.014 3469.824 1495.770 7080.588 1742.154 1456.252 4468.064 1806.205 1267.258 820.644 583.387 5089.561 839.273 5961.025 1824.726 3010.227 2270.883 5082.109 5994.773 1772.086 1961.020 1101.667 1515.090 1683.200 2688.284 6638.786 3500.862 3689.144 964.547 7840.491 1302.884 5309.576 8951.278 1259.328 5408.766 1309.039 5398.320 6890.925 703.654 1786.398 1765.374 9093.245 747.454 5777.538 1986.656 1385.744 1344.402 369.093 1313.742 13171.484 6996.006 7250.196 3214.164 185.953 1144.602 6007.272 53.007 7297.646 2558.355 1063.146 947.047 8727.936 7974.387 3800.241
2222.072 1565.596 679.315 10932.749 490.410 13255.390 1022.885 0.000 830.071 1629.789 640.566 918.108 696.091 2587.824 1044.222 11805.214 347.166 477.691 14107.644 1411.512 1430.183 779.558 1409.259 5973.853 1968.996 421.206 4646.574 261.051 562.898 7772.767 386.474 3695.167 497.404 118.418 3963.670 11004.901 403.987 502.002 12729.943 6864.692 495.237 1404.574 7662.263 7636.663 3247.116 6413.280 366.333 9621.403 8045.469 3313.479 5151.515 5464.317 2449.843 12646.356 33.189 178.584 297.365 319.576 1474.675 4254.425 1231.559 7758.054 9740.468 5072.388 6502.983 868.317 9713.485 2381.913 449.147 777.763 783.568 527.958 3906.848 3569.374 754.412 4660.379 33.348 467.680 3536.134 301.774 1627.163 773.907 7748.511 627.926 1673.128 774.553 5863.926 791.757 846.953 2682.258 541.076 6224.056 13244.987 7850.665 6927.037 660.039 2627.992 452.462 5902.377 2701.876 276.932 9939.301 4678.318 4970.738 237.994 3124.539 2391.144 6616.044 2300.380 743.406 3647.791 13495.833 12427.982 2795.372 1114.194 739.730 2611.237 5048.236 506.193 3365.813 4171.054 3606.643 493.341 6485.041 1089.437 2414.338 3631.962 1131.922 2171.089 769.853 1395.974 4616.943 184.999 5165.704 2826.546 2628.103 1633.901 4765.759 5640.620 2792.215 2708.795 480.433 2288.735 725.890 2063.646 6036.616 4366.352 4106.079 584.814 8152.064 357.131 4851.222 9974.096 257.468 4950.327 1617.578 5017.612 6278.565 1525.440 780.327 815.042 9525.886 1565.103 5426.124 2776.296 363.718 321.742 1143.069 412.951 14107.168 6368.901 7187.842 3122.831 1130.896 601.006 5569.458 1049.221 6919.466 3442.472 311.814 967.654 9587.924 8758.602 3134.439
1433.044 1194.161 166.955 10472.962 395.338 12593.151 963.169 830.071 0.000 2086.532 265.718 1186.787 140.903 2772.151 645.605 11414.656 628.857 373.885 13470.557 800.733 608.047 1236.024 1519.629 5612.361 1953.416 443.489 4156.872 806.703 269.385 7345.470 455.667 3992.473 362.038 806.440 3214.731 10576.388 458.665 501.331 12949.400 7342.827 1298.783 1035.668 8158.533 7203.266 2577.865 5829.628 1146.962 10105.602 7349.834 2484.192 4623.628 4954.678 1835.711 12917.859 819.961 666.506 555.321 548.515 1569.682 4771.626 574.049 8277.546 9366.830 4510.731 5972.458 39.545 9344.930 1552.374 386.153 178.448 1237.815 1351.273 4694.227 3781.069 80.092 4186.147 823.267 386.983 3706.010 540.282 948.100 290.098 8241.064 242.720 1148.099 271.673 5272.114 383.124 17.708 2121.925 1032.580 6469.932 12665.392 7101.156 6623.162 173.597 2797.848 381.025 5264.677 1892.207 555.313 9230.205 4204.827 4327.580 1024.888 2588.186 1571.559 6620.692 1923.872 214.473 3842.353 13574.719 12699.981 2297.064 453.074 211.258 2049.401 4223.785 999.287 2540.167 3633.601 2802.230 1024.822 7313.648 837.236 1930.875 3565.135 904.831 1636.196 144.334 928.253 4137.780 740.383 5955.881 2673.034 2065.932 1327.326 4171.184 5074.692 2554.004 2923.219 1263.129 2477.465 1504.417 1733.819 5675.783 3699.544 4587.315 255.500 7329.286 809.310 4360.960 9598.853 879.217 4460.381 802.701 4468.448 7106.147 1663.219 1483.619 1592.419 10010.976 1707.324 4857.654 2949.681 1072.392 1013.006 1292.982 758.133 13468.657 6032.879 7924.275 2390.061 923.056 371.087 5064.619 1015.043 7736.914 3501.373 570.849 157.210 8882.828 8006.496 3961.550
2921.731 3149.819 2033.530 10146.649 1731.518 12955.109 1253.727 1629.789 2086.532 0.000 2076.101 906.410 1965.757 1151.413 2587.721 13421.134 1532.754 1933.554 13722.910 2870.828 2458.394 880.216 836.444 7592.454 1133.715 1719.738 6213.542 1888.826 1934.378 6980.744 1747.286 2085.767 1777.797 1747.533 5239.749 12608.260 1908.795 2065.259 11119.929 5270.596 1718.716 1638.009 6080.465 6861.048 3376.186 7915.485 1755.204 8033.109 9402.753 4246.734 6696.434 7021.607 2609.633 11022.481 1662.932 1756.314 1675.544 1867.215 850.171 2685.649 2016.355 6193.720 8802.352 6592.393 8048.051 2120.390 8766.424 3318.746 1881.854 2163.649 2331.415 1407.949 4191.293 2020.383 2053.555 6235.525 1662.736 1932.868 2028.316 1819.227 3034.484 1821.538 6164.277 1856.931 3194.086 1838.223 7358.346 1744.720 2094.299 4195.787 1121.525 4617.159 12709.922 9093.773 8555.223 1996.792 1206.094 1815.240 5694.559 3417.121 1775.730 11267.379 6253.891 4836.349 1716.990 2939.618 3213.422 8177.197 3898.540 1877.933 2110.908 11958.220 10804.108 4348.392 2525.035 2148.625 4123.195 5711.083 1159.916 4355.366 5707.172 4723.544 2071.244 6171.373 2684.788 2298.515 5242.180 2736.001 2251.012 1946.976 1786.675 6189.439 1535.837 5343.360 1920.228 4139.948 3238.723 6257.143 7157.796 2058.481 1214.721 1272.955 910.101 1871.567 3671.301 7655.450 4351.410 2509.040 1971.420 9057.030 1985.278 6418.448 9035.320 1867.523 6517.982 2562.287 6547.178 6003.214 757.832 2072.732 1911.419 7938.083 743.587 6940.989 1327.561 1863.009 1861.155 890.506 2042.385 13726.639 7992.800 6012.678 4443.057 1414.517 2102.463 7129.871 1207.028 6199.008 2076.453 1876.582 2125.010 9481.198 8853.551 3096.673
1691.152 1095.367 112.676 10722.112 351.318 12858.857 1070.403 640.566 265.718 2076.101 0.000 1207.510 215.775 2858.014 523.430 11365.125 547.818 165.934 13735.831 808.869 855.628 1199.776 1604.703 5546.885 2085.499 356.444 4137.616 562.946 145.736 7588.780 334.358 4051.478 303.619 589.899 3330.801 10540.527 237.372 236.630 13044.978 7346.611 1073.620 1237.074 8156.147 7447.417 2843.060 5855.105 917.731 10109.204 7434.343 2691.730 4621.911 4945.739 2095.698 12997.160 622.860 463.513 422.702 326.822 1660.950 4756.251 827.799 8266.145 9602.572 4523.953 5974.127 291.380 9579.812 1776.345 208.104 140.576 972.138 1168.142 4446.941 3865.756 192.037 4160.540 625.826 174.121 3802.823 339.040 1005.284 445.394 8240.184 278.644 1118.309 430.521 5300.751 530.928 282.434 2124.690 970.033 6551.964 12927.615 7219.542 6539.375 136.942 2888.262 261.571 5529.444 2140.287 369.340 9323.221 4178.970 4592.374 803.301 2841.017 1813.454 6447.484 1844.272 360.788 3932.511 13711.268 12779.032 2272.350 483.131 99.497 2052.283 4455.116 932.915 2736.159 3633.523 2966.612 763.699 7096.095 671.760 2172.414 3401.710 735.929 1884.253 320.313 1150.747 4114.071 602.649 5708.736 2849.934 2069.125 1207.967 4199.280 5090.899 2750.044 3001.398 1108.331 2558.807 1265.925 1633.312 5610.191 3965.011 4585.111 109.065 7517.398 552.918 4342.493 9834.957 637.452 4442.034 1053.787 4475.879 6886.056 1744.590 1229.605 1352.327 10014.183 1788.587 4874.673 3040.406 830.051 770.946 1356.745 496.324 13733.971 5959.167 7810.185 2493.352 1073.023 106.887 5053.850 1118.309 7558.538 3628.758 342.923 422.353 9147.783 8267.154 3742.414
2109.211 2300.941 1149.977 10155.195 856.248 12676.712 412.381 918.108 1186.787 906.410 1207.510 0.000 1072.849 1685.776 1729.936 12572.551 695.985 1083.563 13493.045 1980.709 1562.526 259.844 498.674 6753.703 1070.143 859.497 5334.908 1168.198 1062.104 6983.940 897.892 2847.889 903.909 1030.058 4338.618 11745.709 1078.450 1244.542 11861.141 6156.653 1233.124 890.081 6971.791 6852.719 2802.599 7015.623 1189.487 8919.578 8498.616 3399.647 5808.201 6137.259 1989.643 11799.927 948.642 983.590 848.316 1060.484 564.866 3587.010 1138.383 7091.215 8911.765 5697.440 7158.044 1219.242 8882.095 2456.905 1031.191 1278.785 1699.728 1001.061 4373.958 2683.049 1160.063 5360.896 949.957 1085.868 2636.563 1007.141 2134.271 915.983 7054.410 965.655 2314.940 932.912 6457.705 838.311 1193.477 3305.930 396.699 5359.909 12565.858 8202.494 7740.369 1112.478 1722.569 954.900 5334.567 2614.756 964.604 10366.455 5379.444 4426.734 1097.319 2514.347 2376.120 7526.454 3050.951 975.350 2756.079 12588.159 11581.684 3470.588 1632.601 1269.185 3233.325 4959.761 423.526 3496.384 4818.187 3842.109 1410.806 6679.037 1854.822 1802.579 4522.173 1912.606 1646.884 1045.084 995.646 5313.547 763.725 5600.138 1950.836 3249.959 2405.558 5357.193 6261.478 1958.029 1817.267 816.731 1384.820 1456.300 2835.382 6816.981 3871.929 3400.540 1099.213 8244.213 1258.912 5539.469 9145.690 1175.418 5638.990 1680.713 5654.660 6491.539 607.691 1598.922 1529.128 8824.882 647.024 6044.435 1872.935 1250.221 1223.478 243.258 1294.379 13494.399 7164.127 6860.935 3537.548 597.827 1251.881 6246.596 384.262 6885.306 2525.008 1076.953 1218.884 9090.236 8359.495 3416.987
1544.876 1262.764 106.420 10511.026 255.791 12675.163 884.776 696.091 140.903 1965.757 215.775 1072.849 0.000 2688.029 696.925 11510.691 488.987 263.447 13546.885 907.895 734.808 1106.532 1432.889 5701.185 1892.198 302.598 4262.822 695.576 149.300 7375.529 316.516 3897.501 221.186 680.853 3352.632 10677.577 346.038 426.190 12872.017 7228.830 1172.937 1022.133 8042.730 7234.439 2655.464 5949.984 1023.759 9991.830 7483.720 2621.360 4735.589 5064.413 1895.525 12832.954 687.942 538.442 415.765 431.230 1486.039 4651.391 625.621 8159.081 9387.581 4627.234 6085.857 180.439 9364.698 1686.222 262.841 214.331 1162.756 1213.751 4577.032 3697.143 87.805 4289.886 691.304 277.060 3627.770 415.109 1071.097 232.479 8125.730 109.115 1245.128 216.588 5393.206 322.067 155.865 2233.357 897.206 6385.648 12728.874 7239.792 6704.241 79.567 2715.884 244.055 5338.455 2013.430 424.980 9365.614 4308.485 4401.746 899.117 2633.045 1697.548 6652.726 2003.818 146.471 3761.005 13518.781 12614.954 2399.530 560.125 220.052 2160.742 4353.116 863.177 2679.182 3745.631 2943.132 930.371 7181.121 868.276 1959.463 3602.877 934.421 1674.181 107.500 935.248 4242.167 600.044 5838.259 2641.379 2177.402 1386.634 4291.785 5192.248 2536.910 2835.738 1122.783 2390.937 1384.550 1803.747 5764.575 3778.763 4470.855 151.037 7468.690 710.108 4467.272 9620.018 765.643 4566.775 925.086 4583.199 6974.460 1575.193 1376.334 1473.251 9897.073 1619.366 4975.382 2868.003 957.290 898.209 1195.864 668.319 13545.309 6118.295 7785.378 2525.854 869.817 318.105 5173.784 934.921 7597.083 3438.912 455.768 272.499 8974.609 8110.572 3830.127
3091.244 3949.196 2781.468 9084.779 2512.453 12085.303 1809.031 2587.824 2772.151 1151.413 2858.014 1685.776 2688.029 0.000 3378.733 14178.739 2379.164 2753.319 12808.829 3566.043 2931.282 1814.975 1255.196 8384.377 917.441 2528.720 6902.230 2845.110 2713.417 5937.511 2572.459 1258.437 2559.609 2703.945 5626.759 13328.185 2757.578 2924.631 10186.995 4750.393 2794.363 1925.536 5582.054 5825.626 3070.995 8482.242 2799.060 7484.495 9775.076 4417.239 7342.217 7682.467 2473.242 10145.859 2619.920 2668.337 2531.471 2745.152 1202.723 2405.342 2468.598 5743.020 7698.489 7203.517 8676.730 2795.818 7660.235 3587.865 2701.794 2902.312 3353.125 2497.043 5257.082 1009.189 2768.912 6938.053 2620.775 2757.351 950.789 2691.444 3673.245 2482.054 5656.553 2590.881 3918.992 2500.480 7922.368 2389.352 2773.325 4861.826 2046.954 3698.041 11733.535 9352.698 9392.262 2744.277 58.500 2621.078 4982.555 3518.981 2649.331 11588.207 6956.907 4211.622 2733.035 2477.446 3418.132 9203.723 4691.740 2560.823 1074.616 10908.050 9927.946 5058.092 3223.009 2902.826 4790.417 5587.492 2081.643 4559.547 6357.791 5002.003 3071.695 6966.488 3523.485 2044.671 6207.865 3584.165 2160.240 2629.263 2097.835 6887.989 2446.275 6355.579 1107.317 4806.344 4065.975 6836.740 7755.906 1363.232 171.533 2337.299 301.084 2974.951 4489.472 8447.803 3839.677 2143.871 2749.241 9019.112 2938.288 7104.435 7930.451 2843.848 7203.248 2961.919 7172.576 6821.454 1113.708 3161.961 3024.905 7392.088 1069.621 7539.205 188.730 2886.704 2871.148 1502.822 2978.019 12814.498 8804.712 6174.438 4907.596 1876.771 2917.354 7794.545 1757.114 6750.069 925.049 2762.253 2748.964 8744.365 8246.514 4114.900
1791.260 571.968 598.436 11031.692 874.381 13009.352 1581.083 1044.222 645.605 2587.721 523.430 1729.936 696.925 3378.733 0.000 10843.752 1055.104 654.275 13909.303 411.063 981.493 1707.880 2124.109 5023.846 2588.416 872.856 3628.875 852.420 669.159 7924.122 841.112 4574.898 826.646 951.328 2969.688 10022.464 683.862 544.611 13565.094 7857.130 1349.935 1678.922 8663.617 7779.822 3049.564 5372.793 1197.373 10618.838 7009.606 2544.252 4122.209 4441.319 2373.678 13519.956 1016.543 875.141 913.626 741.667 2179.018 5259.593 1176.318 8769.067 9961.444 4034.613 5474.790 637.031 9941.263 1715.893 706.206 485.118 967.047 1535.021 4540.875 4387.129 624.073 3648.773 1018.489 654.864 4321.552 781.803 650.009 920.966 8748.322 788.653 628.986 903.252 4821.963 1014.125 651.462 1639.555 1470.420 7074.188 13151.300 6842.468 6016.376 635.203 3408.056 776.807 5727.790 2161.916 823.597 8906.798 3667.068 4794.103 1119.281 3150.677 1819.768 5976.127 1321.097 835.815 4452.862 14214.288 13301.850 1766.369 327.164 477.842 1568.170 4362.055 1432.333 2554.779 3137.092 2703.186 905.544 7296.768 214.859 2529.628 2919.699 279.534 2223.339 773.869 1562.269 3603.227 1071.330 5795.727 3318.528 1585.054 689.812 3722.775 4602.652 3195.656 3523.452 1522.799 3080.138 1479.652 1110.883 5087.137 4152.158 5094.839 632.426 7276.688 783.927 3833.847 10192.619 917.650 3933.313 1164.049 3982.479 7079.202 2265.025 1367.544 1553.209 10523.664 2309.115 4387.444 3560.227 1074.161 1025.380 1879.083 703.107 13906.126 5435.739 8220.280 2124.592 1562.074 485.277 4548.299 1630.718 7859.763 4135.612 740.496 741.586 9259.861 8320.324 3956.452
11415.707 10275.171 11425.763 19147.873 11716.315 18666.789 12373.963 11805.214 11414.656 13421.134 11365.125 12572.551 11510.691 14178.739 10843.752 0.000 11895.211 11495.860 19748.724 10615.653 11282.421 12542.428 12932.917 5831.658 13310.507 11716.536 7286.895 11554.054 11510.451 16782.574 11683.136 15407.049 11668.673 11690.508 8980.521 1009.011 11514.439 11356.109 24286.986 18665.689 11868.182 12293.429 19453.732 16632.383 12342.707 6008.038 11771.965 21414.706 6124.513 10433.939 6894.196 6543.258 12280.421 24305.572 11772.640 11667.136 11748.553 11553.919 12980.639 16050.289 11730.930 19532.864 18796.962 7080.332 5647.466 11388.590 18808.653 10883.772 11548.190 11299.064 11216.353 12162.082 13036.684 15183.633 11426.104 7245.046 11773.320 11495.240 15092.953 11602.117 10506.917 11703.663 19541.722 11614.045 10267.109 11685.289 6517.812 11794.963 11412.054 9320.694 12299.746 17865.791 19833.654 7147.111 4945.483 11463.400 14200.371 11620.514 13852.172 11208.866 11645.668 5924.142 7226.105 13296.131 11767.573 12911.799 11112.604 6591.146 9524.835 11628.461 15238.048 24647.650 24088.558 9120.908 10961.693 11305.262 9391.413 10808.475 12261.355 10252.402 7850.607 9743.521 11421.230 15783.886 10736.443 12685.973 8444.834 10685.264 12404.335 11558.791 12128.362 7296.368 11885.702 13733.858 13827.326 9375.757 10182.416 7483.387 6583.983 13603.652 14334.158 12231.334 13888.270 11830.224 9749.835 5769.048 12821.239 15910.848 11473.338 9476.950 11459.088 7088.141 18987.965 11588.246 6990.824 11294.627 7087.094 15548.493 13076.877 11615.219 11844.344 21318.894 13120.875 6786.916 14350.808 11643.702 11627.414 12705.861 11394.103 19726.493 5449.654 18336.623 9456.153 12302.937 11326.340 6428.959 12426.547 17123.801 14820.061 11544.747 11430.025 15293.111 13944.478 13408.264
1928.093 1620.166 525.331 10591.541 233.531 12911.772 699.699 347.166 628.857 1532.754 547.818 695.985 488.987 2379.164 1055.104 11895.211 0.000 400.839 13761.998 1354.681 1180.414 653.614 1150.822 6070.747 1687.160 195.484 4681.619 528.128 413.078 7433.917 214.867 3539.976 269.935 416.906 3840.720 11077.114 383.992 548.988 12557.114 6802.870 829.596 1058.024 7610.835 7297.124 2908.993 6402.641 711.710 9565.002 7965.576 3083.521 5168.762 5491.474 2107.446 12493.952 362.564 316.647 152.408 366.485 1213.433 4209.372 914.955 7719.322 9408.971 5071.763 6521.142 668.083 9382.691 2138.480 349.108 652.310 1084.380 778.010 4226.863 3378.786 570.640 4702.927 365.542 400.504 3329.698 312.482 1540.850 476.571 7695.177 388.341 1664.954 482.673 5848.002 470.464 642.459 2672.477 422.495 6055.471 12897.828 7728.407 7049.771 492.295 2414.406 286.664 5557.900 2419.812 271.051 9850.015 4721.275 4627.196 584.716 2777.384 2122.945 6847.923 2370.377 474.269 3451.127 13273.597 12275.678 2816.983 1018.666 629.353 2600.082 4779.342 385.750 3150.006 4180.773 3427.948 796.936 6752.948 1163.768 2067.376 3831.560 1219.732 1824.568 522.996 1049.992 4656.997 169.508 5482.602 2521.705 2616.927 1717.031 4746.435 5638.716 2470.947 2512.854 656.561 2078.082 1065.624 2148.700 6133.920 4025.986 4040.770 448.701 7939.514 604.536 4886.564 9642.458 562.473 4986.081 1353.830 5023.513 6550.722 1280.364 1127.383 1153.893 9469.895 1322.804 5422.482 2565.485 706.355 658.773 886.495 622.010 13761.609 6477.379 7296.675 3011.637 790.512 570.017 5599.228 732.898 7125.917 3197.879 385.059 732.308 9250.790 8433.676 3412.528
1803.989 1220.750 210.017 10746.726 247.877 12936.664 994.303 477.691 373.885 1933.554 165.934 1083.563 263.447 2753.319 654.275 11495.860 400.839 0.000 13806.527 968.800 981.725 1054.019 1506.813 5672.932 2010.856 224.965 4281.409 434.242 114.759 7604.729 187.276 3931.452 204.921 436.988 3496.735 10676.505 84.791 194.772 12938.521 7203.440 927.565 1224.083 8010.858 7464.709 2916.461 6009.917 774.299 9965.428 7598.424 2843.013 4770.471 5092.080 2150.181 12882.672 461.878 303.128 263.604 175.177 1565.829 4608.297 882.492 8118.174 9607.118 4676.425 6123.012 408.712 9583.221 1919.580 52.445 300.193 908.810 1005.645 4320.631 3758.187 293.996 4302.314 464.966 13.613 3701.638 176.233 1169.750 446.128 8095.338 257.916 1267.353 436.347 5456.420 513.606 391.568 2277.277 818.673 6440.535 12982.525 7385.461 6656.806 201.181 2785.836 133.036 5597.556 2266.073 203.793 9487.966 4320.646 4661.145 654.343 2877.604 1944.927 6511.526 1971.227 375.581 3827.621 13628.014 12664.457 2417.214 648.483 263.432 2205.069 4594.871 780.909 2891.431 3783.233 3129.066 667.795 6947.546 771.983 2193.275 3476.644 831.279 1916.319 365.111 1159.371 4256.490 438.547 5582.228 2802.961 2221.943 1322.029 4355.280 5243.829 2719.332 2892.407 942.521 2452.839 1130.581 1752.345 5736.151 4039.933 4441.249 118.515 7675.727 446.929 4486.367 9839.928 505.901 4585.872 1176.545 4626.938 6738.796 1643.383 1114.042 1218.536 9870.296 1686.947 5027.887 2937.698 698.827 639.475 1250.848 408.883 13805.071 6081.448 7644.592 2659.142 1024.289 169.530 5199.597 1038.602 7397.112 3545.358 196.967 526.324 9237.915 8373.026 3594.327
12118.347 14126.625 13629.313 4655.326 13649.472 1081.971 13170.843 14107.644 13470.557 13722.910 13735.831 13493.045 13546.885 12808.829 13909.303 19748.724 13761.998 13806.527 0.000 13647.511 12941.027 13752.832 13098.439 16186.485 12613.428 13718.217 14727.171 14218.151 13692.246 7097.475 13768.325 13068.599 13662.370 14154.766 12709.750 18752.478 13883.618 13968.501 14419.426 14986.390 14586.504 12719.237 15515.858 7165.736 10892.781 14597.474 14473.544 16357.985 13668.669 11805.642 14644.913 14893.963 11663.378 15114.859 14119.001 14018.749 13829.706 13956.705 13045.863 14413.161 12924.213 15814.690 6290.664 14367.274 15135.257 13448.514 6359.579 12292.745 13792.133 13631.207 14707.340 14449.170 17856.001 12683.054 13544.446 14828.859 14122.229 13819.950 12509.265 13922.875 13481.848 13375.184 15515.412 13556.951 13839.139 13380.900 14344.298 13332.949 13454.287 13866.076 13817.323 12770.935 1597.409 12638.395 17161.678 13620.216 12753.098 13734.933 8209.356 11794.682 13911.975 14019.388 14840.314 9145.396 14345.618 10997.628 12130.832 18740.389 14378.056 13434.313 12592.599 12741.508 15008.976 14127.636 13583.494 13672.832 13850.895 10228.225 13822.507 11913.968 14281.745 12183.931 14472.647 19765.366 14116.678 11715.715 16114.402 14172.340 11938.271 13442.001 12712.006 14781.994 13930.335 19053.427 11810.760 13851.778 14278.513 14037.936 14505.692 11666.991 12871.987 14272.270 12910.144 14824.784 14408.479 16226.512 9771.466 14138.259 13697.901 10278.372 14250.759 14798.699 6160.244 14278.388 14838.012 12749.723 14444.935 19626.972 13085.111 14882.425 14911.681 16317.621 13075.113 14417.804 12720.310 14453.533 14399.219 13271.742 14214.802 36.969 16589.541 18097.142 12990.179 13017.232 13841.643 14971.206 13167.290 19340.604 12099.934 13983.641 13315.540 4820.251 6078.068 16814.850
1551.645 521.014 837.713 10876.147 1140.737 12733.777 1758.539 1411.512 800.733 2870.828 808.869 1980.709 907.895 3566.043 411.063 10615.653 1354.681 968.800 13647.511 0.000 845.608 2001.813 2317.273 4820.298 2723.964 1160.316 3356.619 1245.625 942.366 7798.057 1142.889 4792.159 1095.457 1330.396 2566.843 9775.720 1021.077 912.110 13731.476 8136.552 1753.534 1743.436 8949.851 7651.320 2848.242 5049.039 1598.987 10899.567 6634.950 2158.725 3827.765 4156.636 2245.294 13709.233 1386.910 1235.124 1230.886 1095.010 2365.469 5555.616 1187.799 9064.499 9854.672 3721.793 5178.326 773.306 9837.186 1381.803 1015.619 707.600 1369.159 1921.122 4937.668 4573.804 820.665 3385.441 1389.259 973.766 4493.043 1125.399 239.573 1088.397 9033.044 1015.668 358.571 1070.067 4493.777 1179.343 797.201 1325.648 1777.126 7261.692 12924.388 6446.639 5841.347 874.190 3589.875 1068.168 5496.987 1859.189 1163.030 8527.876 3404.116 4570.730 1513.216 3032.114 1519.107 5971.860 1160.322 1015.183 4632.572 14316.882 13491.500 1496.476 348.566 725.895 1253.029 3985.497 1740.417 2159.381 2837.862 2293.234 1316.169 7706.376 538.144 2469.481 2916.113 571.497 2154.909 945.060 1598.999 3337.147 1406.577 6189.437 3379.539 1269.720 680.997 3392.125 4287.719 3224.276 3719.435 1891.566 3273.480 1889.789 1007.708 4883.728 3923.266 5377.882 906.202 6866.607 1184.710 3560.848 10084.249 1314.406 3660.305 984.644 3676.426 7488.294 2461.225 1778.113 1963.981 10804.784 2505.225 4071.106 3741.233 1479.074 1428.297 2093.699 1104.377 13643.487 5244.938 8599.310 1722.148 1697.663 815.505 4266.135 1811.031 8267.661 4266.498 1100.009 820.278 8965.446 7996.027 4367.339
842.491 1362.834 772.739 10060.448 958.978 12049.654 1214.411 1430.183 608.047 2458.394 855.628 1562.526 734.808 2931.282 981.493 11282.421 1180.414 981.725 12941.027 845.608 0.000 1688.972 1745.389 5540.613 2035.447 1021.006 3995.550 1412.790 876.359 6966.493 1046.060 4186.081 939.477 1413.618 2782.606 10415.024 1066.441 1089.162 13015.652 7625.981 1906.119 1013.503 8451.061 6820.751 2068.644 5553.954 1754.893 10381.237 6949.234 1903.615 4417.159 4760.509 1409.002 13023.204 1422.700 1272.402 1142.423 1156.542 1777.774 5106.023 465.713 8587.307 9016.669 4272.987 5746.609 573.179 8998.395 958.367 993.201 725.774 1802.982 1941.456 5300.548 3920.081 687.747 4038.696 1426.068 994.709 3817.635 1147.248 830.558 713.578 8530.365 807.446 1178.454 703.639 4993.913 757.085 590.425 1971.393 1531.264 6588.214 12171.376 6639.969 6587.638 781.575 2945.684 977.736 4750.345 1285.440 1159.566 8809.382 4057.669 3815.415 1632.143 2194.096 963.641 6814.450 1974.709 706.395 3967.503 13535.395 12806.249 2199.662 655.479 770.581 1903.064 3618.326 1504.476 1975.218 3438.315 2285.945 1617.533 7914.802 1195.319 1625.441 3760.817 1257.096 1310.442 664.924 846.219 3986.772 1319.162 6562.317 2591.859 1917.840 1521.176 3905.685 4824.625 2413.421 3095.487 1835.791 2656.723 2112.292 1846.341 5603.781 3175.727 4898.647 863.493 6761.929 1408.520 4194.971 9246.771 1485.991 4292.811 199.165 4243.804 7708.716 1885.243 2085.154 2200.137 10287.608 1926.361 4607.929 3092.443 1679.326 1619.930 1583.397 1350.452 12938.294 5977.253 8410.223 2002.929 1084.395 950.343 4873.395 1265.073 8305.114 3540.147 1178.664 462.567 8318.206 7418.165 4564.609
2301.390 2269.712 1164.833 10403.775 861.583 12936.416 639.568 779.558 1236.024 880.216 1199.776 259.844 1106.532 1814.975 1707.880 12542.428 653.614 1054.019 13752.832 2001.813 1688.972 0.000 720.915 6715.043 1292.456 843.606 5335.224 1040.150 1060.448 7231.554 868.460 2919.075 906.400 897.543 4437.735 11728.098 1028.721 1186.446 11951.722 6149.422 1016.235 1127.039 6957.235 7101.216 3050.318 7050.769 994.652 8911.445 8583.809 3563.650 5821.672 6144.938 2235.301 11873.061 812.394 885.673 795.329 989.636 785.818 3556.480 1299.336 7066.370 9149.967 5722.477 7173.903 1272.443 9119.567 2615.029 1002.574 1294.655 1538.348 760.212 4114.620 2790.347 1193.789 5356.331 812.873 1053.044 2760.368 940.549 2177.029 996.782 7041.563 997.626 2317.938 1011.300 6495.117 935.662 1245.986 3323.681 244.833 5446.003 12823.839 8316.009 7684.479 1129.039 1857.218 938.251 5593.484 2807.721 896.948 10460.798 5374.662 4684.366 919.591 2773.244 2552.329 7390.390 3018.772 1038.380 2869.587 12721.726 11654.704 3470.578 1659.809 1276.392 3251.190 5163.975 282.896 3651.289 4833.265 3974.665 1257.093 6441.209 1806.144 2060.357 4411.441 1858.554 1897.060 1103.916 1215.954 5310.494 661.900 5342.277 2180.828 3268.006 2360.341 5393.443 6288.965 2202.856 1931.469 577.594 1518.233 1228.759 2792.881 6778.109 4126.126 3387.240 1097.143 8419.216 1135.548 5540.171 9383.902 1032.311 5639.687 1827.103 5675.231 6251.359 804.862 1386.849 1296.732 8816.327 838.256 6072.503 2003.701 1073.748 1056.366 490.688 1184.161 13754.199 7117.837 6721.775 3621.662 823.744 1222.609 6252.769 622.443 6681.597 2688.979 1000.417 1298.668 9347.000 8609.058 3165.432
2106.309 2694.146 1526.429 9691.633 1262.494 12299.756 559.495 1409.259 1519.629 836.444 1604.703 498.674 1432.889 1255.196 2124.109 12932.917 1150.822 1506.813 13098.439 2317.273 1745.389 720.915 0.000 7131.525 573.347 1283.980 5665.654 1652.395 1460.862 6518.470 1330.749 2476.225 1309.102 1517.776 4512.914 12089.860 1518.235 1685.073 11440.994 5881.514 1728.057 822.011 6705.915 6389.462 2562.180 7288.768 1688.090 8638.662 8681.303 3442.832 6118.339 6454.720 1780.202 11400.308 1438.695 1457.081 1300.709 1515.910 66.202 3370.047 1281.576 6842.225 8429.595 5990.701 7460.628 1544.674 8399.013 2533.562 1456.168 1647.147 2192.726 1481.126 4757.777 2264.259 1514.149 5698.284 1440.255 1511.798 2198.120 1461.593 2436.829 1229.858 6785.464 1335.858 2667.646 1248.267 6728.915 1138.069 1521.553 3625.265 895.308 4952.810 12142.589 8330.176 8137.124 1489.302 1283.949 1373.863 4982.791 2594.257 1421.320 10528.191 5717.059 4095.696 1595.381 2179.043 2409.179 7998.723 3436.683 1307.098 2328.822 12124.986 11182.339 3812.722 1971.924 1647.746 3553.273 4875.003 921.990 3560.455 5130.249 3952.840 1902.572 6930.479 2273.053 1499.551 4978.487 2334.898 1421.707 1376.061 983.321 5649.042 1245.242 5962.242 1460.004 3569.468 2812.230 5634.541 6548.934 1489.788 1403.794 1298.254 958.360 1946.909 3234.602 7194.940 3576.275 3155.785 1496.268 8229.489 1739.896 5868.893 8663.527 1665.276 5968.060 1814.808 5954.841 6752.960 144.165 2095.691 2016.691 8544.819 187.996 6331.741 1436.120 1747.827 1719.591 266.826 1768.241 13100.641 7550.452 6836.022 3747.911 661.033 1667.831 6565.889 506.684 7023.078 2047.058 1535.559 1506.352 8759.090 8081.327 3743.411
5807.624 4452.884 5612.547 14511.007 5898.121 15145.538 6575.361 5973.853 5612.361 7592.454 5546.885 6753.703 5701.185 8384.377 5023.846 5831.658 6070.747 5672.932 16186.485 4820.298 5540.613 6715.043 7131.525 0.000 7539.611 5895.202 1664.861 5722.403 5692.574 11752.293 5860.057 9597.295 5850.391 5858.977 3733.444 5055.236 5688.542 5528.675 18547.150 12834.377 6043.273 6536.616 13624.294 11598.847 6909.047 1977.557 5943.570 15585.153 4055.306 5090.577 1557.458 1293.092 6681.889 18529.335 5941.237 5837.129 5922.808 5725.675 7182.042 10219.441 5971.091 13707.210 13839.135 1833.622 1521.465 5588.582 13837.634 5299.630 5725.358 5487.855 5393.341 6334.007 7640.967 9393.012 5618.285 1587.214 5941.896 5671.784 9313.246 5774.498 4734.329 5902.428 13711.933 5802.230 4465.636 5884.002 1950.556 5995.031 5611.058 3571.552 6471.664 12081.539 15873.059 4673.991 1092.275 5650.135 8409.317 5799.391 8942.177 5706.294 5818.106 5669.413 1569.407 8200.210 5936.856 7389.457 5537.521 2919.543 3702.762 5824.429 9452.717 19053.825 18311.554 3343.640 5161.494 5491.379 3638.555 6103.848 6433.289 4917.517 2244.473 4455.839 5591.836 10560.280 4909.078 7048.119 2769.823 4856.655 6747.844 5755.580 6377.951 1643.215 6056.627 8565.506 8126.503 3624.149 4354.860 2203.736 1717.760 7927.980 8535.317 6400.386 8089.711 6015.442 3922.488 63.431 7624.361 10079.225 5655.642 6632.181 5627.431 1512.718 14052.263 5756.716 1440.682 5580.019 1768.866 10319.722 7274.750 5802.861 6034.492 15489.398 7318.907 1774.494 8560.896 5814.527 5797.199 6896.691 5562.532 16172.570 456.055 12669.520 3922.344 6517.460 5503.623 1221.841 6627.367 11694.207 9072.788 5715.905 5640.177 11389.802 10108.677 7794.470
2179.683 3147.355 1993.940 9140.043 1762.979 11833.766 1017.241 1968.996 1953.416 1133.715 2085.499 1070.143 1892.198 917.441 2588.416 13310.507 1687.160 2010.856 12613.428 2723.964 2035.447 1292.456 573.347 7539.611 0.000 1796.027 6025.587 2203.892 1947.944 5966.502 1847.061 2173.745 1806.867 2073.538 4709.376 12448.758 2034.663 2198.558 11008.350 5666.085 2301.354 1022.314 6497.329 5839.676 2321.030 7575.448 2259.100 8401.936 8858.667 3513.048 6452.600 6795.661 1627.917 10997.140 1997.191 2001.038 1831.580 2044.572 507.525 3266.616 1580.087 6654.848 7862.857 6306.594 7780.433 1971.213 7831.624 2671.181 1962.983 2103.393 2751.734 2052.181 5257.919 1885.613 1964.870 6065.519 1998.980 2017.747 1783.227 1990.514 2807.932 1668.534 6572.400 1807.669 3081.780 1686.538 7015.920 1574.937 1951.464 3990.187 1466.619 4555.637 11628.782 8445.704 8565.311 1958.671 922.710 1878.893 4560.857 2620.910 1952.748 10675.771 6084.452 3706.007 2163.351 1824.746 2504.990 8522.008 3873.251 1752.910 1932.069 11626.761 10779.808 4199.457 2391.624 2112.188 3919.803 4771.739 1491.955 3651.263 5472.681 4087.548 2460.840 7303.990 2756.601 1242.133 5485.215 2821.318 1289.035 1816.787 1192.361 6014.408 1798.132 6440.500 890.212 3935.319 3277.147 5934.771 6855.297 953.586 1087.916 1870.040 686.166 2519.956 3687.233 7603.009 3237.601 3020.975 1980.747 8181.857 2287.699 6226.248 8096.764 2222.359 6324.509 2053.059 6278.740 7136.745 499.627 2668.634 2589.093 8309.522 477.645 6639.037 1063.957 2314.645 2283.991 830.827 2309.163 12616.509 7967.465 6919.708 3995.217 1030.821 2161.723 6908.423 972.259 7282.223 1548.008 2066.404 1904.595 8347.488 7731.324 4202.473
1801.285 1442.363 330.109 10603.205 70.272 12858.553 783.138 421.206 443.489 1719.738 356.444 859.497 302.598 2528.720 872.856 11716.536 195.484 224.965 13718.217 1160.316 1021.006 843.606 1283.980 5895.202 1796.027 0.000 4493.855 505.105 218.027 7453.312 55.503 3707.247 82.447 439.833 3648.637 10894.584 238.835 403.061 12713.615 6990.305 914.725 1062.523 7799.703 7314.732 2842.301 6208.977 776.509 9752.845 7770.626 2918.068 4978.230 5302.182 2054.909 12657.914 421.283 300.620 124.169 266.143 1343.681 4400.045 814.723 7909.892 9443.813 4879.224 6330.381 483.030 9418.858 1978.182 173.106 456.833 1043.819 920.465 4327.308 3533.301 379.803 4516.401 424.724 228.631 3477.367 218.256 1345.369 354.673 7883.750 213.676 1474.739 354.147 5654.016 385.302 458.344 2480.203 617.070 6215.588 12873.573 7536.955 6881.062 297.757 2561.510 96.067 5509.666 2283.483 196.696 9655.631 4534.809 4575.520 647.182 2755.689 1976.690 6726.362 2192.765 323.022 3602.917 13407.338 12439.705 2628.657 823.231 434.523 2407.737 4634.874 580.720 2978.976 3989.688 3245.709 772.205 6895.959 996.902 2056.888 3696.309 1056.216 1795.098 356.092 1022.638 4470.071 299.571 5586.542 2602.825 2424.561 1546.212 4552.388 5445.927 2531.303 2667.486 821.459 2228.152 1140.307 1975.894 5958.451 3964.221 4228.713 254.145 7768.880 556.447 4698.748 9676.961 560.898 4798.286 1203.384 4831.672 6691.164 1419.662 1166.513 1229.777 9657.814 1463.113 5229.573 2713.311 737.121 681.579 1026.598 548.175 13717.316 6304.761 7488.230 2818.023 832.924 392.401 5410.280 824.908 7296.346 3325.558 292.257 562.095 9179.445 8340.838 3548.485
4180.353 3081.241 4185.697 12880.828 4484.640 13703.950 5106.276 4646.574 4156.872 6213.542 4137.616 5334.908 4262.822 6902.230 3628.875 7286.895 4681.619 4281.409 14727.171 3356.619 3995.550 5335.224 5665.654 1664.861 6025.587 4493.855 0.000 4413.835 4280.228 10092.494 4466.805 8141.613 4437.740 4539.400 2101.358 6425.955 4312.287 4164.847 17005.059 11484.138 4811.994 5007.048 12292.248 9939.069 5249.510 1887.399 4689.251 14246.539 3909.501 3426.754 556.757 822.397 5054.803 17018.751 4615.727 4490.500 4542.379 4364.590 5710.542 8888.359 4445.525 12397.499 12181.005 645.765 1868.320 4128.169 12178.724 3661.824 4332.686 4056.367 4192.612 5073.734 7024.068 7903.424 4176.205 103.151 4617.021 4282.790 7808.705 4408.016 3229.909 4442.471 12376.741 4369.364 3020.909 4424.283 1418.186 4531.696 4152.650 2040.847 5099.197 10581.197 14339.632 4166.660 2757.126 4223.040 6921.824 4398.302 7301.627 4051.779 4450.567 5773.437 113.165 6543.353 4656.289 5744.464 3898.221 4042.706 2355.969 4371.322 7955.496 17443.664 16801.782 1865.342 3705.146 4067.929 2112.608 4542.488 5061.152 3254.663 585.468 2800.940 4336.686 9986.991 3557.140 5437.345 2307.228 3516.208 5144.760 4301.085 4841.572 72.757 4697.367 8102.020 6551.410 2096.514 3019.891 743.509 1118.682 6337.759 7060.528 5106.823 6615.457 4834.968 2602.412 1723.157 5962.134 8722.299 4243.077 5665.188 4324.387 204.972 12395.264 4461.031 304.464 4010.379 541.136 9749.104 5809.813 4638.767 4872.575 14151.461 5853.487 945.205 7071.396 4555.943 4527.084 5449.097 4250.842 14715.057 2120.866 11652.070 2264.013 5025.573 4113.494 924.063 5159.188 10928.672 7533.714 4359.878 4159.304 9910.368 8667.230 6935.969
2238.222 1338.376 640.416 11103.455 571.536 13354.417 1227.802 261.051 806.703 1888.826 562.946 1168.198 695.576 2845.110 852.420 11554.054 528.128 434.242 14218.151 1245.625 1412.790 1040.150 1652.395 5722.403 2203.892 505.105 4413.835 0.000 546.431 7950.293 452.371 3956.190 555.874 142.692 3812.151 10758.013 349.994 352.526 12990.976 7113.186 520.172 1561.563 7907.990 7812.483 3334.793 6196.408 362.626 9867.881 7860.987 3249.585 4924.684 5233.466 2555.246 12907.030 227.986 214.953 409.001 265.734 1717.061 4500.501 1299.117 8000.396 9932.480 4852.788 6274.553 840.018 9906.655 2339.079 434.824 701.789 556.276 683.717 3887.860 3829.181 726.611 4425.029 227.713 420.813 3794.243 295.311 1474.040 843.218 7994.687 665.006 1473.579 838.141 5649.883 887.644 824.410 2473.490 800.043 6485.094 13378.213 7691.495 6670.523 635.216 2884.553 483.822 6008.929 2698.119 308.540 9758.879 4442.810 5073.763 267.672 3260.792 2374.263 6359.927 2061.497 788.489 3907.066 13752.587 12688.655 2572.209 986.382 657.864 2403.543 5018.058 764.314 3288.553 3948.691 3496.861 271.182 6538.088 863.198 2561.087 3371.302 898.757 2300.084 791.956 1527.622 4382.498 407.167 5149.596 3048.145 2420.316 1394.998 4554.759 5420.848 2998.898 2967.760 693.065 2545.449 702.996 1821.080 5785.052 4458.015 4356.853 552.455 8060.411 96.459 4618.123 10165.858 74.876 4716.969 1608.978 4795.411 6326.844 1773.171 680.933 789.448 9772.281 1813.734 5207.325 3033.400 267.209 208.013 1385.569 163.004 14217.057 6114.963 7368.931 2967.692 1311.949 485.678 5337.572 1260.260 7032.943 3692.881 240.152 960.441 9664.458 8806.103 3184.707
1692.903 1241.079 119.719 10640.236 205.869 12822.010 931.247 562.898 269.385 1934.378 145.736 1062.104 149.300 2713.417 669.159 11510.451 413.078 114.759 13692.246 942.366 876.359 1060.448 1460.862 5692.574 1947.944 218.027 4280.228 546.431 0.000 7500.537 207.475 3905.743 158.286 537.324 3439.845 10685.074 196.741 292.857 12900.409 7204.433 1029.800 1127.674 8014.814 7360.120 2801.867 5991.201 878.792 9967.189 7555.700 2750.636 4762.380 5087.254 2037.072 12851.701 551.480 397.139 304.727 282.851 1517.662 4616.432 768.533 8126.120 9506.590 4662.033 6114.318 306.607 9483.076 1821.330 116.872 240.161 1020.930 1087.615 4429.839 3720.864 191.842 4303.827 554.753 128.336 3658.884 271.008 1128.585 340.346 8098.655 154.766 1259.812 328.903 5436.123 415.280 286.748 2263.296 835.085 6406.725 12869.919 7328.799 6684.932 97.159 2744.012 129.343 5483.381 2158.551 286.702 9441.998 4322.284 4546.893 755.838 2767.693 1839.990 6579.451 1989.991 264.884 3787.987 13571.959 12633.566 2414.887 605.865 216.507 2190.788 4493.110 798.663 2803.436 3773.490 3053.197 782.537 7044.606 813.016 2086.816 3537.439 876.041 1806.979 250.455 1055.256 4257.157 491.049 5691.241 2723.845 2207.598 1352.794 4334.481 5228.582 2632.044 2856.278 1009.832 2413.996 1238.036 1778.789 5755.883 3925.320 4443.367 37.212 7590.881 561.668 4485.057 9739.266 616.886 4584.602 1069.256 4614.916 6836.911 1600.261 1227.085 1326.475 9872.214 1644.208 5012.166 2896.132 808.991 749.800 1211.629 522.684 13690.761 6104.897 7697.412 2606.470 944.246 215.057 5195.616 978.188 7477.673 3488.966 306.910 416.875 9123.275 8259.811 3692.299
6297.942 8318.982 7476.124 3173.570 7393.116 6553.641 6754.812 7772.767 7345.470 6980.744 7588.780 6983.940 7375.529 5937.511 7924.122 16782.574 7433.917 7604.729 7097.475 7798.057 6966.493 7231.554 6518.470 11752.293 5966.502 7453.312 10092.494 7950.293 7500.537 0.000 7508.457 6014.900 7420.452 7850.670 8034.688 15795.147 7665.877 7793.393 9378.589 8011.505 8194.278 6390.793 8621.688 153.448 5009.097 10821.424 8117.122 9765.987 10967.506 6670.133 10259.026 10592.473 5557.517 9825.384 7793.028 7735.812 7541.292 7717.191 6456.618 7326.010 6772.436 8911.942 2092.538 10006.776 11258.046 7336.554 2087.284 6685.326 7574.450 7523.200 8497.115 7984.842 11170.292 5653.114 7403.743 10176.993 7795.741 7616.641 5491.749 7671.495 7712.910 7160.289 8635.345 7347.795 8091.387 7171.701 10364.586 7091.859 7332.743 8524.150 7360.387 5786.653 5865.344 10092.167 12841.554 7455.008 5879.330 7500.079 2933.600 6196.933 7647.646 12228.475 10193.803 3555.264 8000.869 4774.408 6460.455 13653.415 8818.620 7237.519 5557.042 8704.164 9654.816 8802.980 7609.811 7556.260 8480.609 5977.205 7376.380 6839.193 9526.128 7297.199 8221.250 12786.836 8137.963 5416.379 10660.575 8203.618 5709.990 7268.983 6445.545 10121.529 7587.803 12292.162 5087.086 8488.471 8479.051 9600.334 10381.241 5029.256 5968.368 7800.515 6096.853 8427.511 8752.525 11808.449 4133.440 7055.438 7518.294 8393.289 8009.504 10239.752 2312.914 7993.955 10314.649 6813.556 10042.161 12665.558 6465.441 8541.075 8505.401 9708.564 6444.022 10212.166 5817.886 8136.462 8091.720 6742.869 7998.152 7109.295 12206.614 11008.669 7886.954 6643.480 7693.421 10698.831 6734.730 12264.793 5129.895 7744.022 7210.161 4266.072 4721.773 10047.948
1836.652 1408.017 325.842 10658.024 119.210 12907.424 835.827 386.474 455.667 1747.286 334.358 897.892 316.516 2572.459 841.112 11683.136 214.867 187.276 13768.325 1142.889 1046.060 868.460 1330.749 5860.057 1847.061 55.503 4466.805 452.371 207.475 7508.457 0.000 3745.566 112.210 394.231 3647.129 10863.535 188.076 354.379 12755.888 7017.590 875.965 1117.700 7825.692 7369.819 2889.977 6189.373 734.404 9779.781 7762.435 2937.705 4954.018 5276.612 2104.953 12697.715 383.108 252.385 99.830 210.652 1391.065 4424.164 859.093 7934.113 9499.279 4857.687 6306.431 495.004 9474.336 2000.985 134.999 447.046 988.659 897.613 4288.250 3575.855 386.143 4488.270 386.547 188.377 3521.766 163.039 1334.338 398.761 7910.018 241.454 1450.244 396.533 5635.095 435.762 471.556 2458.351 636.011 6256.598 12925.850 7536.027 6842.814 297.401 2605.883 78.361 5559.487 2315.402 143.990 9649.183 4506.628 4624.987 605.750 2808.721 2005.379 6676.028 2158.486 358.690 3646.247 13455.192 12479.481 2602.123 811.209 420.105 2385.999 4663.025 598.732 2995.569 3966.155 3254.712 718.201 6868.842 956.931 2110.933 3648.209 1014.973 1847.795 383.533 1076.194 4442.279 286.239 5548.095 2656.823 2402.853 1508.338 4533.634 5424.776 2586.387 2709.864 808.267 2271.670 1098.406 1939.086 5923.269 4012.356 4255.541 240.485 7784.898 501.594 4671.746 9732.423 510.080 4771.266 1231.737 4809.118 6663.155 1465.307 1118.426 1187.850 9684.683 1508.575 5208.622 2757.538 689.425 633.077 1071.583 492.672 13767.360 6268.208 7490.003 2813.945 888.121 356.803 5384.361 876.859 7281.267 3374.168 236.757 584.341 9225.610 8382.969 3519.544
4334.438 5146.753 3984.839 9046.708 3700.689 12426.460 3035.720 3695.167 3992.473 2085.767 4051.478 2847.889 3897.501 1258.437 4574.898 15407.049 3539.976 3931.452 13068.599 4792.159 4186.081 2919.075 2476.225 9597.295 2173.745 3707.247 8141.613 3956.190 3905.743 6014.900 3745.566 0.000 3748.414 3813.582 6881.956 14566.085 3923.922 4088.545 9036.678 3512.987 3801.400 3183.416 4345.325 5927.645 4164.634 9739.061 3840.945 6232.214 11023.388 5647.240 8589.916 8928.149 3662.191 8955.172 3728.286 3803.228 3691.148 3898.183 2431.170 1436.216 3721.935 4519.471 7535.472 8455.668 9928.052 4018.904 7488.191 4839.056 3879.077 4110.131 4416.618 3488.961 5615.971 440.979 3981.505 8174.509 3728.491 3933.694 637.394 3846.391 4912.067 3703.792 4417.046 3795.416 5139.969 3722.139 9179.099 3612.963 3995.256 6100.950 3163.125 2531.887 11880.186 10581.076 10588.257 3947.236 1251.141 3802.401 5666.267 4744.476 3803.009 12826.204 8193.285 5020.041 3799.838 3517.758 4662.889 10260.897 5895.500 3778.593 501.473 9900.264 8736.848 6288.331 4445.505 4105.948 6029.061 6705.695 3200.620 5794.995 7603.315 6247.158 4152.683 6795.456 4702.391 3216.446 7322.894 4759.455 3374.625 3848.294 3355.873 8125.245 3578.648 6563.141 2087.552 6045.206 5253.427 8091.647 9009.908 2382.017 1091.290 3358.660 1530.406 3940.788 5682.856 9660.647 4764.576 1144.055 3942.530 10146.988 4052.272 8344.689 7759.536 3941.529 8443.796 4220.099 8422.954 6687.878 2332.066 4148.299 3971.836 6140.309 2288.292 8793.026 1114.680 3947.503 3943.555 2701.690 4103.065 13077.713 10010.628 5327.651 6166.021 3120.340 4099.644 9039.706 2982.886 6275.424 1137.767 3911.803 3982.411 9312.910 8971.991 4427.007
1724.930 1398.357 258.932 10566.969 47.735 12799.778 789.910 497.404 362.038 1777.797 303.619 903.909 221.186 2559.609 826.646 11668.673 269.935 204.921 13662.370 1095.457 939.477 906.400 1309.102 5850.391 1806.867 82.447 4437.740 555.874 158.286 7420.452 112.210 3748.414 0.000 505.679 3570.896 10843.316 247.498 397.844 12746.358 7047.321 988.086 1032.257 7858.235 7281.204 2781.257 6144.369 846.520 9810.159 7696.565 2835.735 4918.648 5244.149 1999.372 12695.593 494.999 362.913 203.298 299.750 1366.997 4461.010 748.389 7970.449 9416.790 4816.713 6270.369 401.546 9392.375 1896.252 161.057 388.358 1079.283 1002.050 4400.445 3566.304 300.843 4461.656 498.441 213.100 3506.296 260.913 1274.534 288.753 7941.946 132.097 1417.013 285.492 5588.778 333.919 376.608 2418.604 686.391 6251.255 12824.220 7458.775 6841.435 224.162 2590.932 80.016 5453.217 2204.900 251.092 9580.417 4480.125 4518.248 717.942 2709.750 1896.513 6715.982 2147.699 246.575 3634.221 13426.479 12477.438 2572.424 754.285 370.869 2346.049 4554.558 650.985 2896.530 3929.488 3164.168 816.684 6976.564 964.190 2016.193 3679.382 1025.796 1748.127 274.842 980.340 4414.896 381.983 5660.252 2598.764 2362.835 1508.005 4487.101 5382.949 2518.125 2701.242 903.876 2259.756 1210.508 1935.215 5913.692 3904.026 4286.580 195.468 7686.439 596.693 4642.539 9649.774 616.921 4742.085 1122.982 4770.256 6771.436 1447.352 1227.646 1299.942 9715.212 1491.165 5166.410 2742.977 799.291 742.338 1056.991 577.983 13661.305 6262.232 7566.295 2741.765 821.153 358.803 5352.653 834.774 7378.772 3343.456 326.982 479.863 9115.465 8271.046 3628.341
2222.862 1459.809 646.354 11007.634 509.890 13297.199 1111.189 118.418 806.440 1747.533 589.899 1030.058 680.853 2703.945 951.328 11690.508 416.906 436.988 14154.766 1330.396 1413.618 897.543 1517.776 5858.977 2073.538 439.833 4539.400 142.692 537.324 7850.670 394.231 3813.582 505.679 0.000 3891.275 10891.960 354.896 418.756 12848.288 6978.117 492.501 1469.897 7774.509 7713.756 3281.993 6312.981 343.470 9733.997 7959.325 3279.411 5046.875 5357.997 2492.281 12764.718 85.305 143.860 325.064 263.704 1582.834 4366.729 1253.266 7868.835 9825.278 4970.815 6397.748 842.932 9798.839 2356.286 420.453 730.212 678.805 591.666 3898.835 3686.905 727.723 4552.110 85.120 425.031 3652.721 266.371 1551.939 792.862 7860.952 629.038 1578.649 790.755 5764.801 823.871 823.905 2584.756 657.970 6342.408 13302.559 7775.613 6810.155 633.009 2743.726 445.747 5946.992 2694.283 258.389 9855.039 4569.985 5013.499 218.525 3182.041 2377.203 6500.381 2190.316 750.323 3765.020 13611.751 12546.343 2691.899 1047.747 689.080 2514.152 5030.153 622.542 3325.827 4068.202 3552.401 387.971 6510.558 983.355 2476.270 3513.898 1023.299 2224.317 766.296 1448.952 4509.050 276.105 5159.524 2924.772 2530.988 1523.560 4667.823 5539.023 2883.162 2825.839 573.520 2404.537 706.445 1952.041 5921.696 4403.653 4220.420 552.633 8107.003 238.715 4743.912 10058.797 149.312 4842.916 1605.682 4914.926 6301.880 1636.400 727.896 795.701 9638.444 1676.546 5324.925 2892.325 298.779 245.885 1251.094 296.569 14154.006 6253.030 7271.354 3048.471 1207.388 533.740 5462.708 1140.738 6972.434 3555.060 247.217 952.833 9619.189 8776.498 3157.370
2573.260 2645.589 3321.421 10782.440 3608.319 11704.123 3996.101 3963.670 3214.731 5239.749 3330.801 4338.618 3352.632 5626.759 2969.688 8980.521 3840.720 3496.735 12709.750 2566.843 2782.606 4437.735 4512.914 3733.444 4709.376 3648.637 2101.358 3812.151 3439.845 8034.688 3647.129 6881.956 3570.896 3891.275 0.000 8043.035 3562.114 3472.852 15413.783 10369.366 4319.152 3721.399 11198.818 7881.312 3362.567 3001.058 4165.380 13111.064 4168.646 1453.516 2224.792 2561.985 3382.930 15500.798 3941.692 3785.174 3744.283 3644.100 4538.592 7882.365 3236.370 11345.967 10116.169 1977.585 3334.574 3176.293 10116.379 2049.057 3536.265 3202.473 3868.072 4482.919 7320.009 6566.830 3270.086 2195.454 3944.293 3504.544 6436.052 3666.694 2339.568 3441.338 11275.617 3457.451 2397.403 3426.549 2467.082 3507.772 3202.526 1630.236 4246.326 9151.640 12268.215 3889.047 4815.732 3351.564 5631.081 3568.783 5208.849 2266.520 3699.651 6027.894 2210.257 4479.424 4079.563 3947.941 2246.075 6034.313 2301.118 3401.047 6597.204 15672.308 15286.942 1773.759 2850.137 3234.682 1667.927 2483.263 4213.643 1271.951 1588.168 765.010 3869.340 10188.262 3029.824 3819.790 3577.433 3028.773 3577.198 3337.808 3549.540 2142.623 3929.588 8533.453 5016.459 1656.826 2700.238 1567.801 2406.326 4758.853 5796.857 4438.493 5376.008 4443.352 2489.275 3787.303 3926.349 7667.492 3408.451 4464.080 3751.082 2225.582 10327.111 3881.241 2293.037 2698.112 2008.260 9963.066 4648.209 4309.873 4512.368 13018.516 4687.231 2215.497 5768.256 4043.728 3994.122 4365.190 3670.543 12699.155 4183.974 11136.814 845.105 3856.713 3362.780 2670.493 4046.159 10825.744 6074.543 3652.848 3139.152 7890.054 6692.193 6886.301
10511.401 9458.456 10596.081 18142.514 10890.740 17670.659 11530.365 11004.901 10576.388 12608.260 10540.527 11745.709 10677.577 13328.185 10022.464 1009.011 11077.114 10676.505 18752.478 9775.720 10415.024 11728.098 12089.860 5055.236 12448.758 10894.584 6425.955 10758.013 10685.074 15795.147 10863.535 14566.085 10843.316 10891.960 8043.035 0.000 10699.472 10544.274 23396.861 17869.388 11094.885 11428.222 18665.968 15645.374 11404.784 5053.319 10991.792 20625.862 5117.324 9494.589 6004.578 5657.150 11370.314 23432.781 10972.718 10860.920 10932.806 10743.328 12135.512 15258.485 10868.931 18754.746 17803.141 6175.665 4721.544 10548.837 17815.494 9977.443 10728.577 10467.999 10446.470 11382.320 12458.318 14328.836 10591.890 6391.581 10973.579 10676.610 14231.919 10790.109 9655.551 10863.763 18752.697 10782.587 9432.461 10845.481 5576.036 10953.896 10572.894 8466.576 11487.326 17003.237 18827.593 6141.315 4266.626 10633.654 13347.664 10798.538 12863.133 10286.469 10833.453 4997.128 6372.802 12320.356 10980.169 11985.148 10203.284 6193.500 8710.573 10790.774 14379.944 23715.339 23216.337 8279.338 10123.519 10476.536 8538.161 9818.770 11448.970 9313.315 6976.745 8803.067 10638.803 15267.381 9925.979 11782.942 7749.626 9877.482 11506.842 10720.722 11261.071 6440.985 11076.414 13222.118 12937.556 8522.151 9373.835 6572.264 5661.808 12707.219 13486.344 11442.286 13041.128 11070.481 8942.210 4994.287 11855.231 15108.954 10647.871 8477.203 10664.141 6223.913 17992.881 10795.863 6125.248 10417.916 6189.802 15029.572 12234.019 10858.080 11089.719 20530.277 12277.802 5869.467 13497.095 10861.651 10842.159 11869.360 10596.557 18730.495 4707.795 17673.404 8550.872 11451.514 10507.130 5543.587 11583.202 16549.534 13944.308 10735.555 10583.832 14285.410 12936.637 12759.162
1888.420 1241.024 294.284 10810.629 282.024 13015.362 1021.856 403.987 458.665 1908.795 237.372 1078.450 346.038 2757.578 683.862 11514.439 383.992 84.791 13883.618 1021.077 1066.441 1028.721 1518.235 5688.542 2034.663 238.835 4312.287 349.994 196.741 7665.877 188.076 3923.922 247.498 354.896 3562.114 10699.472 0.000 167.142 12939.041 7175.566 843.951 1279.323 7980.812 7526.345 2994.981 6051.990 690.148 9936.717 7655.125 2924.521 4805.855 5125.164 2224.762 12877.673 385.569 226.259 234.269 91.435 1578.795 4576.073 959.546 8085.368 9663.901 4716.012 6158.460 493.352 9639.575 2002.947 92.753 376.558 838.564 931.028 4235.864 3759.642 378.747 4331.328 388.514 71.735 3707.379 104.905 1229.287 514.607 8065.725 328.065 1306.532 506.483 5499.628 574.756 476.351 2318.171 788.372 6438.356 13055.625 7450.090 6665.855 285.907 2791.565 167.545 5674.393 2350.861 142.292 9546.426 4349.567 4738.254 571.215 2946.746 2029.548 6488.076 1990.159 449.572 3830.839 13642.961 12659.406 2450.232 711.977 336.851 2246.255 4678.905 750.103 2971.383 3820.118 3203.940 589.137 6864.964 780.221 2258.112 3460.418 835.755 1985.015 445.096 1222.632 4286.109 389.235 5497.453 2839.792 2263.147 1334.004 4399.120 5283.815 2763.756 2893.590 876.669 2456.637 1045.851 1766.098 5751.678 4118.501 4413.264 203.295 7754.096 367.382 4517.254 9896.854 421.266 4616.695 1261.334 4664.984 6655.889 1652.149 1030.395 1133.768 9841.484 1695.288 5068.239 2943.074 614.091 554.752 1258.141 336.255 13882.255 6094.134 7583.316 2722.645 1065.593 205.988 5232.077 1063.741 7321.166 3562.179 112.224 610.940 9319.087 8456.509 3511.556
1926.885 1087.158 339.240 10932.742 438.230 13093.307 1183.738 502.002 501.331 2065.259 236.630 1244.542 426.190 2924.631 544.611 11356.109 548.988 194.772 13968.501 912.110 1089.162 1186.446 1685.073 5528.675 2198.558 403.061 4164.847 352.526 292.857 7793.393 354.379 4088.545 397.844 418.756 3472.852 10544.274 167.142 0.000 13105.517 7327.910 872.649 1417.298 8131.167 7652.971 3075.871 5917.216 715.104 10088.138 7544.077 2899.957 4663.097 4979.774 2321.372 13042.835 475.923 330.547 397.398 199.819 1745.444 4724.911 1051.441 8233.082 9798.696 4578.365 6015.443 527.986 9775.033 1996.501 237.351 364.291 738.899 1010.322 4218.571 3926.381 424.905 4182.048 478.132 185.143 3874.488 246.033 1133.353 633.151 8216.466 446.288 1173.303 621.736 5366.560 705.486 518.338 2184.163 943.736 6604.357 13154.658 7356.860 6502.571 349.670 2958.685 321.326 5761.083 2371.962 289.561 9438.649 4200.192 4824.129 613.015 3058.107 2042.612 6323.543 1833.757 556.829 3997.778 13809.562 12824.555 2306.264 635.193 319.345 2112.777 4676.351 905.344 2936.909 3679.520 3145.315 528.411 6888.756 619.702 2379.460 3293.855 672.885 2098.157 533.472 1348.053 4137.428 533.174 5480.211 2996.601 2129.662 1173.896 4267.363 5146.489 2914.097 3060.337 982.277 2623.670 1049.161 1606.436 5591.756 4198.438 4565.948 277.188 7707.920 324.062 4369.756 10031.422 426.819 4469.102 1287.890 4525.424 6676.833 1819.223 998.837 1133.505 9992.820 1862.385 4931.455 3110.179 613.888 556.231 1425.252 261.327 13966.756 5932.607 7687.924 2629.809 1218.609 139.704 5086.021 1226.736 7382.332 3728.319 196.129 658.404 9384.091 8503.300 3535.787
12889.253 14134.576 12967.158 9948.620 12699.106 14453.317 11988.507 12729.943 12949.400 11119.929 13044.978 11861.141 12872.017 10186.995 13565.094 24286.986 12557.114 12938.521 14419.426 13731.476 13015.652 11951.722 11440.994 18547.150 11008.350 12713.615 17005.059 12990.976 12900.409 9378.589 12755.888 9036.678 12746.358 12848.288 15413.783 23396.861 12939.041 13105.517 0.000 6616.216 12826.988 12011.973 6189.738 9462.203 12118.175 18406.444 12874.099 4967.720 19274.413 13994.529 17395.747 17745.513 12040.194 842.827 12762.990 12832.172 12709.395 12920.382 11386.351 8880.526 12577.354 6342.460 8605.851 17221.381 18683.054 12970.501 8540.609 13424.259 12886.697 13086.306 13451.198 12513.711 13748.473 9180.358 12951.208 17051.873 12763.288 12942.110 9244.291 12867.520 13813.085 12660.062 6100.968 12776.656 14088.593 12678.425 17858.882 12566.533 12949.214 14986.303 12194.562 6505.897 12822.672 18595.336 19571.813 12930.133 10157.046 12806.776 11691.690 13147.424 12824.613 20864.412 17070.857 11757.531 12836.036 11484.683 13202.354 19276.233 14873.141 12741.131 9112.468 2374.004 885.717 15204.568 13395.314 13088.352 14917.242 14288.881 12231.594 14171.067 16436.958 14677.931 13189.245 13253.551 13709.746 11618.295 16359.533 13769.791 11890.445 12808.344 12172.867 16999.292 12607.607 14202.284 10460.418 14932.294 14252.912 16827.306 17743.538 10690.077 10046.138 12391.036 10486.603 12950.148 14675.336 18610.521 11989.974 8893.964 12936.229 17378.403 13086.799 17201.709 8630.713 12977.738 17298.316 12994.683 17207.537 13303.315 11300.440 13163.007 12972.178 5021.659 11256.416 17532.642 10004.875 12982.903 12979.904 11689.371 13135.532 14448.647 18975.811 9490.802 14848.070 12034.310 13103.607 17859.648 11937.636 11744.609 9476.243 12935.617 12911.327 13516.479 14100.130 12674.360
7840.925 8415.011 7301.352 10491.059 7000.685 14539.988 6427.713 6864.692 7342.827 5270.596 7346.611 6156.653 7228.830 4750.393 7857.130 18665.689 6802.870 7203.440 14986.390 8136.552 7625.981 6149.422 5881.514 12834.377 5666.085 6990.305 11484.138 7113.186 7204.433 8011.505 7017.590 3512.987 7047.321 6978.117 10369.366 17869.388 7175.566 7327.910 6616.216 0.000 6807.925 6649.806 832.380 7983.051 7629.964 13164.604 6897.187 2763.018 14524.674 9159.536 11964.292 12291.387 7172.081 6276.330 6896.961 7008.947 6943.721 7128.374 5848.228 2616.446 7160.860 1028.719 8823.901 11853.176 13314.638 7374.418 8760.239 8337.186 7151.942 7431.238 7460.917 6508.223 7152.050 3884.092 7316.298 11505.753 6896.139 7202.405 4050.643 7082.624 8288.387 7065.386 906.384 7120.885 8464.237 7083.031 12605.338 6980.980 7348.935 9462.165 6387.277 2226.178 13588.948 14093.988 13760.772 7264.277 4751.279 7085.836 8673.657 8257.194 7039.517 16336.783 11524.083 8211.870 6898.338 6964.532 8168.289 13048.226 9160.307 7130.027 3882.881 8167.686 6066.914 9618.955 7788.915 7417.812 9389.547 10163.808 6425.502 9305.893 10974.413 9752.359 7246.072 6806.220 7944.680 6723.985 10334.699 7992.290 6887.608 7200.143 6822.265 11459.865 6794.960 7591.104 5561.755 9406.217 8495.873 11507.407 12416.071 5855.380 4579.115 6434.445 4993.515 6868.366 8927.236 12896.862 8084.936 2762.327 7241.537 13598.073 7207.709 11689.042 9004.162 7077.734 11788.578 7682.361 11811.232 6820.784 5740.845 7086.445 6866.116 2668.246 5699.621 12198.891 4622.555 7024.066 7038.963 6066.853 7274.000 15002.787 13220.793 3490.665 9626.236 6542.309 7371.924 12399.974 6375.136 5499.870 4511.226 7135.365 7362.013 11972.853 11902.572 6119.568
2711.932 1778.494 1137.517 11361.022 984.512 13739.776 1446.196 495.237 1298.783 1718.716 1073.620 1233.124 1172.937 2794.363 1349.935 11868.182 829.596 927.565 14586.504 1753.534 1906.119 1016.235 1728.057 6043.273 2301.354 914.725 4811.994 520.172 1029.800 8194.278 875.965 3801.400 988.086 492.501 4319.152 11094.885 843.951 872.649 12826.988 6807.925 0.000 1869.741 7587.468 8060.557 3738.237 6627.362 157.547 9548.254 8338.288 3765.188 5336.545 5634.293 2936.777 12711.277 493.502 634.554 791.721 752.613 1794.026 4192.159 1726.790 7664.887 10138.857 5280.926 6679.489 1335.033 10109.972 2846.892 912.936 1214.051 653.025 313.283 3412.639 3731.019 1219.834 4815.622 490.059 915.166 3722.673 758.872 1986.108 1268.646 7676.139 1115.969 1952.773 1268.794 6087.150 1286.442 1316.280 2930.860 840.690 6329.979 13709.467 8191.157 6952.993 1125.256 2840.996 934.750 6385.157 3186.155 748.608 10239.586 4832.859 5455.570 273.977 3594.141 2869.701 6459.528 2458.805 1234.646 3817.752 13673.492 12493.021 3003.352 1506.158 1171.252 2863.015 5522.210 820.887 3806.963 4373.851 4016.487 479.127 6022.474 1320.390 2879.101 3557.286 1341.125 2648.386 1255.674 1876.598 4775.918 660.090 4672.193 3183.934 2879.530 1805.594 4999.759 5847.328 3181.575 2893.578 457.068 2506.005 238.765 2210.437 6105.085 4855.580 4074.661 1044.378 8580.568 569.203 5014.569 10372.736 446.400 5112.361 2097.975 5218.214 5812.618 1820.449 371.230 325.230 9452.364 1854.412 5636.258 2981.960 276.311 325.244 1475.782 649.222 14586.352 6419.019 6899.082 3474.065 1579.977 1003.923 5735.325 1462.029 6516.490 3690.551 732.831 1445.156 10079.878 9253.839 2668.795
1285.920 2205.987 1128.224 9541.948 1002.996 11879.918 487.911 1404.574 1035.668 1638.009 1237.074 890.081 1022.133 1925.536 1678.922 12293.429 1058.024 1224.083 12719.237 1743.436 1013.503 1127.039 822.011 6536.616 1022.314 1062.523 5007.048 1561.563 1127.674 6390.793 1117.700 3183.416 1032.257 1469.897 3721.399 11428.222 1279.323 1417.298 12011.973 6649.806 1869.741 0.000 7478.394 6252.294 1928.870 6557.030 1765.481 9397.393 7885.288 2620.825 5430.554 5774.011 1112.380 12012.322 1420.561 1348.157 1153.135 1326.867 834.095 4175.718 565.528 7624.627 8384.581 5284.436 6758.257 1041.915 8360.268 1716.535 1189.496 1208.217 2106.340 1737.999 5199.758 2907.708 1072.321 5048.640 1423.554 1235.158 2804.136 1280.730 1802.804 792.167 7555.782 972.910 2101.403 806.605 5997.237 712.421 1028.365 2975.981 1120.552 5575.085 11842.058 7515.403 7572.945 1100.154 1937.230 1112.232 4525.086 1779.115 1257.100 9722.367 5067.596 3601.663 1640.824 1724.402 1587.210 7655.015 2903.404 876.295 2954.190 12573.530 11795.227 3193.095 1432.105 1230.300 2906.337 4091.988 1118.973 2739.167 4451.629 3138.790 1831.861 7567.052 1872.777 1010.433 4597.697 1940.307 789.177 923.361 172.777 4997.109 1221.757 6441.195 1643.918 2921.579 2348.595 4913.714 5833.871 1518.535 2092.205 1567.823 1660.208 2108.478 2736.337 6599.933 3021.490 3951.672 1150.863 7419.299 1618.757 5207.061 8617.545 1608.837 5305.095 1036.931 5256.426 7378.058 944.113 2184.783 2194.362 9304.321 979.350 5617.480 2082.380 1763.913 1714.805 768.569 1608.449 12719.353 6968.841 7649.974 2983.801 308.709 1334.655 5886.888 506.703 7762.822 2536.235 1353.585 945.796 8251.001 7487.833 4287.500
8672.865 9218.183 8113.417 10963.757 7811.871 15110.766 7249.741 7662.263 8158.533 6080.465 8156.147 6971.791 8042.730 5582.054 8663.617 19453.732 7610.835 8010.858 15515.858 8949.851 8451.061 6957.235 6705.915 13624.294 6497.329 7799.703 12292.248 7907.990 8014.814 8621.688 7825.692 4345.325 7858.235 7774.509 11198.818 18665.968 7980.812 8131.167 6189.738 832.380 7587.468 7478.394 0.000 8603.478 8455.766 13984.228 7681.773 1960.978 15355.635 9991.909 12776.766 13101.885 8003.833 5766.590 7694.259 7809.788 7750.001 7931.408 6673.649 3407.839 7986.312 301.372 9291.679 12669.229 14128.060 8190.622 9226.029 9168.250 7959.643 8243.458 8240.222 7291.728 7714.727 4714.516 8130.351 12312.138 7693.329 8009.460 4879.444 7886.528 9105.283 7882.950 95.379 7934.445 9274.379 7900.481 13425.317 7799.411 8164.994 10275.404 7193.197 2863.327 14084.918 14926.356 14538.675 8076.507 5583.279 7894.936 9434.024 9089.572 7843.635 17168.976 12330.379 9000.505 7687.749 7788.725 9000.106 13762.098 9961.117 7946.357 4711.643 7922.703 5565.398 10427.813 8602.826 8229.025 10202.790 10987.026 7231.294 10138.174 11787.282 10584.055 8032.681 7077.924 8746.037 7555.455 11095.267 8792.319 7719.951 8016.349 7650.724 12266.811 7597.993 8050.442 6390.393 10219.506 9295.501 12326.397 13233.080 6683.631 5410.716 7224.693 5823.526 7638.114 9725.893 13686.551 8891.257 3571.972 8051.836 14418.720 8001.830 12497.211 9460.135 7870.348 12596.710 8509.813 12625.928 7119.353 6565.842 7855.520 7631.896 1865.164 6524.909 13015.983 5454.851 7810.118 7827.106 6887.376 8069.584 15533.633 14005.763 3467.986 10452.397 7366.918 8178.785 13209.921 7197.303 5639.370 5335.888 7937.625 8180.887 12659.169 12636.364 6736.129
6148.903 8172.183 7334.747 3302.563 7254.215 6602.662 6619.764 7636.663 7203.266 6861.048 7447.417 6852.719 7234.439 5825.626 7779.822 16632.383 7297.124 7464.709 7165.736 7651.320 6820.751 7101.216 6389.462 11598.847 5839.676 7314.732 9939.069 7812.483 7360.120 153.448 7369.819 5927.645 7281.204 7713.756 7881.312 15645.374 7526.345 7652.971 9462.203 7983.051 8060.557 6252.294 8603.478 0.000 4858.849 10669.721 7982.146 9774.241 10823.344 6516.799 10105.675 10439.192 5411.884 9899.192 7656.683 7598.134 7403.495 7578.298 6327.921 7250.044 6629.972 8892.278 2245.469 9853.499 11105.720 7194.048 2240.540 6534.427 7434.791 7380.866 8358.452 7853.373 11051.674 5560.524 7261.976 10023.585 7659.415 7476.675 5396.734 7532.857 7564.929 7019.954 8618.802 7207.594 7943.521 7031.239 10212.245 6952.096 7190.442 8372.644 7227.763 5760.455 5954.464 9950.948 12688.106 7313.885 5767.565 7360.760 2785.097 6045.442 7509.328 12091.917 10040.393 3401.890 7865.377 4629.562 6309.909 13502.478 8669.190 7096.846 5465.449 8817.187 9726.757 8651.527 7464.912 7414.160 8329.275 5827.951 7243.388 6685.808 9372.760 7143.752 8083.338 12690.934 7993.796 5275.043 10511.330 8059.342 5567.420 7127.778 6305.384 9968.124 7451.674 12178.468 4962.609 8337.091 8332.294 9447.009 10228.406 4899.803 5859.528 7669.073 5980.547 8294.250 8604.120 11655.002 3980.165 6977.472 7377.605 8265.284 7871.049 10086.305 2465.313 7856.667 10161.202 6666.944 9888.818 12567.711 6338.198 8406.156 8372.537 9715.615 6317.302 10059.162 5708.689 8000.307 7955.225 6612.048 7859.037 7176.878 12053.167 10951.714 7733.937 6506.835 7552.226 10545.580 6600.221 12185.352 5027.221 7605.170 7067.330 4227.230 4642.445 9933.104
1304.551 3361.951 2736.645 8040.023 2772.474 10020.385 2415.083 3247.116 2577.865 3376.186 2843.060 2802.599 2655.464 3070.995 3049.564 12342.707 2908.993 2916.461 10892.781 2848.242 2068.644 3050.318 2562.180 6909.047 2321.030 2842.301 5249.510 3334.793 2801.867 5009.097 2889.977 4164.634 2781.257 3281.993 3362.567 11404.784 2994.981 3075.871 12118.175 7629.964 3738.237 1928.870 8455.766 4858.849 0.000 6356.448 3612.534 10262.466 7185.527 1910.218 5516.197 5866.221 816.512 12251.931 3254.659 3142.203 2958.801 3070.881 2534.846 5468.301 2036.074 8652.668 7091.651 5296.169 6695.694 2556.241 7079.902 1680.628 2904.362 2739.952 3814.629 3648.735 7118.979 3758.663 2651.673 5322.636 3258.005 2929.961 3583.371 3039.894 2732.598 2492.577 8519.900 2670.409 3111.276 2496.900 5828.870 2458.562 2561.656 3526.585 3046.369 6061.948 10103.104 6596.821 7999.372 2728.041 3045.309 2851.050 2687.914 1212.320 3032.258 8875.101 5340.686 1750.997 3483.032 675.608 1452.254 8646.111 3813.422 2547.122 3750.570 12311.074 12041.332 3803.831 2722.698 2781.101 3479.777 2541.223 3042.127 2091.470 4665.783 2601.849 3583.937 9474.284 3262.556 1083.184 5656.158 3323.010 1157.084 2551.414 1876.547 5266.659 3078.434 8365.536 2077.902 3488.436 3521.685 4884.916 5762.583 1783.063 3229.644 3486.130 2947.658 3972.632 3760.088 6968.818 1123.520 5197.360 2806.354 5982.472 3362.347 5419.882 7316.864 3398.002 5505.552 1887.535 5307.426 9290.202 2619.563 4008.401 4061.489 10174.977 2632.616 5565.013 3132.795 3579.235 3523.050 2632.666 3323.771 10890.959 7364.499 9224.437 2986.730 2237.419 2948.940 5979.030 2428.101 9574.831 3120.120 3097.529 2423.174 6341.824 5559.313 6215.040
5527.627 4859.468 5886.097 13346.106 6189.347 13536.602 6737.948 6413.280 5829.628 7915.485 5855.105 7015.623 5949.984 8482.242 5372.793 6008.038 6402.641 6009.917 14597.474 5049.039 5553.954 7050.769 7288.768 1977.557 7575.448 6208.977 1887.399 6196.408 5991.201 10821.424 6189.373 9739.061 6144.369 6312.981 3001.058 5053.319 6051.990 5917.216 18406.444 13164.604 6627.362 6557.030 13984.228 10669.721 6356.448 0.000 6495.783 15925.170 2151.920 4446.885 1331.102 1132.280 6366.706 18478.617 6384.147 6247.541 6273.519 6114.264 7325.849 10601.054 6019.155 14106.819 12865.691 1346.585 545.913 5796.536 12873.190 4992.869 6058.987 5756.162 6028.934 6871.694 8899.996 9458.734 5862.179 1920.614 6385.818 6013.295 9343.093 6152.795 4881.566 6101.969 14065.727 6058.953 4745.671 6084.561 560.048 6184.914 5822.420 3733.886 6825.074 12092.802 14414.215 2696.560 2670.269 5922.161 8494.202 6115.984 7907.120 5262.021 6193.608 3935.274 1907.889 7303.845 6450.090 6948.994 5208.815 4895.486 4175.173 6040.273 9498.992 18667.163 18263.825 3626.263 5391.885 5774.831 3805.739 4888.302 6788.018 4266.139 2253.809 3755.274 6148.443 11862.672 5333.247 6793.730 4089.524 5300.521 6533.564 5970.585 6385.113 1942.744 6441.209 9955.347 7975.235 3788.847 4821.803 1658.451 783.360 7729.133 8647.899 6886.193 8210.556 6670.314 4425.278 1983.702 6815.410 10415.270 5954.843 4729.822 6111.847 1708.511 13064.787 6250.031 1626.075 5522.403 1414.107 11624.124 7431.152 6481.939 6713.899 15831.014 7473.383 991.234 8638.622 6362.502 6328.438 7097.752 6034.822 14580.982 2224.170 13505.003 3588.746 6630.510 5847.420 1078.923 6790.683 12815.881 9013.987 6113.241 5803.351 9868.189 8544.356 8821.804
2566.326 1640.547 984.296 11280.593 846.747 13621.723 1362.382 366.333 1146.962 1755.204 917.731 1189.487 1023.759 2799.060 1197.373 11771.965 711.710 774.299 14473.544 1598.987 1754.893 994.652 1688.090 5943.570 2259.100 776.509 4689.251 362.626 878.792 8117.122 734.404 3840.945 846.520 343.470 4165.380 10991.792 690.148 715.104 12874.099 6897.187 157.547 1765.481 7681.773 7982.146 3612.534 6495.783 0.000 9642.751 8193.406 3608.812 5210.111 5511.156 2816.152 12768.100 357.969 487.171 655.805 599.123 1754.291 4280.743 1591.142 7763.903 10073.426 5149.793 6555.492 1182.669 10045.446 2692.469 762.148 1057.998 578.365 390.543 3555.487 3752.838 1067.590 4695.050 354.605 761.671 3736.274 608.691 1830.630 1131.161 7769.854 971.857 1805.459 1130.142 5953.619 1155.167 1164.542 2790.282 792.793 6372.314 13607.441 8039.709 6864.996 973.371 2843.646 788.987 6268.635 3037.020 601.742 10093.802 4712.452 5337.070 129.656 3487.915 2718.499 6425.654 2333.741 1092.358 3837.005 13694.830 12549.774 2869.974 1348.720 1014.950 2721.813 5369.052 767.262 3649.851 4243.178 3859.117 354.216 6178.638 1176.660 2775.895 3494.375 1200.856 2536.268 1109.719 1761.595 4654.513 544.385 4816.088 3133.765 2738.411 1675.159 4863.704 5716.852 3117.684 2905.850 483.170 2506.060 364.007 2086.873 6005.658 4732.287 4154.782 891.849 8423.022 414.311 4892.423 10307.209 288.965 4990.566 1947.979 5088.590 5968.344 1789.796 424.036 453.463 9546.933 1826.033 5505.012 2987.503 133.462 172.589 1428.634 494.852 14473.113 6324.427 7040.385 3320.378 1484.252 846.670 5613.116 1382.965 6672.778 3682.923 578.419 1295.255 9952.669 9117.124 2824.964
10565.982 11175.290 10064.328 11716.653 9763.560 16066.170 9187.332 9621.403 10105.602 8033.109 10109.204 8919.578 9991.830 7484.495 10618.838 21414.706 9565.002 9965.428 16357.985 10899.567 10381.237 8911.445 8638.662 15585.153 8401.936 9752.845 14246.539 9867.881 9967.189 9765.987 9779.781 6232.214 9810.159 9733.997 13111.064 20625.862 9936.717 10088.138 4967.720 2763.018 9548.254 9397.393 1960.978 9774.241 10262.466 15925.170 9642.751 0.000 17255.360 11870.089 14727.310 15054.285 9863.580 4361.650 9653.484 9767.799 9705.275 9888.466 8603.851 5367.382 9915.683 1906.978 10067.328 14615.659 16077.605 10137.081 9998.448 11070.917 9914.019 10194.227 10200.941 9252.703 9508.090 6573.339 10079.289 14267.608 9652.585 9964.268 6725.040 9843.149 11050.785 9827.661 1873.314 9883.899 11227.001 9845.347 15365.676 9742.910 10111.634 12225.173 9148.629 4339.063 14853.489 16794.761 16498.839 10027.264 7481.339 9848.309 10980.809 10966.157 9800.141 19050.100 14285.905 10644.683 9648.482 9588.684 10894.684 15688.266 11919.329 9892.675 6558.308 7057.157 4192.053 12381.489 10551.907 10180.705 12152.556 12769.680 9186.806 12021.610 13737.427 12478.648 9993.620 8489.229 10703.930 9412.262 13050.893 10750.744 9595.334 9962.817 9570.119 14221.913 9555.014 9713.775 8225.316 12169.224 11254.116 14268.544 15178.186 8514.312 7314.235 9185.302 7737.701 9597.416 11684.875 15647.427 10602.461 5524.244 10004.280 16178.611 9961.876 14451.465 10202.909 9830.666 14550.993 10432.534 14574.047 8570.707 8497.211 9814.617 9590.246 96.009 8455.559 14960.981 7346.882 9771.072 9787.954 8827.784 10029.307 16379.245 15966.706 4622.057 12378.615 9298.814 10133.732 15162.794 9134.642 6890.521 7153.949 9895.044 10123.671 13955.426 14074.810 8592.946
6689.454 6567.447 7440.532 13108.387 7737.051 12588.338 8163.495 8045.469 7349.834 9402.753 7434.343 8498.616 7483.720 9775.076 7009.606 6124.513 7965.576 7598.424 13668.669 6634.950 6949.234 8583.809 8681.303 4055.306 8858.667 7770.626 3909.501 7860.987 7555.700 10967.506 7762.435 11023.388 7696.565 7959.325 4168.646 5117.324 7655.125 7544.077 19274.413 14524.674 8338.288 7885.288 15355.635 10823.344 7185.527 2151.920 8193.406 17255.360 0.000 5403.231 3370.949 3253.875 7424.583 19432.735 8019.982 7869.863 7855.937 7729.944 8706.331 12050.980 7404.831 15508.187 12897.328 3279.856 2534.598 7312.622 12916.256 6187.499 7642.418 7315.577 7795.508 8544.419 10906.227 10689.139 7398.292 3966.449 8022.207 7604.536 10547.217 7759.765 6429.092 7592.075 15431.021 7591.202 6388.981 7576.489 2499.274 7662.975 7339.077 5414.544 8380.870 13203.162 13710.840 1030.358 4491.459 7473.285 9776.030 7684.890 8053.639 6303.812 7796.528 1905.716 3957.452 7669.759 8126.273 7844.692 6360.681 6921.691 5973.773 7545.671 10711.650 19281.902 19223.093 5385.429 6951.968 7343.001 5480.127 5077.709 8346.499 5243.668 4114.556 4777.028 7864.668 13864.792 7017.906 7875.458 6193.467 6998.800 7669.087 7479.901 7714.178 3975.233 8036.824 12006.675 9079.795 5463.915 6566.031 3427.858 2812.804 8803.967 9946.123 8525.870 9532.910 8420.696 6218.337 4048.390 7324.330 11834.902 7521.955 3398.590 7787.077 3762.799 13073.386 7923.683 3696.492 6866.531 3376.350 13628.620 8816.095 8253.330 8476.559 17163.613 8854.835 2965.333 9908.870 8063.614 8021.159 8532.558 7706.742 13647.795 4203.801 15229.842 4962.892 8025.346 7450.110 3217.243 8213.837 14719.747 10153.966 7734.530 7287.948 9168.762 7820.364 10719.576
1342.339 2509.869 2635.598 9524.452 2858.937 10844.087 3004.686 3313.479 2484.192 4246.734 2691.730 3399.647 2621.360 4417.239 2544.252 10433.939 3083.521 2843.013 11805.642 2158.725 1903.615 3563.650 3442.832 5090.577 3513.048 2918.068 3426.754 3249.585 2750.636 6670.133 2937.705 5647.240 2835.735 3279.411 1453.516 9494.589 2924.521 2899.957 13994.529 9159.536 3765.188 2620.825 9991.909 6516.799 1910.218 4446.885 3608.812 11870.089 5403.231 0.000 3639.812 3985.799 2021.468 14101.652 3301.739 3145.055 3036.380 3015.813 3452.782 6769.680 2265.753 10158.949 8760.909 3407.835 4788.025 2445.553 8757.266 950.107 2865.468 2551.212 3509.288 3835.089 7083.146 5297.003 2559.076 3509.126 3304.973 2854.651 5149.760 3017.610 1930.756 2616.024 10064.191 2704.837 2204.806 2606.729 3918.767 2651.914 2467.627 2062.038 3426.807 7805.603 11227.914 4935.733 6182.321 2653.479 4412.185 2864.828 3943.441 903.945 3037.181 7180.343 3526.192 3132.615 3494.798 2511.692 1034.139 7113.493 2591.923 2609.253 5315.262 14221.228 13889.067 2328.425 2288.826 2593.941 2045.314 1831.934 3402.059 181.574 2856.397 691.700 3401.614 9787.405 2696.817 2472.231 4314.535 2728.361 2274.835 2563.914 2463.034 3453.463 3217.589 8339.490 3676.703 2046.375 2636.239 2995.519 3857.948 3402.580 4588.695 3737.485 4198.421 3948.971 2658.815 5147.996 2537.088 6531.266 2730.174 4860.197 3221.259 3581.430 8977.172 3324.452 3660.770 1741.839 3426.927 9576.424 3562.089 3879.621 4032.568 11779.271 3595.186 3663.740 4537.535 3513.777 3455.800 3357.791 3149.613 11798.385 5546.198 10254.607 1244.773 2834.326 2764.009 4097.065 3047.201 10208.711 4750.764 3033.876 2356.049 7030.029 5960.633 6433.763
4523.759 3587.143 4663.398 12972.720 4964.933 13608.815 5560.551 5151.515 4623.628 6696.434 4621.911 5808.201 4735.589 7342.217 4122.209 6894.196 5168.762 4770.471 14644.913 3827.765 4417.159 5821.672 6118.339 1557.458 6452.600 4978.230 556.757 4924.684 4762.380 10259.026 4954.018 8589.916 4918.648 5046.875 2224.792 6004.578 4805.855 4663.097 17395.747 11964.292 5336.545 5430.554 12776.766 10105.675 5516.197 1331.102 5210.111 14727.310 3370.949 3639.812 0.000 352.430 5392.072 17428.384 5121.291 4991.327 5033.133 4862.231 6160.475 9378.091 4875.384 12888.025 12338.976 277.791 1352.615 4593.099 12339.730 3993.891 4821.015 4533.395 4725.182 5591.622 7578.732 8336.617 4648.208 598.758 5122.736 4772.645 8234.430 4903.818 3683.653 4905.124 12860.271 4843.427 3503.816 4887.172 872.076 4992.249 4618.223 2502.271 5589.121 11003.135 14316.858 3683.428 2611.340 4700.359 7359.137 4883.421 7417.336 4343.600 4945.781 5223.980 588.375 6703.829 5172.003 6048.361 4225.269 4242.460 2877.769 4837.377 8384.662 17777.653 17212.013 2356.894 4175.613 4547.809 2574.877 4547.844 5551.380 3461.001 990.051 2974.345 4859.233 10541.734 4063.543 5792.741 2825.319 4025.931 5510.139 4767.104 5261.977 614.838 5193.429 8650.627 6935.337 2558.242 3535.849 660.143 564.607 6709.563 7503.452 5617.449 7060.224 5367.658 3126.613 1604.305 6148.737 9204.897 4725.430 5321.554 4837.051 391.890 12548.977 4974.535 331.913 4414.302 217.271 10303.679 6262.216 5174.558 5407.751 14632.508 6305.471 413.803 7507.196 5076.653 5045.655 5910.675 4761.974 14631.497 1991.082 12193.541 2568.337 5469.583 4604.248 466.692 5613.558 11484.780 7940.049 4858.972 4614.877 9841.509 8569.297 7491.075
4875.795 3898.726 4990.166 13286.642 5290.726 13852.512 5896.246 5464.317 4954.678 7021.607 4945.739 6137.259 5064.413 7682.467 4441.319 6543.258 5491.474 5092.080 14893.963 4156.636 4760.509 6144.938 6454.720 1293.092 6795.661 5302.182 822.397 5233.466 5087.254 10592.473 5276.612 8928.149 5244.149 5357.997 2561.985 5657.150 5125.164 4979.774 17745.513 12291.387 5634.293 5774.011 13101.885 10439.192 5866.221 1132.280 5511.156 15054.285 3253.875 3985.799 352.430 0.000 5744.377 17775.676 5433.684 5306.619 5353.996 5179.328 6497.690 9700.345 5217.238 13210.129 12669.952 585.723 1046.168 4924.790 12671.376 4346.163 5143.008 4860.377 5014.713 5895.191 7777.891 8678.708 4977.287 828.046 5435.032 5093.859 8578.141 5221.957 4018.380 5237.781 13185.867 5171.787 3827.533 5219.738 798.237 5325.666 4949.698 2832.878 5910.596 11347.939 14591.166 3661.942 2308.573 5027.307 7700.061 5206.985 7740.640 4695.487 5264.257 5066.232 812.408 7037.887 5477.240 6400.399 4577.651 4092.705 3177.560 5168.795 8727.665 18130.069 17559.205 2675.065 4505.002 4873.582 2905.350 4843.905 5872.689 3806.437 1324.865 3316.341 5158.774 10739.550 4375.042 6144.471 2957.738 4335.221 5861.239 5098.499 5605.984 862.190 5511.523 8824.786 7285.133 2888.863 3840.494 994.328 492.912 7060.399 7842.971 5926.530 7399.148 5656.993 3424.446 1332.578 6488.154 9530.621 5050.196 5429.906 5144.513 621.487 12878.942 5281.410 526.209 4760.780 559.217 10500.625 6598.727 5460.191 5694.117 14959.353 6642.122 486.841 7848.519 5377.814 5348.600 6244.116 5070.517 14879.967 1703.667 12470.348 2920.760 5808.219 4924.933 114.391 5949.244 11718.105 8287.184 5175.237 4949.717 10099.655 8816.015 7732.868
874.836 2766.036 1985.244 8658.041 1986.097 10805.786 1598.939 2449.843 1835.711 2609.633 2095.698 1989.643 1895.525 2473.242 2373.678 12280.421 2107.446 2150.181 11663.378 2245.294 1409.002 2235.301 1780.202 6681.889 1627.917 2054.909 5054.803 2555.246 2037.072 5557.517 2104.953 3662.191 1999.372 2492.281 3382.930 11370.314 2224.762 2321.372 12040.194 7172.081 2936.777 1112.380 8003.833 5411.884 816.512 6366.706 2816.152 9863.580 7424.583 2021.468 5392.072 5744.377 0.000 12118.151 2459.437 2355.491 2167.378 2295.163 1760.033 4873.312 1269.947 8181.633 7609.550 5200.130 6649.806 1819.642 7591.916 1398.289 2132.558 2007.396 3057.735 2836.371 6305.409 3293.027 1903.987 5116.003 2462.722 2163.401 3138.581 2260.114 2181.158 1713.090 8073.570 1896.904 2554.354 1719.512 5818.723 1669.614 1820.825 3160.056 2230.311 5787.154 10833.349 6931.187 7759.015 1971.786 2458.796 2072.746 3454.809 1126.625 2248.641 9189.869 5134.734 2521.390 2687.235 786.873 1167.819 8181.993 3319.753 1775.361 3305.280 12390.749 11904.171 3423.889 2054.897 2045.351 3102.264 3144.325 2226.556 2184.374 4471.526 2672.560 2812.485 8666.439 2588.422 451.974 5143.091 2652.924 358.703 1788.786 1064.765 5060.929 2276.863 7550.370 1655.239 3113.889 2925.578 4798.956 5709.392 1383.274 2641.627 2671.835 2298.566 3173.045 3223.486 6743.702 1920.213 4616.385 2046.023 6556.881 2590.719 5240.452 7839.297 2615.025 5332.679 1261.982 5194.738 8480.442 1852.883 3220.176 3261.331 9773.504 1871.311 5500.860 2570.163 2790.911 2736.183 1828.148 2559.001 11662.436 7131.890 8542.810 2824.757 1420.908 2202.584 5858.721 1612.869 8803.265 2729.820 2322.234 1687.775 7149.353 6375.552 5399.151
12951.127 14091.624 12924.783 10594.177 12647.996 15112.033 11954.690 12646.356 12917.859 11022.481 12997.160 11799.927 12832.954 10145.859 13519.956 24305.572 12493.952 12882.672 15114.859 13709.233 13023.204 11873.061 11400.308 18529.335 10997.140 12657.914 17018.751 12907.030 12851.701 9825.384 12697.715 8955.172 12695.593 12764.718 15500.798 23432.781 12877.673 13042.835 842.827 6276.330 12711.277 12012.322 5766.590 9899.192 12251.931 18478.617 12768.100 4361.650 19432.735 14101.652 17428.384 17775.676 12118.151 0.000 12679.533 12758.002 12645.481 12853.224 11348.574 8666.507 12575.493 5887.354 9194.054 17264.728 18733.651 12941.090 9127.284 13486.112 12830.434 13047.067 13346.463 12398.556 13428.122 9136.800 12914.452 17060.962 12679.605 12885.399 9217.464 12801.296 13804.472 12627.767 5674.215 12734.315 14063.737 12646.191 17926.204 12534.901 12918.826 14987.006 12117.483 6447.935 13520.586 18787.876 19536.259 12887.396 10120.177 12752.420 12005.706 13236.758 12757.960 21064.350 17079.918 12008.884 12738.212 11603.515 13270.127 19132.034 14836.689 12706.678 9076.664 3213.133 218.378 15195.187 13367.993 13046.217 14916.790 14500.685 12155.125 14275.370 16458.499 14777.689 13093.011 12771.460 13654.517 11685.841 16262.148 13712.530 11945.958 12775.103 12177.212 17009.399 12533.506 13815.972 10505.901 14932.251 14203.335 16877.118 17797.053 10749.504 9997.336 12285.428 10442.043 12820.886 14630.471 18592.765 12199.846 8707.049 12888.102 17663.077 13003.366 17218.009 9234.407 12889.047 17315.673 13015.099 17245.672 12833.705 11257.765 13036.426 12837.276 4425.154 11213.590 17583.914 9968.509 12881.693 12882.537 11640.921 13056.136 15143.334 18950.569 8954.323 14901.189 12013.026 13049.908 17889.323 11902.896 11220.134 9488.495 12866.955 12889.809 14018.528 14540.965 12386.737
2219.757 1534.971 666.342 10952.152 491.194 13265.217 1045.708 33.189 819.961 1662.932 622.860 948.642 687.942 2619.920 1016.543 11772.640 362.564 461.878 14119.001 1386.910 1422.700 812.394 1438.695 5941.237 1997.191 421.283 4615.727 227.986 551.480 7793.028 383.108 3728.286 494.999 85.305 3941.692 10972.718 385.569 475.923 12762.990 6896.961 493.502 1420.561 7694.259 7656.683 3254.659 6384.147 357.969 9653.484 8019.982 3301.739 5121.291 5433.684 2459.437 12679.533 0.000 159.350 298.830 298.716 1503.999 4286.422 1234.655 7789.703 9762.799 5042.921 6472.623 857.805 9735.979 2372.325 436.281 761.192 754.705 545.581 3906.140 3602.021 743.312 4629.269 3.444 451.310 3568.409 285.675 1604.139 775.558 7780.553 624.085 1645.250 775.416 5835.082 797.263 837.034 2653.736 573.408 6257.109 13259.353 7828.091 6894.024 648.589 2659.946 445.559 5912.893 2697.336 264.787 9914.321 4647.193 4980.681 228.382 3138.618 2384.775 6584.077 2268.806 741.550 3680.315 13527.875 12461.159 2765.383 1093.168 722.276 2582.814 5041.026 538.292 3352.468 4141.256 3589.472 464.043 6493.830 1058.668 2429.617 3599.071 1100.587 2183.761 765.124 1408.284 4585.923 206.437 5165.598 2852.808 2599.674 1602.233 4737.198 5611.154 2816.232 2741.243 506.631 2320.710 720.400 2031.714 6003.991 4374.692 4138.547 571.729 8137.553 323.992 4820.344 9996.397 226.844 4919.426 1611.496 4987.868 6286.737 1555.704 765.847 809.793 9557.958 1595.534 5396.755 2808.359 344.189 299.094 1172.301 379.942 14118.443 6336.080 7212.461 3100.278 1150.114 579.019 5538.722 1073.073 6935.826 3473.344 288.845 960.184 9594.702 8761.573 3142.289
2079.192 1409.898 509.555 10889.678 369.930 13159.081 1015.627 178.584 666.506 1756.314 463.513 983.590 538.442 2668.337 875.141 11667.136 316.647 303.128 14018.749 1235.124 1272.402 885.673 1457.081 5837.129 2001.038 300.620 4490.500 214.953 397.139 7735.812 252.385 3803.228 362.913 143.860 3785.174 10860.920 226.259 330.547 12832.172 7008.947 634.554 1348.157 7809.788 7598.134 3142.203 6247.541 487.171 9767.799 7869.863 3145.055 4991.327 5306.619 2355.491 12758.002 159.350 0.000 195.033 141.115 1520.850 4402.502 1111.180 7909.166 9717.539 4908.255 6343.440 703.662 9691.733 2218.247 280.625 601.943 770.007 704.777 4042.630 3660.534 588.637 4506.280 162.331 292.287 3618.928 127.451 1449.187 651.024 7895.499 485.218 1503.833 648.351 5697.047 685.912 683.823 2514.674 640.885 6327.348 13171.845 7672.342 6800.232 493.742 2705.861 301.893 5810.268 2551.614 114.571 9762.955 4524.338 4876.138 360.943 3052.520 2235.717 6544.489 2151.541 606.727 3735.885 13571.589 12539.655 2634.453 935.610 562.926 2443.310 4890.015 603.039 3194.451 4008.691 3430.123 486.100 6647.743 936.260 2350.159 3539.906 983.439 2092.989 622.550 1318.751 4462.158 224.656 5303.258 2838.346 2460.195 1487.087 4597.907 5476.419 2785.485 2796.225 656.602 2367.638 850.304 1918.991 5900.059 4264.421 4248.036 415.084 7978.788 287.924 4695.327 9950.913 262.161 4794.586 1463.527 4854.833 6439.846 1582.252 866.234 939.557 9672.390 1623.773 5261.500 2855.904 437.071 381.044 1190.803 311.514 14017.866 6236.488 7364.767 2944.532 1097.028 422.724 5412.448 1049.483 7095.150 3502.499 135.616 810.801 9477.959 8633.053 3295.227
1925.447 1474.548 424.024 10694.754 193.046 12972.606 832.452 297.365 555.321 1675.544 422.702 848.316 415.765 2531.471 913.626 11748.553 152.408 263.604 13829.706 1230.886 1142.423 795.329 1300.709 5922.808 1831.580 124.169 4542.379 409.001 304.727 7541.292 99.830 3691.148 203.298 325.064 3744.283 10932.806 234.269 397.398 12709.395 6943.721 791.721 1153.135 7750.001 7403.495 2958.801 6273.519 655.805 9705.275 7855.937 3036.380 5033.133 5353.996 2167.378 12645.481 298.830 195.033 0.000 215.213 1362.807 4346.411 935.835 7856.134 9524.713 4939.905 6385.720 594.699 9499.110 2098.514 215.279 542.398 960.956 799.610 4204.023 3531.184 485.938 4562.366 302.255 260.626 3481.956 160.924 1426.985 476.926 7834.696 335.344 1530.585 477.251 5719.980 500.259 571.107 2540.822 556.819 6207.536 12978.949 7633.290 6899.496 396.613 2566.581 177.162 5622.016 2407.406 121.235 9743.704 4580.650 4688.682 526.197 2858.979 2099.775 6698.630 2224.073 447.140 3603.526 13424.644 12427.198 2678.951 903.970 513.037 2468.631 4757.847 518.785 3094.947 4046.246 3354.447 680.039 6773.278 1014.372 2155.556 3679.943 1069.376 1900.238 478.099 1125.315 4516.853 186.745 5463.024 2657.169 2485.507 1568.252 4618.801 5507.353 2597.657 2665.259 708.441 2230.393 1019.027 2000.367 5985.946 4079.854 4181.399 335.918 7884.408 474.008 4747.350 9758.038 456.558 4846.829 1326.271 4890.203 6568.145 1431.408 1052.851 1108.458 9610.088 1474.019 5291.437 2717.715 623.842 570.194 1037.288 481.323 13828.952 6328.296 7393.352 2910.034 904.920 429.063 5461.284 869.291 7181.595 3347.563 235.339 681.709 9297.657 8462.754 3425.127
1975.735 1286.833 385.178 10865.320 324.084 13091.003 1039.644 319.576 548.515 1867.215 326.822 1060.484 431.230 2745.152 741.667 11553.919 366.485 175.177 13956.705 1095.010 1156.542 989.636 1515.910 5725.675 2044.572 266.143 4364.590 265.734 282.851 7717.191 210.652 3898.183 299.750 263.704 3644.100 10743.328 91.435 199.819 12920.382 7128.374 752.613 1326.867 7931.408 7578.298 3070.881 6114.264 599.123 9888.466 7729.944 3015.813 4862.231 5179.328 2295.163 12853.224 298.716 141.115 215.213 0.000 1577.944 4525.098 1034.828 8033.275 9709.552 4776.262 6214.651 583.748 9684.690 2094.316 169.231 466.809 780.552 844.043 4147.160 3743.454 468.833 4381.866 301.503 162.596 3695.800 54.336 1308.151 582.091 8016.736 400.471 1369.055 575.859 5562.996 633.597 566.161 2380.634 745.992 6417.459 13122.793 7531.227 6696.184 375.161 2780.680 222.939 5747.351 2440.353 95.880 9622.617 4400.010 4811.709 479.782 3009.387 2119.915 6483.643 2032.755 523.810 3816.490 13639.782 12634.914 2505.504 794.736 426.243 2309.039 4770.008 707.614 3062.219 3878.154 3292.297 517.885 6773.536 817.737 2315.603 3465.083 869.027 2047.698 526.274 1279.841 4337.233 333.452 5408.629 2863.295 2325.930 1371.512 4463.257 5344.313 2796.105 2877.743 797.299 2444.070 956.019 1804.087 5788.716 4194.283 4366.507 293.054 7844.209 297.086 4569.505 9942.670 334.501 4668.858 1350.831 4723.840 6564.456 1646.519 946.441 1044.206 9793.140 1689.073 5129.109 2931.662 526.168 467.020 1252.445 282.121 13955.488 6128.253 7505.451 2803.417 1098.255 281.629 5285.654 1078.597 7232.495 3562.711 27.249 699.315 9398.979 8541.033 3420.122
2113.617 2748.258 1580.849 9629.919 1320.653 12249.589 607.014 1474.675 1569.682 850.171 1660.950 564.866 1486.039 1202.723 2179.018 12980.639 1213.433 1565.829 13045.863 2365.469 1777.774 785.818 66.202 7182.042 507.525 1343.681 5710.542 1717.061 1517.662 6456.618 1391.065 2431.170 1366.997 1582.834 4538.592 12135.512 1578.795 1745.444 11386.351 5848.228 1794.026 834.095 6673.649 6327.921 2534.846 7325.849 1754.291 8603.851 8706.331 3452.782 6160.475 6497.690 1760.033 11348.574 1503.999 1520.850 1362.807 1577.944 0.000 3346.880 1312.689 6812.279 8365.429 6030.733 7501.455 1593.855 8334.727 2549.771 1515.462 1700.370 2258.200 1545.984 4811.020 2211.876 1566.380 5743.998 1505.582 1571.058 2142.535 1523.611 2480.897 1279.622 6752.745 1390.406 2717.144 1298.047 6765.898 1187.194 1571.108 3669.806 961.509 4900.761 12086.203 8348.091 8189.934 1543.884 1229.852 1432.809 4937.130 2597.554 1483.603 10550.143 5762.797 4053.412 1661.473 2138.379 2420.112 8061.285 3489.344 1358.104 2274.973 12064.166 11130.655 3859.893 2021.174 1702.006 3597.949 4866.313 988.149 3572.958 5172.988 3970.891 1967.945 6966.848 2330.384 1466.346 5039.213 2392.610 1401.336 1426.609 999.410 5694.533 1309.894 6012.554 1395.021 3614.078 2867.777 5672.684 6588.050 1428.702 1354.010 1363.328 908.077 2012.505 3288.985 7245.464 3539.463 3128.910 1552.799 8228.628 1804.207 5913.549 8599.358 1730.498 6012.642 1840.981 5995.765 6790.634 110.271 2161.783 2082.012 8510.143 148.876 6370.903 1381.965 1813.859 1785.453 331.747 1831.827 13048.179 7601.994 6836.621 3778.875 695.390 1725.800 6609.063 554.756 7044.933 1984.769 1597.867 1551.739 8715.433 8045.007 3790.398
5428.594 5811.559 4717.947 10268.377 4415.220 13801.299 3892.694 4254.425 4771.626 2685.649 4756.251 3587.010 4651.391 2405.342 5259.593 16050.289 4209.372 4608.297 14413.161 5555.616 5106.023 3556.480 3370.047 10219.441 3266.616 4400.045 8888.359 4500.501 4616.432 7326.010 4424.164 1436.216 4461.010 4366.729 7882.365 15258.485 4576.073 4724.911 8880.526 2616.446 4192.159 4175.718 3407.839 7250.044 5468.301 10601.054 4280.743 5367.382 12050.980 6769.680 9378.091 9700.345 4873.312 8666.507 4286.422 4402.502 4346.411 4525.098 3346.880 0.000 4646.993 3509.950 8698.634 9277.408 10730.375 4805.069 8646.247 5891.010 4557.469 4848.083 4845.051 3891.815 5032.226 1874.746 4739.192 8906.820 4285.493 4606.486 2070.928 4480.794 5719.720 4502.664 3494.238 4542.533 5874.281 4519.740 10043.731 4422.569 4779.082 6879.586 3789.751 2700.168 13180.393 11689.048 11144.609 4681.427 2426.241 4494.708 7101.680 5884.853 4438.076 13896.955 8924.994 6441.115 4282.722 4851.588 5746.984 10493.720 6553.543 4561.853 1936.928 10068.995 8450.261 7025.345 5210.451 4831.778 6807.042 7992.359 3827.672 6900.625 8389.733 7314.045 4629.819 5657.090 5338.751 4449.544 7727.661 5384.678 4549.375 4631.269 4344.377 8861.927 4191.824 5773.852 3425.995 6823.833 5887.761 8942.665 9843.145 3712.252 2241.580 3819.059 2581.814 4257.557 6318.060 10281.841 6155.543 292.161 4653.267 11424.304 4594.541 9093.327 8914.562 4463.595 9192.767 5184.541 9231.250 5581.896 3236.773 4475.869 4258.504 5271.792 3199.020 9626.402 2335.841 4407.722 4422.997 3524.776 4661.940 14423.581 10604.572 3891.850 7106.791 4025.925 4775.462 9807.695 3841.445 4943.383 2566.760 4530.895 4804.350 10742.494 10407.233 3880.209
1024.032 1669.106 716.376 9898.919 744.456 12056.330 763.402 1231.559 574.049 2016.355 827.799 1138.383 625.621 2468.598 1176.318 11730.930 914.955 882.492 12924.213 1187.799 465.713 1299.336 1281.576 5971.091 1580.087 814.723 4445.525 1299.117 768.533 6772.436 859.093 3721.935 748.389 1253.266 3236.370 10868.931 959.546 1051.441 12577.354 7160.860 1726.790 565.528 7986.312 6629.972 2036.074 6019.155 1591.142 9915.683 7404.831 2265.753 4875.384 5217.238 1269.947 12575.493 1234.655 1111.180 935.835 1034.828 1312.689 4646.993 0.000 8123.773 8797.352 4734.929 6208.149 564.126 8775.996 1319.582 868.478 751.008 1788.203 1690.817 5137.021 3461.473 637.276 4485.887 1238.077 895.871 3363.289 1004.737 1237.498 460.421 8065.433 634.367 1543.789 462.903 5459.107 444.608 560.749 2411.729 1182.052 6135.672 12103.284 7077.659 7008.239 701.926 2484.213 815.796 4715.121 1525.486 999.235 9259.221 4504.830 3778.819 1461.692 2014.603 1254.532 7134.366 2347.621 511.048 3511.094 13131.732 12358.299 2627.571 895.935 785.299 2341.813 3889.785 1162.388 2358.658 3893.504 2708.241 1548.681 7655.172 1383.676 1360.430 4074.566 1451.067 1062.572 519.138 411.821 4434.625 1078.809 6394.569 2191.788 2357.149 1817.937 4369.780 5288.040 2040.915 2631.905 1554.870 2192.039 1954.748 2189.991 6034.407 3159.520 4436.669 776.287 7119.881 1326.874 4646.165 9029.137 1363.423 4744.443 545.948 4704.254 7455.628 1420.573 1975.567 2044.201 9822.081 1461.404 5071.208 2631.886 1547.641 1490.485 1131.418 1291.193 12922.808 6403.496 7999.318 2466.483 621.465 934.570 5329.768 811.976 7970.305 3101.755 1061.457 439.837 8367.201 7527.086 4322.645
8833.680 9318.947 8227.003 11264.662 7924.516 15406.439 7380.605 7758.054 8277.546 6193.720 8266.145 7091.215 8159.081 5743.020 8769.067 19532.864 7719.322 8118.174 15814.690 9064.499 8587.307 7066.370 6842.225 13707.210 6654.848 7909.892 12397.499 8000.396 8126.120 8911.942 7934.113 4519.471 7970.449 7868.835 11345.967 18754.746 8085.368 8233.082 6342.460 1028.719 7664.887 7624.627 301.372 8892.278 8652.668 14106.819 7763.903 1906.978 15508.187 10158.949 12888.025 13210.129 8181.633 5887.354 7789.703 7909.166 7856.134 8033.275 6812.279 3509.950 8123.773 0.000 9592.606 12786.104 14240.268 8310.393 9526.997 9323.077 8067.386 8357.140 8316.511 7373.388 7657.917 4900.772 8246.844 12415.067 7788.650 8116.304 5070.640 7989.513 9225.427 8005.220 328.456 8050.396 9384.223 8022.544 13548.732 7923.215 8284.558 10389.037 7299.569 3143.925 14385.271 15094.667 14609.057 8190.366 5746.866 8004.615 9685.738 9258.322 7946.934 17330.543 12433.183 9236.572 7774.722 7988.841 9159.740 13781.868 10058.416 8066.560 4903.063 8129.564 5690.473 10535.079 8718.678 8341.282 10316.472 11188.466 7337.453 10302.500 11899.556 10742.167 8116.346 6911.467 8845.020 7735.224 11152.042 8889.681 7891.108 8136.286 7796.427 12370.507 7700.257 7948.325 6581.228 10333.249 9391.933 12448.402 13351.329 6875.382 5571.487 7313.204 5976.247 7706.578 9820.832 13769.196 9113.543 3692.652 8162.990 14624.134 8093.375 12602.452 9761.298 7960.435 12701.857 8651.979 12740.647 6961.445 6703.630 7923.064 7696.944 1811.390 6663.403 13134.449 5622.238 7893.521 7912.591 7015.828 8162.650 15832.384 14083.354 3237.565 10590.103 7502.993 8285.197 13317.340 7328.492 5438.413 5535.806 8038.544 8305.100 12936.227 12899.382 6708.227
8372.286 10375.532 9490.309 1672.124 9386.571 6055.507 8717.636 9740.468 9366.830 8802.352 9602.572 8911.765 9387.581 7698.489 9961.444 18796.962 9408.971 9607.118 6290.664 9854.672 9016.669 9149.967 8429.595 13839.135 7862.857 9443.813 12181.005 9932.480 9506.590 2092.538 9499.279 7535.472 9416.790 9825.278 10116.169 17803.141 9663.901 9798.696 8605.851 8823.901 10138.857 8384.581 9291.679 2245.469 7091.651 12865.691 10073.426 10067.328 12897.328 8760.909 12338.976 12669.952 7609.550 9194.054 9762.799 9717.539 9524.713 9709.552 8365.429 8698.634 8797.352 9592.606 0.000 12084.276 13313.486 9360.424 69.736 8770.623 9573.845 9545.220 10485.248 9909.640 12953.622 7235.589 9421.361 12266.159 9765.332 9618.531 7101.785 9661.795 9778.821 9166.636 9284.188 9352.457 10156.154 9179.073 12420.837 9093.614 9354.931 10612.246 9298.753 6657.122 4803.894 11983.960 14927.333 9467.129 7640.107 9496.783 4958.597 8285.323 9635.253 14049.471 12282.874 5639.030 9962.261 6823.013 8543.885 15737.761 10894.054 9246.465 7132.289 7460.618 9056.092 10890.773 9652.427 9576.269 10567.837 7992.422 9317.977 8929.143 11616.252 9383.314 10203.509 14315.645 10173.864 7436.931 12734.022 10240.302 7738.894 9282.279 8452.804 12210.780 9556.434 14018.591 6972.753 10575.930 10535.124 11679.501 12447.510 6957.339 7700.280 9725.948 7896.641 10366.949 10820.765 13894.926 6224.948 8455.344 9526.591 10123.540 9997.180 12326.422 233.935 9971.393 12400.364 8870.460 12121.883 14216.849 8361.178 10495.326 10440.857 10027.172 8335.237 12282.345 7555.684 10103.319 10061.779 8668.609 9991.626 6312.003 14292.941 12104.133 9979.394 8620.553 9705.531 12775.364 8692.967 13610.101 6821.044 9735.960 9236.964 5091.140 5971.768 11798.107
4337.058 3514.977 4559.473 12706.273 4862.316 13331.452 5435.297 5072.388 4510.731 6592.393 4523.953 5697.440 4627.234 7203.517 4034.613 7080.332 5071.763 4676.425 14367.274 3721.793 4272.987 5722.477 5990.701 1833.622 6306.594 4879.224 645.765 4852.788 4662.033 10006.776 4857.687 8455.668 4816.713 4970.815 1977.585 6175.665 4716.012 4578.365 17221.381 11853.176 5280.926 5284.436 12669.229 9853.499 5296.169 1346.585 5149.793 14615.659 3279.856 3407.835 277.791 585.723 5200.130 17264.728 5042.921 4908.255 4939.905 4776.262 6030.733 9277.408 4734.929 12786.104 12084.276 0.000 1473.846 4478.849 12085.667 3804.103 4726.122 4429.341 4683.033 5526.609 7633.412 8192.139 4539.511 721.955 5044.528 4679.339 8085.176 4815.882 3564.883 4788.053 12751.794 4735.814 3409.700 4770.341 820.252 4873.279 4504.398 2399.338 5493.694 10849.308 14039.868 3521.604 2880.681 4595.982 7218.582 4785.374 7156.329 4135.757 4857.137 5157.596 718.217 6452.258 5105.244 5841.096 4032.312 4505.967 2829.027 4723.210 8237.479 17575.924 17048.760 2281.143 4067.454 4446.178 2471.693 4274.197 5456.327 3227.803 907.225 2734.364 4802.065 10594.861 3989.623 5608.299 2952.828 3955.862 5331.179 4653.133 5114.334 716.610 5104.947 8726.820 6763.296 2454.843 3475.435 412.317 568.233 6531.561 7366.586 5543.594 6925.263 5324.140 3079.169 1879.624 5903.930 9097.722 4625.382 5083.514 4767.524 554.142 12293.350 4905.619 536.866 4259.398 107.962 10357.791 6134.095 5136.637 5368.272 14521.136 6176.960 355.356 7365.421 5016.468 4982.788 5790.214 4690.878 14353.882 2264.116 12159.879 2376.532 5337.101 4512.345 692.958 5488.251 11501.895 7779.231 4774.491 4493.329 9563.718 8291.840 7502.492
5794.033 4937.950 6014.695 13828.008 6316.545 14075.738 6904.104 6502.983 5972.458 8048.051 5974.127 7158.044 6085.857 8676.730 5474.790 5647.466 6521.142 6123.012 15135.257 5178.326 5746.609 7173.903 7460.628 1521.465 7780.433 6330.381 1868.320 6274.553 6114.318 11258.046 6306.431 9928.052 6270.369 6397.748 3334.574 4721.544 6158.460 6015.443 18683.054 13314.638 6679.489 6758.257 14128.060 11105.720 6695.694 545.913 6555.492 16077.605 2534.598 4788.025 1352.615 1046.168 6649.806 18733.651 6472.623 6343.440 6385.720 6214.651 7501.455 10730.375 6208.149 14240.268 13313.486 1473.846 0.000 5941.434 13319.323 5259.303 6173.515 5884.631 6060.852 6938.725 8765.742 9665.964 5998.357 1872.247 6474.036 6125.217 9558.891 6256.357 5029.720 6252.462 14211.352 6193.923 4856.192 6234.603 893.513 6338.797 5966.722 3852.695 6941.643 12322.221 14938.829 3182.867 2130.254 6051.573 8692.065 6235.667 8356.694 5565.597 6298.347 4205.496 1856.037 7723.712 6520.060 7266.246 5483.498 4415.612 4221.757 6185.826 9711.304 19000.799 18517.904 3709.179 5525.747 5899.502 3925.313 5358.904 6903.919 4606.451 2340.883 4098.756 6203.489 11722.156 5414.413 7065.419 3894.319 5375.881 6793.407 6115.601 6588.180 1907.985 6545.973 9780.660 8229.348 3908.611 4883.243 1856.736 940.437 7993.470 8839.475 6967.539 8397.682 6703.150 4469.241 1516.948 7214.643 10556.098 6077.403 5268.513 6186.267 1667.541 13515.416 6323.468 1571.403 5732.863 1505.801 11482.449 7604.238 6506.293 6740.245 15982.883 7647.259 1150.477 8839.048 6422.098 6392.292 7256.786 6111.708 15118.972 1714.087 13514.531 3835.269 6808.588 5956.851 949.862 6957.095 12736.385 9250.493 6211.263 5960.084 10397.534 9077.297 8759.996
1401.987 1178.105 199.638 10461.667 434.552 12569.541 986.913 868.317 39.545 2120.390 291.380 1219.242 180.439 2795.818 637.031 11388.590 668.083 408.712 13448.514 773.306 573.179 1272.443 1544.674 5588.582 1971.213 483.030 4128.169 840.018 306.607 7336.554 495.004 4018.904 401.546 842.932 3176.293 10548.837 493.352 527.986 12970.501 7374.418 1335.033 1041.915 8190.622 7194.048 2556.241 5796.536 1182.669 10137.081 7312.622 2445.553 4593.099 4924.790 1819.642 12941.090 857.805 703.662 594.699 583.748 1593.855 4805.069 564.126 8310.393 9360.424 4478.849 5941.434 0.000 9338.801 1514.728 423.081 188.058 1261.677 1390.174 4727.866 3804.460 115.211 4158.099 861.098 421.618 3727.835 577.071 915.039 315.113 8273.017 281.313 1123.291 296.768 5238.819 406.692 26.464 2091.915 1070.578 6493.167 12646.941 7062.450 6601.571 210.001 2820.914 420.088 5243.640 1858.178 593.050 9192.512 4176.802 4306.538 1061.253 2575.917 1536.216 6613.158 1903.532 244.414 3865.017 13589.752 12723.250 2269.741 427.326 226.037 2019.442 4187.240 1037.483 2501.038 3603.132 2762.694 1053.852 7351.210 833.574 1923.677 3556.413 901.285 1626.628 174.284 929.160 4109.544 779.868 5989.587 2682.247 2035.928 1313.827 4138.087 5042.466 2559.221 2947.768 1302.606 2501.889 1539.165 1716.630 5652.009 3677.170 4619.702 290.820 7290.042 839.907 4332.132 9592.323 912.966 4431.520 768.967 4437.095 7143.496 1688.483 1515.299 1626.963 10042.494 1732.536 4825.386 2972.625 1106.269 1046.871 1320.991 786.702 13446.524 6010.065 7963.098 2352.339 940.399 394.573 5034.894 1039.104 7776.271 3518.859 605.571 133.133 8856.571 7976.842 3998.879
8358.273 10357.950 9467.618 1738.140 9361.900 6125.233 8690.605 9713.485 9344.930 8766.424 9579.812 8882.095 9364.698 7660.235 9941.263 18808.653 9382.691 9583.221 6359.579 9837.186 8998.395 9119.567 8399.013 13837.634 7831.624 9418.858 12178.724 9906.655 9483.076 2087.284 9474.336 7488.191 9392.375 9798.839 10116.379 17815.494 9639.575 9775.033 8540.609 8760.239 10109.972 8360.268 9226.029 2240.540 7079.902 12873.190 10045.446 9998.448 12916.256 8757.266 12339.730 12671.376 7591.916 9127.284 9735.979 9691.733 9499.110 9684.690 8334.727 8646.247 8775.996 9526.997 69.736 12085.667 13319.323 9338.801 0.000 8759.461 9549.672 9523.348 10459.809 9879.412 12914.445 7190.612 9399.047 12263.545 9738.495 9594.584 7057.894 9636.760 9762.906 9143.245 9218.301 9328.850 10139.976 9155.780 12426.475 9069.802 9333.125 10602.018 9269.681 6595.524 4871.307 12005.459 14926.276 9444.232 7601.883 9472.379 4966.221 8275.431 9609.985 14075.816 12280.311 5638.110 9934.711 6805.197 8532.146 15725.806 10879.930 9223.308 7087.149 7403.963 8988.960 10880.391 9632.987 9554.171 10557.235 8002.646 9289.131 8926.033 11613.077 9381.973 10177.620 14266.079 10153.464 7415.580 12719.281 10219.987 7718.327 9259.552 8429.727 12208.120 9529.581 13976.555 6941.435 10565.425 10517.443 11680.438 12451.378 6928.689 7660.733 9695.823 7860.097 10337.622 10805.140 13893.576 6220.704 8403.842 9503.293 10153.712 9971.820 12324.961 271.760 9945.151 12399.277 8853.211 12122.690 14168.044 8329.653 10467.074 10411.223 9958.389 8303.446 12285.420 7516.493 10076.166 10034.898 8638.895 9966.792 6380.968 14291.658 12044.172 9973.824 8594.707 9682.572 12777.030 8665.591 13555.366 6780.485 9711.053 9215.700 5144.853 6016.355 11757.634
535.268 1835.733 1709.932 9683.336 1917.034 11367.997 2068.699 2381.913 1552.374 3318.746 1776.345 2456.905 1686.222 3587.865 1715.893 10883.772 2138.480 1919.580 12292.745 1381.803 958.367 2615.029 2533.562 5299.630 2671.181 1978.182 3661.824 2339.079 1821.330 6685.326 2000.985 4839.056 1896.252 2356.286 2049.057 9977.443 2002.947 1996.501 13424.259 8337.186 2846.892 1716.535 9168.250 6534.427 1680.628 4992.869 2692.469 11070.917 6187.499 950.107 3993.891 4346.163 1398.289 13486.112 2372.325 2218.247 2098.514 2094.316 2549.771 5891.010 1319.582 9323.077 8770.623 3804.103 5259.303 1514.728 8759.461 0.000 1937.623 1637.352 2655.368 2898.110 6210.658 4518.316 1629.627 3725.580 2375.634 1931.841 4387.013 2091.325 1193.828 1668.041 9243.526 1764.508 1546.455 1659.264 4440.134 1702.118 1535.293 1846.730 2476.768 7110.303 11609.328 5798.906 6382.483 1724.520 3589.710 1930.272 4197.483 509.437 2107.677 8011.384 3744.195 3293.821 2573.922 2091.539 238.375 6968.090 2163.522 1664.704 4548.168 13787.943 13271.186 2123.432 1421.923 1681.504 1799.210 2679.850 2452.185 1039.536 3077.338 1423.211 2514.380 8865.935 1898.482 1806.127 3999.859 1942.881 1540.793 1622.437 1550.621 3670.194 2276.983 7471.433 2982.862 1807.980 1986.079 3405.184 4319.428 2737.292 3758.793 2794.143 3346.830 3042.028 2144.084 5360.908 2646.980 5663.213 1803.801 5810.158 2320.530 3845.290 8995.181 2413.711 3936.777 791.797 3797.194 8658.004 2659.978 2991.662 3127.949 10978.793 2695.770 4109.182 3724.461 2605.885 2546.960 2428.242 2253.634 12287.956 5751.970 9316.934 1427.654 1904.345 1857.617 4460.517 2113.241 9261.014 4030.876 2114.199 1416.814 7589.439 6614.816 5513.396
1807.715 1273.114 230.213 10718.565 200.955 12924.721 947.159 449.147 386.153 1881.854 208.104 1031.191 262.841 2701.794 706.206 11548.190 349.108 52.445 13792.133 1015.619 993.201 1002.574 1456.168 5725.358 1962.983 173.106 4332.686 434.824 116.872 7574.450 134.999 3879.077 161.057 420.453 3536.265 10728.577 92.753 237.351 12886.697 7151.942 912.936 1189.496 7959.643 7434.791 2904.362 6058.987 762.148 9914.019 7642.418 2865.468 4821.015 5143.008 2132.558 12830.434 436.281 280.625 215.279 169.231 1515.462 4557.469 868.478 8067.386 9573.845 4726.122 6173.515 423.081 9549.672 1937.623 0.000 334.861 931.281 975.869 4314.282 3706.394 308.015 4353.835 439.509 55.643 3650.331 154.146 1213.337 421.864 8044.061 235.663 1317.547 413.846 5505.213 482.791 403.559 2326.851 768.158 6388.461 12963.061 7425.239 6709.185 213.121 2734.492 84.187 5582.841 2274.971 172.216 9531.100 4372.178 4646.833 638.970 2854.005 1956.821 6559.072 2023.600 357.820 3776.015 13578.325 12612.216 2468.272 690.870 301.645 2254.586 4609.930 730.529 2916.717 3833.531 3160.902 680.528 6928.352 824.141 2165.794 3525.858 883.177 1892.283 357.139 1130.508 4307.937 394.815 5575.567 2759.438 2271.454 1374.431 4403.946 5293.420 2679.062 2840.563 905.503 2401.245 1122.007 1804.787 5788.578 4027.864 4389.805 135.667 7703.032 458.632 4537.639 9806.749 503.607 4637.150 1185.831 4676.969 6720.464 1592.350 1115.650 1210.602 9818.901 1635.859 5077.399 2886.317 694.654 635.667 1199.529 429.003 13790.811 6133.891 7603.249 2699.957 982.202 221.856 5250.619 990.793 7367.231 3495.940 194.749 533.174 9230.553 8371.835 3575.844
1565.782 1048.628 130.140 10649.380 433.210 12749.880 1098.664 777.763 178.448 2163.649 140.576 1278.785 214.331 2902.312 485.118 11299.064 652.310 300.193 13631.207 707.600 725.774 1294.655 1647.147 5487.855 2103.393 456.833 4056.367 701.789 240.161 7523.200 447.046 4110.131 388.358 730.212 3202.473 10467.999 376.558 364.291 13086.306 7431.238 1214.051 1208.217 8243.458 7380.866 2739.952 5756.162 1057.998 10194.227 7315.577 2551.212 4533.395 4860.377 2007.396 13047.067 761.192 601.943 542.398 466.809 1700.370 4848.083 751.008 8357.140 9545.220 4429.341 5884.631 188.058 9523.348 1637.352 334.861 0.000 1084.196 1305.712 4582.006 3911.406 139.304 4082.113 764.219 310.102 3842.042 476.036 888.636 436.076 8326.883 314.982 1036.183 418.505 5200.467 529.052 190.489 2032.153 1073.281 6599.848 12833.310 7091.519 6489.978 166.968 2930.214 369.318 5427.754 2007.680 503.438 9202.139 4100.664 4490.703 943.876 2763.829 1678.614 6452.357 1789.639 350.709 3975.335 13729.178 12829.058 2191.810 366.497 44.946 1959.556 4316.662 1037.256 2595.686 3543.824 2828.900 892.134 7236.509 666.108 2109.086 3399.171 733.303 1813.545 290.114 1105.218 4034.775 727.129 5843.730 2840.312 1976.305 1173.999 4098.791 4995.320 2726.674 3049.783 1240.318 2605.100 1404.681 1589.644 5551.236 3859.749 4671.530 206.683 7377.552 686.749 4260.997 9777.229 776.495 4360.529 924.793 4383.559 7026.339 1789.346 1362.831 1490.668 10099.364 1833.517 4778.703 3082.334 968.537 909.615 1408.849 625.505 13629.095 5904.413 7935.673 2367.638 1077.270 224.844 4969.305 1149.009 7696.955 3650.796 483.403 319.747 9031.789 8142.616 3882.822
2645.465 1238.818 1078.033 11645.871 1104.497 13830.946 1783.996 783.568 1237.815 2331.415 972.138 1699.728 1162.756 3353.125 967.047 11216.353 1084.380 908.810 14707.340 1369.159 1802.982 1538.348 2192.726 5393.341 2751.734 1043.819 4192.612 556.276 1020.930 8497.115 988.659 4416.618 1079.283 678.805 3868.072 10446.470 838.564 738.899 13451.198 7460.917 653.025 2106.340 8240.222 8358.452 3814.629 6028.934 578.365 10200.941 7795.508 3509.288 4725.182 5014.713 3057.735 13346.463 754.705 770.007 960.956 780.552 2258.200 4845.051 1788.203 8316.511 10485.248 4683.033 6060.852 1261.677 10459.809 2655.368 931.281 1084.196 0.000 956.850 3574.259 4319.391 1163.039 4191.654 752.996 895.832 4296.498 825.621 1608.010 1352.892 8328.970 1165.385 1470.861 1344.176 5495.835 1411.922 1254.385 2382.868 1312.889 6948.378 13890.821 7699.146 6299.969 1087.903 3395.566 1000.567 6499.966 3068.433 850.323 9700.515 4208.535 5563.024 621.497 3785.252 2731.268 5856.705 1854.101 1284.387 4401.623 14257.856 13128.137 2421.858 1233.813 1040.833 2319.211 5320.908 1280.872 3521.819 3776.549 3658.497 290.938 6344.459 847.695 3095.348 2916.069 840.768 2823.558 1269.082 2059.481 4153.712 954.881 4830.264 3602.680 2335.069 1229.533 4419.903 5246.495 3555.150 3466.419 1061.245 3056.551 642.519 1603.946 5454.994 4936.960 4725.584 1011.926 8229.589 488.191 4393.595 10718.523 529.611 4490.512 2001.778 4615.830 6124.486 2307.419 457.975 685.906 10105.041 2346.513 5038.114 3541.855 470.052 481.991 1926.630 502.400 14705.569 5766.920 7477.480 3029.468 1865.861 867.182 5113.642 1815.965 6969.631 4220.808 753.554 1393.960 10115.980 9219.731 3019.703
2706.069 2012.443 1205.505 11155.746 983.778 13616.229 1278.605 527.958 1351.273 1407.949 1168.142 1001.061 1213.751 2497.043 1535.021 12162.082 778.010 1005.645 14449.170 1921.122 1941.456 760.212 1481.126 6334.007 2052.181 920.465 5073.734 683.717 1087.615 7984.842 897.613 3488.961 1002.050 591.666 4482.919 11382.320 931.028 1010.322 12513.711 6508.223 313.283 1737.999 7291.728 7853.373 3648.735 6871.694 390.543 9252.703 8544.419 3835.089 5591.622 5895.191 2836.371 12398.556 545.581 704.777 799.610 844.043 1545.984 3891.815 1690.817 7373.388 9909.640 5526.609 6938.725 1390.174 9879.412 2898.110 975.869 1305.712 956.850 0.000 3470.543 3423.631 1277.806 5080.893 542.704 995.615 3419.075 829.687 2143.601 1252.712 7379.909 1134.022 2157.265 1257.391 6327.202 1247.403 1367.673 3154.913 635.045 6017.014 13546.219 8367.098 7253.054 1184.364 2544.976 970.346 6262.231 3196.494 803.940 10441.805 5098.387 5339.658 422.045 3451.918 2895.183 6771.961 2717.765 1239.542 3511.404 13365.046 12180.289 3245.540 1637.319 1267.447 3085.358 5553.192 627.152 3890.754 4620.881 4134.554 743.995 5977.533 1541.137 2733.677 3868.247 1571.348 2526.803 1276.557 1772.307 5039.867 623.992 4720.604 2941.005 3102.091 2055.808 5234.107 6094.236 2958.780 2591.475 184.336 2212.555 480.097 2472.136 6396.074 4754.941 3769.029 1111.332 8678.477 762.015 5277.255 10143.576 623.874 5375.604 2122.766 5467.084 5774.159 1560.558 667.276 540.068 9156.873 1591.484 5881.581 2683.785 521.357 546.682 1243.074 840.984 14449.736 6714.192 6685.426 3640.117 1434.358 1122.676 5997.768 1284.503 6391.622 3400.832 832.632 1481.317 9985.071 9193.093 2634.628
6121.434 4700.192 4528.242 14332.112 4396.979 17049.456 4723.722 3906.848 4694.227 4191.293 4446.941 4373.958 4577.032 5257.082 4540.875 13036.684 4226.863 4320.631 17856.001 4937.668 5300.548 4114.620 4757.777 7640.967 5257.919 4327.308 7024.068 3887.860 4429.839 11170.292 4288.250 5615.971 4400.445 3898.835 7320.009 12458.318 4235.864 4218.571 13748.473 7152.050 3412.639 5199.758 7714.727 11051.674 7118.979 8899.996 3555.487 9508.090 10906.227 7083.146 7578.732 7777.891 6305.409 13428.122 3906.140 4042.630 4204.023 4147.160 4811.020 5032.226 5137.021 7657.917 12953.622 7633.412 8765.742 4727.866 12914.445 6210.658 4314.282 4582.006 3574.259 3470.543 0.000 5809.117 4614.161 6982.046 3902.697 4307.409 5909.403 4162.431 5174.243 4680.752 7809.875 4527.165 4981.291 4681.259 8439.917 4693.832 4711.932 5714.225 4079.628 7723.993 16886.397 10987.044 8210.419 4521.761 5315.560 4344.474 9707.713 6585.956 4157.199 12791.007 6993.980 8794.699 3682.976 6887.626 6260.333 6626.035 5061.214 4646.890 5914.772 15083.605 13218.955 5645.911 4799.092 4537.174 5666.423 8887.580 4080.855 7095.266 6797.490 7207.408 3696.411 2963.008 4403.671 6173.003 4895.238 4382.233 5988.240 4665.122 5242.433 6963.919 4059.863 1261.803 6104.204 5679.347 4626.324 7487.367 8142.549 6211.214 5253.940 3633.658 5076.002 3192.783 4846.120 7690.586 8221.175 5123.608 4439.145 11756.733 3895.258 7193.368 13185.103 3815.019 7273.996 5496.794 7541.628 2725.047 4775.635 3220.124 3103.873 9416.714 4788.118 7964.523 5397.969 3621.848 3681.227 4588.249 3958.928 17858.080 7869.684 5502.329 6513.119 4892.166 4358.237 7849.799 4719.786 4091.444 6137.479 4123.908 4846.466 13450.653 12660.229 1189.516
4002.843 4957.926 3790.255 8718.404 3518.984 12027.072 2817.901 3569.374 3781.069 2020.383 3865.756 2683.049 3697.143 1009.189 4387.129 15183.633 3378.786 3758.187 12683.054 4573.804 3920.081 2790.347 2264.259 9393.012 1885.613 3533.301 7903.424 3829.181 3720.864 5653.114 3575.855 440.979 3566.304 3686.905 6566.830 14328.836 3759.642 3926.381 9180.358 3884.092 3731.019 2907.708 4714.516 5560.524 3758.663 9458.734 3752.838 6573.339 10689.139 5297.003 8336.617 8678.708 3293.027 9136.800 3602.021 3660.534 3531.184 3743.454 2211.876 1874.746 3461.473 4900.772 7235.589 8192.139 9665.964 3804.460 7190.612 4518.316 3706.394 3911.406 4319.391 3423.631 5809.117 0.000 3778.100 7940.814 3602.621 3761.832 196.491 3690.183 4676.787 3490.975 4782.775 3599.670 4927.427 3509.399 8899.508 3398.151 3782.101 5864.229 3029.184 2688.907 11514.925 10223.080 10401.382 3753.013 983.952 3626.418 5226.938 4393.061 3647.581 12476.769 7959.700 4579.534 3697.985 3103.705 4332.116 10176.096 5700.899 3569.949 105.691 9942.848 8918.913 6064.072 4231.519 3911.645 5793.125 6299.241 3065.228 5449.741 7354.805 5912.813 4044.421 7135.995 4529.412 2842.998 7199.225 4589.445 3022.607 3638.314 3077.973 7890.365 3436.774 6806.125 1682.058 5808.925 5073.649 7820.115 8740.790 1976.800 866.051 3277.695 1307.004 3891.524 5497.983 9456.440 4330.295 1582.715 3756.864 9739.821 3923.799 8105.020 7462.353 3822.595 8203.610 3937.324 8163.852 7019.621 2122.370 4090.410 3931.722 6482.741 2078.232 8524.581 832.932 3849.737 3839.290 2509.366 3967.727 12691.573 9813.806 5766.596 5874.371 2880.798 3923.295 8791.210 2766.097 6673.730 697.120 3759.539 3755.587 8883.470 8532.528 4626.553
1512.906 1185.021 87.362 10534.434 339.071 12668.454 962.762 754.412 80.092 2053.555 192.037 1160.063 87.805 2768.912 624.073 11426.104 570.640 293.996 13544.446 820.665 687.747 1193.789 1514.149 5618.285 1964.870 379.803 4176.205 726.611 191.842 7403.743 386.143 3981.505 300.843 727.723 3270.086 10591.890 378.747 424.905 12951.208 7316.298 1219.834 1072.321 8130.351 7261.976 2651.673 5862.179 1067.590 10079.289 7398.292 2559.076 4648.208 4977.287 1903.987 12914.452 743.312 588.637 485.938 468.833 1566.380 4739.192 637.276 8246.844 9421.361 4539.511 5998.357 115.211 9399.047 1629.627 308.015 139.304 1163.039 1277.806 4614.161 3778.100 0.000 4203.631 746.588 307.034 3706.943 461.920 983.521 296.903 8213.317 196.841 1159.670 279.256 5305.412 390.103 97.800 2145.949 982.645 6466.861 12735.624 7157.935 6623.567 94.896 2796.109 309.494 5337.725 1972.195 478.527 9280.966 4222.245 4400.676 946.044 2651.573 1651.089 6590.924 1922.979 211.963 3841.179 13590.263 12696.486 2313.370 472.619 158.092 2073.337 4302.451 948.218 2612.951 3658.225 2868.618 946.108 7236.322 804.532 1987.693 3538.225 871.530 1696.531 151.049 974.411 4155.801 672.271 5875.823 2701.774 2089.986 1312.286 4203.985 5104.485 2590.299 2917.636 1194.355 2472.478 1424.577 1725.979 5681.685 3773.924 4558.501 175.789 7401.207 729.861 4380.606 9653.565 799.145 4480.099 882.719 4495.579 7028.479 1656.910 1403.725 1512.514 9984.544 1701.084 4887.611 2948.166 992.338 932.949 1279.855 679.829 13542.631 6036.339 7867.137 2441.670 938.076 298.798 5086.732 1013.582 7666.079 3512.499 490.958 235.888 8960.212 8085.810 3883.859
4241.228 3096.387 4211.056 12972.375 4508.744 13806.035 5138.790 4660.379 4186.147 6235.525 4160.540 5360.896 4289.886 6938.053 3648.773 7245.046 4702.927 4302.314 14828.859 3385.441 4038.696 5356.331 5698.284 1587.214 6065.519 4516.401 103.151 4425.029 4303.827 10176.993 4488.270 8174.509 4461.656 4552.110 2195.454 6391.581 4331.328 4182.048 17051.873 11505.753 4815.622 5048.640 12312.138 10023.585 5322.636 1920.614 4695.050 14267.608 3966.449 3509.126 598.758 828.046 5116.003 17060.962 4629.269 4506.280 4562.366 4381.866 5743.998 8906.820 4485.887 12415.067 12266.159 721.955 1872.247 4158.099 12263.545 3725.580 4353.835 4082.113 4191.654 5080.893 6982.046 7940.814 4203.631 0.000 4630.492 4303.376 7848.194 4426.035 3264.815 4472.836 12396.992 4395.857 3045.972 4454.587 1469.486 4562.671 4182.334 2076.585 5119.089 10620.992 14438.910 4242.783 2679.061 4248.499 6958.413 4420.648 7391.902 4122.066 4468.796 5822.725 18.985 6629.421 4664.856 5811.241 3962.574 3939.612 2364.316 4400.611 7993.992 17502.449 16843.859 1890.400 3733.686 4092.606 2147.753 4641.582 5080.950 3338.114 657.261 2888.866 4341.798 9945.034 3571.346 5494.642 2237.953 3528.874 5200.189 4330.459 4884.140 56.002 4715.034 8051.871 6601.845 2131.911 3030.113 844.748 1163.275 6391.015 7095.421 5117.633 6649.997 4833.510 2608.765 1646.495 6045.529 8743.531 4266.636 5761.542 4334.760 212.254 12480.856 4470.870 302.061 4058.090 614.994 9706.815 5842.443 4635.269 4869.384 14172.437 5886.222 1001.576 7108.356 4561.918 4534.243 5479.011 4262.037 14816.786 2043.157 11642.653 2335.995 5061.310 4133.887 922.818 5191.632 10899.953 7578.360 4376.530 4192.282 10011.790 8769.551 6910.556
2223.195 1536.333 669.550 10954.932 494.631 13268.499 1048.170 33.348 823.267 1662.736 625.826 949.957 691.304 2620.775 1018.489 11773.320 365.542 464.966 14122.229 1389.259 1426.068 812.873 1440.255 5941.896 1998.980 424.724 4617.021 227.713 554.753 7795.741 386.547 3728.491 498.441 85.120 3944.293 10973.579 388.514 478.132 12763.288 6896.139 490.059 1423.554 7693.329 7659.415 3258.005 6385.818 354.605 9652.585 8022.207 3304.973 5122.736 5435.032 2462.722 12679.605 3.444 162.331 302.255 301.503 1505.582 4285.493 1238.077 7788.650 9765.332 5044.528 6474.036 861.098 9738.495 2375.634 439.509 764.219 752.996 542.704 3902.697 3602.621 746.588 4630.492 0.000 454.370 3569.191 288.778 1606.652 778.992 7779.640 627.517 1647.154 778.855 5836.807 800.644 840.345 2655.525 574.154 6257.402 13262.448 7830.632 6894.398 651.856 2660.855 448.955 5916.150 2700.753 268.067 9916.607 4648.412 4983.958 225.031 3141.722 2388.163 6583.168 2269.895 744.993 3680.981 13528.753 12461.231 2766.885 1095.872 725.252 2584.620 5044.394 539.133 3355.635 4142.796 3592.436 462.402 6490.506 1060.000 2432.656 3598.630 1101.761 2186.928 768.545 1411.462 4587.171 208.921 5162.155 2854.890 2601.479 1603.295 4738.975 5612.761 2818.586 2741.946 504.565 2321.610 716.994 2032.681 6004.644 4378.018 4137.819 574.938 8140.661 323.830 4821.630 9998.932 225.470 4920.705 1614.891 4989.418 6283.396 1557.089 762.729 806.385 9557.056 1596.881 5398.381 2809.227 341.345 296.506 1173.898 380.349 14121.674 6336.612 7210.142 3102.828 1152.889 581.664 5540.044 1075.430 6932.824 3474.586 291.447 963.557 9598.068 8765.001 3138.942
1817.409 1220.070 222.643 10758.948 254.982 12950.180 1001.536 467.680 386.983 1932.868 174.121 1085.868 277.060 2757.351 654.864 11495.240 400.504 13.613 13819.950 973.766 994.709 1053.044 1511.798 5671.784 2017.747 228.631 4282.790 420.813 128.336 7616.641 188.377 3933.694 213.100 425.031 3504.544 10676.610 71.735 185.143 12942.110 7202.405 915.166 1235.158 8009.460 7476.675 2929.961 6013.295 761.671 9964.268 7604.536 2854.651 4772.645 5093.859 2163.401 12885.399 451.310 292.287 260.626 162.596 1571.058 4606.486 895.871 8116.304 9618.531 4679.339 6125.217 421.618 9594.584 1931.841 55.643 310.102 895.832 995.615 4307.409 3761.832 307.034 4303.376 454.370 0.000 3705.940 165.935 1176.212 458.584 8094.014 270.403 1269.960 448.988 5459.996 525.208 404.674 2280.334 816.738 6443.667 12995.647 7393.151 6654.613 214.495 2790.095 138.964 5610.958 2279.189 195.248 9494.429 4321.693 4674.564 642.104 2890.337 1957.818 6504.422 1970.469 388.608 3831.541 13633.788 12667.175 2418.887 655.592 272.479 2208.173 4607.421 778.863 2902.616 3785.648 3138.963 654.244 6935.543 769.118 2205.545 3470.524 827.864 1928.988 378.642 1171.404 4257.655 432.945 5569.021 2811.742 2225.051 1320.017 4358.952 5246.824 2729.130 2895.972 934.294 2456.780 1117.582 1750.709 5734.990 4053.439 4440.156 131.770 7686.509 433.338 4487.755 9851.359 492.590 4587.251 1189.674 4629.577 6726.682 1647.991 1100.506 1205.482 9869.119 1691.497 5030.943 2941.912 685.578 626.216 1255.143 395.617 13818.500 6079.831 7637.508 2666.541 1033.482 169.596 5201.273 1045.499 7386.899 3551.318 183.958 539.687 9251.521 8386.587 3582.255
3866.882 4890.433 3723.326 8570.922 3459.378 11847.296 2744.310 3536.134 3706.010 2028.316 3802.823 2636.563 3627.770 950.789 4321.552 15092.953 3329.698 3701.638 12509.265 4493.043 3817.635 2760.368 2198.120 9313.246 1783.227 3477.367 7808.705 3794.243 3658.884 5491.749 3521.766 637.394 3506.296 3652.721 6436.052 14231.919 3707.379 3874.488 9244.291 4050.643 3722.673 2804.136 4879.444 5396.734 3583.371 9343.093 3736.274 6725.040 10547.217 5149.760 8234.430 8578.141 3138.581 9217.464 3568.409 3618.928 3481.956 3695.800 2142.535 2070.928 3363.289 5070.640 7101.785 8085.176 9558.891 3727.835 7057.894 4387.013 3650.331 3842.042 4296.498 3419.075 5909.403 196.491 3706.943 7848.194 3569.191 3705.940 0.000 3642.048 4587.588 3416.353 4946.197 3532.925 4848.672 3434.738 8784.480 3322.951 3706.184 5772.276 2995.060 2772.838 11350.212 10069.730 10329.172 3686.399 915.887 3569.103 5030.775 4246.216 3599.997 12327.151 7867.117 4383.731 3675.317 2924.408 4195.997 10150.753 5629.269 3497.044 167.803 9961.540 8999.908 5977.812 4153.765 3844.416 5701.647 6122.477 3030.187 5304.886 7255.613 5773.037 4017.383 7295.092 4470.486 2687.225 7158.604 4531.765 2878.142 3564.484 2972.467 7797.222 3396.593 6925.915 1511.112 5717.260 5010.199 7709.572 8630.842 1804.880 830.463 3266.785 1251.808 3892.079 5431.299 9376.674 4138.607 1778.953 3694.365 9562.082 3887.804 8009.453 7329.645 3791.457 8107.729 3826.415 8059.017 7175.273 2058.945 4086.287 3936.240 6635.057 2015.150 8415.074 764.318 3828.312 3814.903 2450.805 3928.348 12517.522 9737.281 5962.756 5755.762 2795.885 3864.650 8691.024 2693.362 6855.449 501.568 3712.989 3673.071 8691.042 8336.305 4731.554
1959.044 1332.421 382.167 10820.941 280.118 13059.259 986.544 301.774 540.282 1819.227 339.040 1007.141 415.109 2691.444 781.803 11602.117 312.482 176.233 13922.875 1125.399 1147.248 940.549 1461.593 5774.498 1990.514 218.256 4408.016 295.311 271.008 7671.495 163.039 3846.391 260.913 266.371 3666.694 10790.109 104.905 246.033 12867.520 7082.624 758.872 1280.730 7886.528 7532.857 3039.894 6152.795 608.691 9843.149 7759.765 3017.610 4903.818 5221.957 2260.114 12801.296 285.675 127.451 160.924 54.336 1523.611 4480.794 1004.737 7989.513 9661.795 4815.882 6256.357 577.071 9636.760 2091.325 154.146 476.036 825.621 829.687 4162.431 3690.183 461.920 4426.035 288.778 165.935 3642.048 0.000 1334.191 547.922 7971.691 371.799 1407.125 543.027 5600.887 594.010 557.701 2418.914 697.703 6364.889 13084.857 7554.795 6746.763 367.070 2726.840 188.943 5713.634 2428.350 43.635 9651.230 4444.219 4778.451 484.895 2969.298 2110.834 6537.977 2079.668 495.098 3763.012 13585.552 12582.993 2547.485 816.601 438.035 2347.130 4764.066 659.312 3067.139 3918.892 3304.878 556.781 6774.790 865.681 2273.074 3519.177 918.193 2007.936 504.127 1237.825 4381.158 289.623 5423.504 2810.605 2364.023 1419.826 4500.670 5383.813 2745.050 2824.399 771.920 2390.361 969.704 1852.389 5837.567 4163.007 4320.530 287.770 7851.883 338.786 4612.961 9894.964 358.819 4712.355 1339.483 4764.190 6566.686 1592.301 971.642 1058.559 9747.858 1634.883 5168.403 2877.872 546.295 487.980 1198.201 331.322 13921.770 6177.900 7478.412 2827.431 1047.852 309.918 5328.549 1025.126 7220.987 3508.379 76.622 686.660 9371.323 8519.012 3422.073
1428.094 645.358 1016.025 10771.567 1317.401 12560.697 1877.972 1627.163 948.100 3034.484 1005.284 2134.271 1071.097 3673.245 650.009 10506.917 1540.850 1169.750 13481.848 239.573 830.558 2177.029 2436.829 4734.329 2807.932 1345.369 3229.909 1474.040 1128.585 7712.910 1334.338 4912.067 1274.534 1551.939 2339.568 9655.551 1229.287 1133.353 13813.085 8288.387 1986.108 1802.804 9105.283 7564.929 2732.598 4881.566 1830.630 11050.785 6429.092 1930.756 3683.653 4018.380 2181.158 13804.472 1604.139 1449.187 1426.985 1308.151 2480.897 5719.720 1237.498 9225.427 9778.821 3564.883 5029.720 915.039 9762.906 1193.828 1213.337 888.636 1608.010 2143.601 5174.243 4676.787 983.521 3264.815 1606.652 1176.212 4587.588 1334.191 0.000 1223.199 9187.519 1180.205 379.176 1205.465 4324.014 1309.078 940.875 1189.062 1960.876 7360.029 12778.405 6224.117 5771.114 1050.383 3693.872 1257.304 5354.113 1687.186 1369.528 8318.230 3283.666 4434.172 1740.979 2965.648 1353.255 6004.085 1148.615 1159.049 4731.390 14360.564 13587.037 1391.750 523.159 914.354 1117.391 3760.643 1925.223 1925.767 2694.485 2053.678 1554.049 7945.940 771.261 2443.756 2962.063 798.569 2128.755 1089.197 1646.713 3214.842 1607.878 6424.821 3416.129 1133.422 800.429 3223.116 4127.865 3243.281 3830.809 2105.151 3385.595 2126.959 1043.020 4797.674 3785.336 5534.641 1094.106 6627.082 1416.905 3432.732 10007.310 1544.223 3531.788 927.322 3524.528 7727.865 2580.927 2017.443 2201.902 10956.275 2624.458 3910.737 3844.061 1712.807 1660.983 2227.219 1337.071 13477.357 5166.038 8812.603 1496.567 1796.543 1026.559 4129.323 1930.961 8502.014 4338.604 1315.517 931.368 8783.133 7797.597 4606.459
1454.765 1479.606 338.819 10300.884 284.491 12511.451 673.077 773.907 290.098 1821.538 445.394 915.983 232.479 2482.054 920.966 11703.663 476.571 446.128 13375.184 1088.397 713.578 996.782 1229.858 5902.428 1668.534 354.673 4442.471 843.218 340.346 7160.289 398.761 3703.792 288.753 792.862 3441.338 10863.763 514.607 633.151 12660.062 7065.386 1268.646 792.167 7882.950 7019.954 2492.577 6101.969 1131.161 9827.661 7592.075 2616.024 4905.124 5237.781 1713.090 12627.767 775.558 651.024 476.926 582.091 1279.622 4502.664 460.421 8005.220 9166.636 4788.053 6252.462 315.113 9143.245 1668.041 421.864 436.076 1352.892 1252.712 4680.752 3490.975 296.903 4472.836 778.992 458.584 3416.353 547.922 1223.199 0.000 7964.943 188.212 1437.801 18.426 5543.596 93.776 291.703 2405.024 821.031 6179.842 12541.705 7319.531 6912.868 308.746 2507.791 359.764 5165.881 1943.849 539.843 9465.990 4491.551 4230.575 1001.855 2432.394 1646.650 6884.441 2213.079 86.378 3552.369 13293.436 12409.887 2584.786 742.112 449.439 2332.633 4302.771 792.782 2688.701 3915.343 2987.540 1099.700 7229.237 1098.833 1747.364 3833.431 1165.358 1470.794 148.578 714.912 4424.175 630.875 5939.448 2409.140 2349.058 1608.729 4443.753 5350.692 2304.940 2633.279 1132.207 2187.481 1494.980 2020.197 5965.851 3615.451 4313.306 360.247 7475.228 878.171 4646.323 9399.270 905.450 4745.679 879.566 4747.541 7026.616 1373.574 1516.380 1584.449 9733.176 1417.650 5133.521 2659.645 1087.842 1031.042 1006.705 850.804 13374.038 6322.943 7713.695 2629.193 641.195 542.651 5348.098 724.951 7593.055 3216.390 609.187 304.366 8826.954 7986.192 3887.104
8746.808 9303.555 8196.873 10956.309 7895.517 15116.575 7330.248 7748.511 8241.064 6164.277 8240.184 7054.410 8125.730 5656.553 8748.322 19541.722 7695.177 8095.338 15515.412 9033.044 8530.365 7041.563 6785.464 13711.933 6572.400 7883.750 12376.741 7994.687 8098.655 8635.345 7910.018 4417.046 7941.946 7860.952 11275.617 18752.697 8065.725 8216.466 6100.968 906.384 7676.139 7555.782 95.379 8618.802 8519.900 14065.727 7769.854 1873.314 15431.021 10064.191 12860.271 13185.867 8073.570 5674.215 7780.553 7895.499 7834.696 8016.736 6752.745 3494.238 8065.433 328.456 9284.188 12751.794 14211.352 8273.017 9218.301 9243.526 8044.061 8326.883 8328.970 7379.909 7809.875 4782.775 8213.317 12396.992 7779.640 8094.014 4946.197 7971.691 9187.519 7964.943 0.000 8017.526 9358.334 7982.509 13506.691 7881.142 8247.429 10358.658 7277.925 2888.705 14079.923 14997.998 14627.825 8159.921 5657.154 7979.053 9476.075 9161.522 7928.755 17242.197 12415.251 9050.095 7775.204 7851.949 9074.288 13855.707 10046.947 8028.706 4778.403 7844.379 5473.394 10512.093 8685.850 8312.687 10286.041 11049.431 7316.050 10211.112 11870.669 10658.439 8120.532 7163.341 8831.714 7624.733 11185.988 8878.229 7791.478 8098.736 7728.199 12351.549 7683.298 8143.456 6456.764 10302.746 9381.505 12408.078 13315.380 6749.660 5485.312 7311.996 5899.842 7727.814 9812.080 13774.222 8946.531 3655.393 8135.697 14479.587 8088.637 12581.697 9450.991 7957.367 12681.206 8587.913 12708.862 7206.131 6645.126 7945.302 7721.966 1777.643 6604.060 13098.256 5527.840 7898.024 7914.742 6968.394 8156.173 15533.387 14094.065 3537.734 10531.218 7446.402 8263.389 13294.030 7277.757 5717.749 5399.786 8023.093 8262.497 12684.959 12671.778 6831.481
1595.994 1358.317 190.588 10488.985 155.794 12690.556 794.259 627.926 242.720 1856.931 278.644 965.655 109.115 2590.881 788.653 11614.045 388.341 257.916 13556.951 1015.668 807.446 997.626 1335.858 5802.230 1807.669 213.676 4369.364 665.006 154.766 7347.795 241.454 3795.416 132.097 629.038 3457.451 10782.587 328.065 446.288 12776.656 7120.885 1115.969 972.910 7934.445 7207.594 2670.409 6058.953 971.857 9883.899 7591.202 2704.837 4843.427 5171.787 1896.904 12734.315 624.085 485.218 335.344 400.471 1390.406 4542.533 634.367 8050.396 9352.457 4735.814 6193.923 281.313 9328.850 1764.508 235.663 314.982 1165.385 1134.022 4527.165 3599.670 196.841 4395.857 627.517 270.403 3532.925 371.799 1180.205 188.212 8017.526 0.000 1350.307 178.795 5502.230 260.536 255.256 2341.295 790.239 6287.570 12727.578 7343.762 6802.159 153.480 2619.712 183.887 5347.616 2073.951 370.944 9472.350 4414.434 4411.753 844.224 2620.157 1764.632 6725.835 2102.618 123.486 3664.674 13434.033 12516.269 2505.458 668.432 311.981 2268.677 4422.598 756.712 2766.960 3853.529 3039.737 915.910 7108.619 948.938 1935.484 3680.323 1013.731 1658.693 142.756 902.250 4348.314 512.835 5787.451 2573.372 2285.356 1477.902 4400.786 5300.951 2478.553 2737.020 1033.427 2292.886 1335.410 1898.760 5865.602 3793.815 4362.520 179.884 7556.934 694.029 4573.889 9585.168 730.486 4673.405 991.045 4691.527 6903.409 1477.301 1343.421 1424.710 9789.117 1521.439 5084.108 2771.879 917.570 859.546 1094.575 663.724 13555.671 6218.005 7681.809 2632.311 795.019 365.668 5281.029 843.090 7508.101 3352.114 427.155 348.805 8999.783 8148.472 3760.181
1806.725 305.114 1165.099 11150.571 1463.813 12912.246 2110.199 1673.128 1148.099 3194.086 1118.309 2314.940 1245.128 3918.992 628.986 10267.109 1664.954 1267.353 13839.139 358.571 1178.454 2317.938 2667.646 4465.636 3081.780 1474.739 3020.909 1473.579 1259.812 8091.387 1450.244 5139.969 1417.013 1578.649 2397.403 9432.461 1306.532 1173.303 14088.593 8464.237 1952.773 2101.403 9274.379 7943.521 3111.276 4745.671 1805.459 11227.001 6388.981 2204.806 3503.816 3827.533 2554.354 14063.737 1645.250 1503.833 1530.585 1369.055 2717.144 5874.281 1543.789 9384.223 10156.154 3409.700 4856.192 1123.291 10139.976 1546.455 1317.547 1036.183 1470.861 2157.265 4981.291 4927.427 1159.670 3045.972 1647.154 1269.960 4848.672 1407.125 379.176 1437.801 9358.334 1350.307 0.000 1419.387 4193.973 1529.955 1146.134 1011.790 2085.693 7615.906 13147.303 6244.898 5483.687 1202.530 3943.685 1379.718 5725.499 2048.400 1447.984 8288.566 3064.512 4808.105 1737.688 3340.057 1719.888 5638.119 804.121 1361.497 4987.223 14674.521 13845.940 1155.823 695.999 1047.021 940.049 4034.873 2048.074 2175.728 2515.993 2228.415 1486.188 7805.322 637.255 2802.722 2589.765 631.629 2487.502 1291.999 1955.443 2998.751 1695.671 6220.270 3735.385 956.943 442.452 3094.253 3977.390 3576.038 4071.014 2151.146 3625.159 2055.687 670.352 4529.066 4159.136 5703.119 1222.723 6780.476 1398.146 3225.659 10384.823 1535.024 3325.203 1294.953 3359.619 7582.877 2811.298 1913.747 2120.978 11132.023 2855.394 3761.738 4095.262 1676.948 1632.970 2438.898 1317.911 13834.306 4888.656 8841.742 1559.063 2054.314 1102.649 3935.813 2162.389 8433.044 4624.911 1368.866 1177.382 9126.846 8122.050 4490.148
1451.490 1461.452 323.007 10311.507 284.289 12516.278 691.501 774.553 271.673 1838.223 430.521 932.912 216.588 2500.480 903.252 11685.289 482.673 436.347 13380.900 1070.067 703.639 1011.300 1248.267 5884.002 1686.538 354.147 4424.283 838.141 328.903 7171.701 396.533 3722.139 285.492 790.755 3426.549 10845.481 506.483 621.736 12678.425 7083.031 1268.794 806.605 7900.481 7031.239 2496.900 6084.561 1130.142 9845.347 7576.489 2606.729 4887.172 5219.738 1719.512 12646.191 775.416 648.351 477.251 575.859 1298.047 4519.740 462.903 8022.544 9179.073 4770.341 6234.603 296.768 9155.780 1659.264 413.846 418.505 1344.176 1257.391 4681.259 3509.399 279.256 4454.587 778.855 448.988 3434.738 543.027 1205.465 18.426 7982.509 178.795 1419.387 0.000 5526.233 112.017 273.302 2386.955 833.200 6198.266 12549.230 7305.393 6894.476 293.668 2526.211 354.331 5171.553 1939.141 536.372 9450.818 4473.299 4236.036 1001.020 2441.400 1640.284 6867.702 2194.717 70.117 3570.782 13311.245 12428.311 2566.474 723.716 432.501 2314.556 4297.039 804.507 2678.424 3897.369 2975.135 1092.980 7234.459 1081.856 1758.017 3816.364 1148.462 1480.001 130.377 726.744 4405.942 634.637 5940.256 2425.643 2330.987 1590.805 4426.314 5333.063 2320.377 2651.699 1138.945 2205.903 1494.090 2002.004 5947.425 3619.981 4330.709 347.518 7465.551 871.261 4628.149 9411.671 901.212 4727.509 871.851 4729.726 7031.516 1391.976 1512.847 1583.561 9750.852 1436.054 5115.897 2678.062 1084.743 1027.654 1024.856 842.418 13379.706 6304.523 7727.044 2613.598 658.833 528.806 5330.034 743.377 7602.105 3234.427 602.859 288.551 8830.049 7986.986 3891.411
4975.230 4314.843 5330.301 12946.663 5633.564 13291.768 6178.372 5863.926 5272.114 7358.346 5300.751 6457.705 5393.206 7922.368 4821.963 6517.812 5848.002 5456.420 14344.298 4493.777 4993.913 6495.117 6728.915 1950.556 7015.920 5654.016 1418.186 5649.883 5436.123 10364.586 5635.095 9179.099 5588.778 5764.801 2467.082 5576.036 5499.628 5366.560 17858.882 12605.338 6087.150 5997.237 13425.317 10212.245 5828.870 560.048 5953.619 15365.676 2499.274 3918.767 872.076 798.237 5818.723 17926.204 5835.082 5697.047 5719.980 5562.996 6765.898 10043.731 5459.107 13548.732 12420.837 820.252 893.513 5238.819 12426.475 4440.134 5505.213 5200.467 5495.835 6327.202 8439.917 8899.508 5305.412 1469.486 5836.807 5459.996 8784.480 5600.887 4324.014 5543.596 13506.691 5502.230 4193.973 5526.233 0.000 5626.231 5264.754 3182.424 6270.492 11535.870 14107.591 2863.813 2824.259 5366.231 7934.439 5561.343 7464.703 4719.444 5641.448 4355.252 1459.810 6830.680 5905.291 6412.332 4658.046 4838.272 3642.003 5482.384 8940.119 18139.320 17711.216 3083.884 4835.704 5219.670 3253.958 4475.064 6233.559 3737.421 1720.310 3227.441 5608.030 11402.505 4787.118 6243.119 3694.905 4755.902 5980.337 5412.779 5825.370 1481.358 5888.854 9519.857 7421.406 3237.066 4281.971 1101.677 317.370 7177.237 8087.957 6338.260 7650.530 6135.897 3892.097 1974.197 6324.793 9856.867 5399.872 4685.549 5566.325 1263.949 12623.161 5704.591 1197.547 4962.861 902.675 11164.912 6871.254 5950.610 6181.544 15271.550 6913.463 475.702 8078.972 5820.533 5785.363 6538.502 5488.786 14328.959 2289.541 12973.315 3031.471 6070.546 5294.695 800.354 6231.089 12321.167 8457.593 5562.441 5244.565 9580.533 8272.599 8322.252
1460.529 1573.372 427.611 10235.875 316.656 12473.511 580.333 791.757 383.124 1744.720 530.928 838.311 322.067 2389.352 1014.125 11794.963 470.464 513.606 13332.949 1179.343 757.085 935.662 1138.069 5995.031 1574.937 385.302 4531.696 887.644 415.280 7091.859 435.762 3612.963 333.919 823.871 3507.772 10953.896 574.756 705.486 12566.533 6980.980 1286.442 712.421 7799.411 6952.096 2458.562 6184.914 1155.167 9742.910 7662.975 2651.914 4992.249 5325.666 1669.614 12534.901 797.263 685.912 500.259 633.597 1187.194 4422.569 444.608 7923.215 9093.614 4873.279 6338.797 406.692 9069.802 1702.118 482.791 529.052 1411.922 1247.403 4693.832 3398.151 390.103 4562.671 800.644 525.208 3322.951 594.010 1309.078 93.776 7881.142 260.536 1529.955 112.017 5626.231 0.000 383.973 2493.257 775.514 6086.966 12490.908 7381.691 7006.230 395.629 2414.807 411.521 5124.363 1956.126 579.711 9534.280 4581.404 4190.264 1025.519 2375.831 1668.038 6974.738 2306.619 178.379 3459.244 13200.173 12317.037 2675.373 834.017 540.968 2420.948 4318.962 750.162 2729.879 4002.677 3040.354 1150.472 7217.628 1190.120 1683.590 3924.797 1256.398 1414.219 242.352 647.907 4513.844 634.481 5950.774 2319.925 2437.319 1702.244 4526.986 5435.281 2219.813 2541.079 1116.315 2095.207 1517.301 2113.973 6058.456 3579.847 4230.841 439.324 7512.111 930.604 4735.408 9326.400 945.715 4834.725 910.479 4833.563 7016.721 1281.945 1551.420 1606.582 9648.496 1325.973 5218.073 2566.612 1121.989 1066.779 918.486 909.760 13332.036 6415.931 7657.011 2700.680 548.523 624.358 5436.165 632.438 7560.811 3122.738 660.840 381.924 8797.614 7968.323 3880.917
1415.403 1196.751 184.600 10459.500 408.946 12576.561 964.304 846.953 17.708 2094.299 282.434 1193.477 155.865 2773.325 651.462 11412.054 642.459 391.568 13454.287 797.201 590.425 1245.986 1521.553 5611.058 1951.464 458.344 4152.650 824.410 286.748 7332.743 471.556 3995.256 376.608 823.905 3202.526 10572.894 476.351 518.338 12949.214 7348.935 1316.280 1028.365 8164.994 7190.442 2561.656 5822.420 1164.542 10111.634 7339.077 2467.627 4618.223 4949.698 1820.825 12918.826 837.034 683.823 571.107 566.161 1571.108 4779.082 560.749 8284.558 9354.931 4504.398 5966.722 26.464 9333.125 1535.293 403.559 190.489 1254.385 1367.673 4711.932 3782.101 97.800 4182.334 840.345 404.674 3706.184 557.701 940.875 291.703 8247.429 255.256 1146.134 273.302 5264.754 383.973 0.000 2116.845 1044.238 6470.891 12649.951 7088.559 6623.056 191.172 2798.688 397.339 5248.616 1874.516 572.449 9218.924 4201.029 4311.513 1042.369 2574.388 1553.965 6627.249 1924.372 219.154 3842.985 13571.488 12700.968 2293.676 450.418 225.086 2044.353 4206.372 1011.196 2524.073 3628.232 2787.566 1042.227 7330.790 845.191 1918.643 3571.162 912.849 1623.186 148.887 918.801 4133.851 755.831 5973.586 2667.100 2060.855 1331.136 4163.970 5068.116 2546.382 2924.894 1278.585 2479.062 1522.084 1735.901 5674.483 3683.187 4593.986 273.164 7313.343 826.874 4356.661 9586.913 896.924 4456.061 785.005 4462.483 7123.361 1665.277 1501.275 1610.097 10017.036 1709.353 4851.047 2950.456 1090.096 1030.711 1296.679 775.466 13452.368 6032.110 7937.063 2378.750 920.789 387.430 5059.747 1016.364 7752.668 3499.301 588.529 140.070 8865.764 7988.983 3978.775
2301.202 1153.915 2162.261 11487.713 2464.529 12899.632 3066.047 2682.258 2121.925 4195.787 2124.690 3305.930 2233.357 4861.826 1639.555 9320.694 2672.477 2277.277 13866.076 1325.648 1971.393 3323.681 3625.265 3571.552 3990.187 2480.203 2040.847 2473.490 2263.296 8524.150 2458.351 6100.950 2418.604 2584.756 1630.236 8466.576 2318.171 2184.163 14986.303 9462.165 2930.860 2975.981 10275.404 8372.644 3526.585 3733.886 2790.282 12225.173 5414.544 2062.038 2502.271 2832.878 3160.056 14987.006 2653.736 2514.674 2540.822 2380.634 3669.806 6879.586 2411.729 10389.037 10612.246 2399.338 3852.695 2091.915 10602.018 1846.730 2326.851 2032.153 2382.868 3154.913 5714.225 5864.229 2145.949 2076.585 2655.525 2280.334 5772.276 2418.914 1189.062 2405.024 10358.658 2341.295 1011.790 2386.955 3182.424 2493.257 2116.845 0.000 3094.356 8545.111 13283.406 5333.216 4627.758 2199.052 4881.915 2386.165 5942.578 2327.217 2459.732 7318.827 2095.472 5075.389 2733.124 3908.849 2079.649 5134.914 670.993 2335.960 5917.584 15488.645 14769.755 279.485 1673.346 2047.808 72.619 3755.822 3056.991 1953.597 1512.277 1768.237 2454.112 8613.067 1614.691 3497.274 2253.117 1589.881 3190.764 2265.666 2813.589 2026.238 2707.367 6915.217 4555.020 55.993 1155.581 2083.503 2966.571 4359.717 5019.773 3158.211 4574.632 3006.252 868.239 3634.585 4440.035 6703.433 2226.547 6094.222 2392.914 2243.743 10835.815 2531.044 2342.851 2009.380 2351.664 8384.319 3769.406 2840.154 3062.175 12130.403 3813.021 2750.615 5031.794 2658.602 2619.388 3411.553 2314.076 13858.581 4011.494 9829.891 935.752 2985.062 2113.844 2943.080 3118.996 9338.899 5510.149 2380.019 2119.002 9081.603 7977.981 5356.382
2203.137 2028.993 944.915 10529.484 644.394 12988.405 647.410 541.076 1032.580 1121.525 970.033 396.699 897.206 2046.954 1470.420 12299.746 422.495 818.673 13817.323 1777.126 1531.264 244.833 895.308 6471.664 1466.619 617.070 5099.197 800.043 835.085 7360.387 636.011 3163.125 686.391 657.970 4246.326 11487.326 788.372 943.736 12194.562 6387.277 840.690 1120.552 7193.197 7227.763 3046.369 6825.074 792.793 9148.629 8380.870 3426.807 5589.121 5910.596 2230.311 12117.483 573.408 640.885 556.819 745.992 961.509 3789.751 1182.052 7299.569 9298.753 5493.694 6941.643 1070.578 9269.681 2476.768 768.158 1073.281 1312.889 635.045 4079.628 3029.184 982.645 5119.089 574.154 816.738 2995.060 697.703 1960.876 821.031 7277.925 790.239 2085.693 833.200 6270.492 775.514 1044.238 3094.356 0.000 5689.065 12911.179 8130.844 7439.819 910.550 2087.483 709.149 5636.420 2706.794 654.207 10262.584 5137.362 4717.611 702.803 2821.661 2433.281 7156.778 2777.161 848.661 3107.063 12955.003 11899.130 3235.605 1439.769 1051.548 3022.009 5070.524 38.392 3505.321 4601.684 3808.321 1027.084 6490.801 1563.315 2103.591 4170.631 1615.010 1908.616 909.428 1176.530 5073.633 417.085 5320.789 2344.787 3038.863 2117.353 5168.929 6060.784 2341.832 2167.875 455.121 1748.190 1068.797 2549.935 6534.702 4141.942 3624.957 870.991 8286.922 894.651 5304.167 9532.647 796.941 5403.648 1684.977 5444.972 6295.512 999.795 1203.742 1145.170 9053.424 1037.348 5844.617 2235.487 856.511 832.871 637.008 940.977 13818.057 6873.738 6896.935 3422.544 812.564 985.773 6017.979 650.324 6790.468 2907.957 756.174 1113.013 9371.034 8602.572 3181.240
6579.922 7645.490 6478.114 8314.077 6203.761 12314.557 5506.765 6224.056 6469.932 4617.159 6551.964 5359.909 6385.648 3698.041 7074.188 17865.791 6055.471 6440.535 12770.935 7261.692 6588.214 5446.003 4952.810 12081.539 4555.637 6215.588 10581.197 6485.094 6406.725 5786.653 6256.598 2531.887 6251.255 6342.408 9151.640 17003.237 6438.356 6604.357 6505.897 2226.178 6329.979 5575.085 2863.327 5760.455 6061.948 12092.802 6372.314 4339.063 13203.162 7805.603 11003.135 11347.939 5787.154 6447.935 6257.109 6327.348 6207.536 6417.459 4900.761 2700.168 6135.672 3143.925 6657.122 10849.308 12322.221 6493.167 6595.524 7110.303 6388.461 6599.848 6948.378 6017.014 7723.993 2688.907 6466.861 10620.992 6257.402 6443.667 2772.838 6364.889 7360.029 6179.842 2888.705 6287.570 7615.906 6198.266 11535.870 6086.966 6470.891 8545.111 5689.065 0.000 11390.617 12656.072 13089.703 6440.792 3672.263 6309.546 6651.138 6913.565 6321.814 14931.841 10639.918 6308.856 6331.696 5388.043 6905.855 12787.924 8389.466 6258.850 2629.369 7442.215 6230.083 8749.565 6920.107 6599.540 8474.466 8511.281 5726.188 7971.020 10026.519 8458.462 6684.367 8171.686 7212.480 5340.285 9853.964 7271.475 5574.482 6327.218 5742.223 10569.974 6102.718 8466.256 4137.003 8490.087 7759.248 10469.305 11390.797 4403.955 3550.745 5889.702 3994.775 6462.294 8185.026 12144.969 6293.519 2603.586 6442.954 11885.315 6580.938 10781.716 6847.155 6471.952 10879.891 6590.377 10825.440 8128.889 4810.521 6672.440 6489.159 4261.060 4766.355 11175.785 3520.644 6479.367 6475.370 5195.245 6629.978 12786.814 12502.712 5464.669 8504.398 5566.364 6606.907 11461.051 5454.993 7163.166 3079.843 6432.223 6442.635 9796.368 9801.239 6558.751
11375.238 13422.430 12817.864 3138.786 12806.676 1947.941 12271.510 13244.987 12665.392 12709.922 12927.615 12565.858 12728.874 11733.535 13151.300 19833.654 12897.828 12982.525 1597.409 12924.388 12171.376 12823.839 12142.589 15873.059 11628.782 12873.573 14339.632 13378.213 12869.919 5865.344 12925.850 11880.186 12824.220 13302.559 12268.215 18827.593 13055.625 13154.658 12822.672 13588.948 13709.467 11842.058 14084.918 5954.464 10103.104 14414.215 13607.441 14853.489 13710.840 11227.914 14316.858 14591.166 10833.349 13520.586 13259.353 13171.845 12978.949 13122.793 12086.203 13180.393 12103.284 14385.271 4803.894 14039.868 14938.829 12646.941 4871.307 11609.328 12963.061 12833.310 13890.821 13546.219 16886.397 11514.925 12735.624 14438.910 13262.448 12995.647 11350.212 13084.857 12778.405 12541.705 14079.923 12727.578 13147.303 12549.230 14107.591 12490.908 12649.951 13283.406 12911.179 11390.617 0.000 12686.545 16890.564 12805.021 11676.350 12899.854 7427.575 11101.877 13069.764 14273.012 14451.900 8357.840 13482.133 10120.808 11427.418 18289.377 13746.133 12607.118 11419.908 11152.675 13416.191 13554.107 12824.170 12872.940 13260.548 9797.392 12920.083 11354.096 13855.814 11677.188 13640.639 18642.126 13363.366 10831.631 15535.034 13422.681 11078.858 12622.098 11853.704 14389.062 13063.331 18053.019 10789.775 13263.270 13578.799 13685.014 14237.901 10675.296 11781.182 13365.209 11861.813 13948.126 13750.631 15917.694 9002.734 12913.655 12879.336 10382.837 13419.601 14431.184 4654.203 13433.796 14479.983 11987.509 14108.843 18515.716 12114.830 14025.099 14032.681 14816.177 12100.555 14128.756 11629.417 13600.173 13548.431 12335.534 13390.972 1627.361 16294.824 16779.565 12450.611 12129.706 13034.422 14676.918 12262.498 18123.102 10970.270 13150.007 12514.030 4561.795 5907.725 15805.294
6266.867 6460.426 7210.258 12139.915 7495.580 11558.139 7840.950 7850.665 7101.156 9093.773 7219.542 8202.494 7239.792 9352.698 6842.468 7147.111 7728.407 7385.461 12638.395 6446.639 6639.969 8316.009 8330.176 4673.991 8445.704 7536.955 4166.660 7691.495 7328.799 10092.167 7536.027 10581.076 7458.775 7775.613 3889.047 6141.315 7450.090 7356.860 18595.336 14093.988 8191.157 7515.403 14926.356 9950.948 6596.821 2696.560 8039.709 16794.761 1030.358 4935.733 3683.428 3661.942 6931.187 18787.876 7828.091 7672.342 7633.290 7531.227 8348.091 11689.048 7077.659 15094.667 11983.960 3521.604 3182.867 7062.450 12005.459 5798.906 7425.239 7091.519 7699.146 8367.098 10987.044 10223.080 7157.935 4242.783 7830.632 7393.151 10069.730 7554.795 6224.117 7319.531 14997.998 7343.762 6244.898 7305.393 2863.813 7381.691 7088.559 5333.216 8130.844 12656.072 12686.545 0.000 5267.972 7240.174 9347.912 7457.672 7205.500 5836.931 7588.156 2280.273 4238.065 6895.722 7959.163 7268.840 5944.451 7590.201 5950.335 7283.273 10236.467 18511.105 18581.011 5357.622 6738.217 7123.629 5391.716 4315.476 8098.798 4794.443 4231.111 4377.352 7730.558 13921.818 6882.134 7382.535 6470.384 6872.773 7206.521 7221.447 7348.681 4238.003 7818.634 12138.105 8574.704 5376.689 6484.173 3551.105 3175.655 8289.598 9524.189 8326.711 9129.602 8300.434 6182.512 4679.014 6606.818 11457.619 7297.482 2372.155 7626.349 4060.023 12154.097 7758.978 4014.510 6531.915 3627.936 13689.718 8458.346 8151.662 8364.392 16704.686 8494.479 3271.632 9472.919 7914.884 7867.472 8207.938 7545.542 12617.555 4896.849 15025.069 4727.840 7688.550 7249.666 3655.982 7888.899 14667.670 9650.162 7539.324 7019.862 8150.109 6802.960 10689.577
6885.886 5444.641 6611.637 15583.448 6889.092 16112.080 7585.376 6927.037 6623.162 8555.223 6539.375 7740.369 6704.241 9392.262 6016.376 4945.483 7049.771 6656.806 17161.678 5841.347 6587.638 7684.479 8137.124 1092.275 8565.311 6881.062 2757.126 6670.523 6684.932 12841.554 6842.814 10588.257 6841.435 6810.155 4815.732 4266.626 6665.855 6502.571 19571.813 13760.772 6952.993 7572.945 14538.675 12688.106 7999.372 2670.269 6864.996 16498.839 4491.459 6182.321 2611.340 2308.573 7759.015 19536.259 6894.024 6800.232 6899.496 6696.184 8189.934 11144.609 7008.239 14609.057 14927.333 2880.681 2130.254 6601.571 14926.276 6382.483 6709.185 6489.978 6299.969 7253.054 8210.419 10401.382 6623.567 2679.061 6894.398 6654.613 10329.172 6746.763 5771.114 6912.868 14627.825 6802.159 5483.687 6894.476 2824.259 7006.230 6623.056 4627.758 7439.819 13089.703 16890.564 5267.972 0.000 6648.987 9419.663 6786.036 10022.035 6794.978 6790.357 5857.154 2661.347 9288.319 6869.998 8473.599 6620.669 2536.611 4700.591 6832.597 10464.689 20116.394 19318.172 4388.260 6176.499 6490.205 4692.674 7152.106 7401.630 6008.873 3336.236 5544.396 6518.727 11062.211 5886.282 8117.897 3500.206 5830.145 7814.822 6764.850 7417.808 2735.050 7022.851 9030.033 9178.619 4678.912 5334.851 3268.725 2657.897 8987.348 9539.155 7333.788 9094.939 6902.531 4906.223 1034.335 8715.184 11018.348 6648.440 7398.681 6574.430 2602.310 15139.804 6698.825 2526.999 6636.472 2827.486 10822.751 8279.213 6686.004 6912.779 16402.889 8323.375 2762.076 9571.699 6739.642 6727.621 7895.346 6514.088 17146.756 636.269 13411.803 5012.984 7537.687 6488.688 2217.159 7636.689 12298.221 10106.051 6684.378 6661.067 12383.691 11085.929 8493.283
1603.065 1204.926 37.637 10590.175 267.550 12746.903 946.907 660.039 173.597 1996.792 136.942 1112.478 79.567 2744.277 635.203 11463.400 492.295 201.181 13620.216 874.190 781.575 1129.039 1489.302 5650.135 1958.671 297.757 4223.040 635.216 97.159 7455.008 297.401 3947.236 224.162 633.009 3351.564 10633.654 285.907 349.670 12930.133 7264.277 1125.256 1100.154 8076.507 7313.885 2728.041 5922.161 973.371 10027.264 7473.285 2653.479 4700.359 5027.307 1971.786 12887.396 648.589 493.742 396.613 375.161 1543.884 4681.427 701.926 8190.366 9467.129 4595.982 6051.573 210.001 9444.232 1724.520 213.121 166.968 1087.903 1184.364 4521.761 3753.013 94.896 4248.499 651.856 214.495 3686.399 367.070 1050.383 308.746 8159.921 153.480 1202.530 293.668 5366.231 395.629 191.172 2199.052 910.550 6440.792 12805.021 7240.174 6648.987 0.000 2773.176 219.451 5412.273 2065.223 383.831 9357.932 4267.036 4475.415 851.400 2711.468 1745.136 6580.051 1949.792 223.859 3818.123 13585.379 12669.340 2358.296 530.796 158.876 2126.451 4397.144 875.080 2706.512 3710.776 2958.474 861.498 7141.434 798.515 2038.881 3532.020 863.966 1753.040 186.331 1014.716 4201.258 583.356 5783.335 2715.492 2143.194 1324.584 4264.574 5161.839 2613.654 2890.168 1104.110 2446.175 1331.176 1745.303 5713.497 3851.052 4504.573 82.761 7494.234 642.972 4427.696 9699.570 707.077 4527.232 975.689 4550.388 6933.585 1630.655 1314.166 1419.308 9932.399 1674.785 4945.181 2925.344 899.995 840.649 1247.135 597.114 13618.555 6065.334 7785.254 2520.310 940.744 238.543 5136.206 996.061 7573.820 3504.059 397.892 325.225 9043.019 8173.586 3788.965
3089.658 3977.890 2810.255 9026.348 2543.929 12030.842 1834.762 2627.992 2797.848 1206.094 2888.262 1722.569 2715.884 58.500 3408.056 14200.371 2414.406 2785.836 12753.098 3589.875 2945.684 1857.218 1283.949 8409.317 922.710 2561.510 6921.824 2884.553 2744.012 5879.330 2605.883 1251.141 2590.932 2743.726 5631.081 13347.664 2791.565 2958.685 10157.046 4751.279 2840.996 1937.230 5583.279 5767.565 3045.309 8494.202 2843.646 7481.339 9776.030 4412.185 7359.137 7700.061 2458.796 10120.177 2659.946 2705.861 2566.581 2780.680 1229.852 2426.241 2484.213 5746.866 7640.107 7218.582 8692.065 2820.914 7601.883 3589.710 2734.492 2930.214 3395.566 2544.976 5315.560 983.952 2796.109 6958.413 2660.855 2790.095 915.887 2726.840 3693.872 2507.791 5657.154 2619.712 3943.685 2526.211 7934.439 2414.807 2798.688 4881.915 2087.483 3672.263 11676.350 9347.912 9419.663 2773.176 0.000 2653.355 4935.051 3512.529 2684.930 11585.908 6977.284 4168.453 2776.077 2445.865 3417.205 9244.022 4719.085 2587.276 1045.121 10868.048 9902.342 5080.352 3247.849 2931.517 4810.661 5566.181 2121.831 4555.948 6375.604 5001.498 3113.229 7020.963 3555.081 2026.759 6244.601 3616.169 2150.238 2655.381 2109.094 6908.152 2484.423 6413.896 1064.728 4826.522 4096.041 6850.295 7769.946 1325.642 184.667 2383.949 339.296 3023.402 4518.469 8472.746 3802.147 2161.691 2779.648 8999.692 2977.350 7123.758 7872.084 2884.407 7222.476 2972.506 7188.452 6876.500 1143.755 3209.172 3074.142 7389.138 1099.841 7553.364 152.171 2929.925 2913.582 1534.988 3016.036 12758.818 8830.726 6207.959 4916.867 1897.459 2949.113 7812.301 1783.179 6797.667 870.674 2798.134 2771.679 8694.660 8201.914 4173.346
1777.617 1346.517 247.485 10646.142 116.917 12870.596 862.975 452.462 381.025 1815.240 261.571 954.900 244.055 2621.078 776.807 11620.514 286.664 133.036 13734.933 1068.168 977.736 938.251 1373.863 5799.391 1878.893 96.067 4398.302 483.822 129.343 7500.079 78.361 3802.401 80.016 445.747 3568.783 10798.538 167.545 321.326 12806.776 7085.836 934.750 1112.232 7894.936 7360.760 2851.050 6115.984 788.987 9848.309 7684.890 2864.828 4883.421 5206.985 2072.746 12752.420 445.559 301.893 177.162 222.939 1432.809 4494.708 815.796 8004.615 9496.783 4785.374 6235.667 420.088 9472.379 1930.272 84.187 369.318 1000.567 970.346 4344.474 3626.418 309.494 4420.648 448.955 138.964 3569.103 188.943 1257.304 359.764 7979.053 183.887 1379.718 354.331 5561.343 411.521 397.339 2386.165 709.149 6309.546 12899.854 7457.672 6786.036 219.451 2653.355 0.000 5525.618 2252.248 187.381 9571.323 4439.048 4590.235 662.025 2786.892 1939.263 6643.195 2096.872 306.660 3695.491 13495.049 12534.223 2533.183 734.313 343.632 2313.740 4595.909 672.291 2921.125 3895.086 3177.539 740.810 6937.418 903.095 2094.783 3609.426 963.135 1825.136 320.985 1058.920 4374.375 363.906 5605.019 2675.919 2330.577 1451.254 4459.783 5352.242 2597.134 2760.779 885.091 2320.717 1152.185 1880.537 5862.645 3974.221 4324.126 163.214 7710.004 519.908 4603.207 9729.762 547.684 4702.742 1165.937 4737.427 6731.027 1510.640 1160.290 1241.414 9753.263 1554.245 5135.969 2805.258 733.819 675.937 1118.403 498.770 13733.778 6209.235 7568.317 2735.743 899.535 297.488 5314.994 906.675 7356.769 3412.471 250.157 515.193 9182.511 8332.352 3586.873
3947.747 5997.004 5422.090 5585.650 5440.744 7355.218 4989.240 5902.377 5264.677 5694.559 5529.444 5334.567 5338.455 4982.555 5727.790 13852.172 5557.900 5597.556 8209.356 5496.987 4750.345 5593.484 4982.791 8942.177 4560.857 5509.666 7301.627 6008.929 5483.381 2933.600 5559.487 5666.267 5453.217 5946.992 5208.849 12863.133 5674.393 5761.083 11691.690 8673.657 6385.157 4525.086 9434.024 2785.097 2687.914 7907.120 6268.635 10980.809 8053.639 3943.441 7417.336 7740.640 3454.809 12005.706 5912.893 5810.268 5622.016 5747.351 4937.130 7101.680 4715.121 9685.738 4958.597 7156.329 8356.694 5243.640 4966.221 4197.483 5582.841 5427.754 6499.966 6262.231 9707.713 5226.938 5337.725 7391.902 5916.150 5610.958 5030.775 5713.634 5354.113 5165.881 9476.075 5347.616 5725.499 5171.553 7464.703 5124.363 5248.616 5942.578 5636.420 6651.138 7427.575 7205.500 10022.035 5412.273 4935.051 5525.618 0.000 3688.132 5703.033 9389.816 7407.685 937.106 6140.173 2820.244 4006.858 11051.760 6353.570 5225.023 5167.622 11365.058 11813.105 6219.930 5400.661 5468.758 5911.334 3044.394 5638.725 4095.587 6755.519 4506.677 6263.367 11861.915 5938.880 3535.178 8172.988 5997.449 3738.524 5233.267 4508.616 7337.581 5726.817 10933.110 3885.015 5916.071 6154.086 6757.329 7499.152 3671.264 5092.467 6089.200 4997.844 6622.729 6341.432 8995.745 1575.913 6809.648 5489.491 5699.475 6041.472 7433.650 5158.886 6069.483 7501.885 4563.790 7200.124 11696.944 4992.818 6674.864 6710.329 10905.547 4990.416 7339.340 4951.652 6245.670 6190.991 5126.412 6006.030 8208.160 9391.896 10993.527 5188.029 4827.942 5635.613 7843.556 4990.271 11732.609 4537.643 5774.286 5110.526 3786.971 3305.762 8725.892
506.380 2332.190 2057.815 9179.769 2216.759 10875.769 2206.081 2701.876 1892.207 3417.121 2140.287 2614.756 2013.430 3518.981 2161.916 11208.866 2419.812 2266.073 11794.682 1859.189 1285.440 2807.721 2594.257 5706.294 2620.910 2283.483 4051.779 2698.119 2158.551 6196.933 2315.402 4744.476 2204.900 2694.283 2266.520 10286.469 2350.861 2371.962 13147.424 8257.194 3186.155 1779.115 9089.572 6045.442 1212.320 5262.021 3037.020 10966.157 6303.812 903.945 4343.600 4695.487 1126.625 13236.758 2697.336 2551.614 2407.406 2440.353 2597.554 5884.853 1525.486 9258.322 8285.323 4135.757 5565.597 1858.178 8275.431 509.437 2274.971 2007.680 3068.433 3196.494 6585.956 4393.061 1972.195 4122.066 2700.753 2279.189 4246.216 2428.350 1687.186 1943.849 9161.522 2073.951 2048.400 1939.141 4719.444 1956.126 1874.516 2327.217 2706.794 6913.565 11101.877 5836.931 6794.978 2065.223 3512.529 2252.248 3688.132 0.000 2437.596 8084.168 4140.316 2785.126 2912.478 1705.411 342.384 7459.283 2671.472 1960.641 4411.575 13440.858 13023.250 2606.094 1849.987 2052.626 2284.199 2364.353 2687.753 1060.277 3466.662 1546.175 2899.421 9172.676 2356.421 1574.170 4505.053 2405.793 1371.011 1932.261 1635.179 4066.187 2573.503 7847.710 2779.292 2291.822 2485.149 3728.178 4626.252 2509.852 3690.256 3072.199 3307.070 3396.357 2653.324 5766.565 2138.978 5641.811 2147.612 5640.778 2693.112 4226.881 8508.684 2771.141 4314.786 1089.539 4139.251 8970.447 2704.984 3369.801 3484.531 10875.356 2735.294 4421.970 3636.170 2964.429 2905.032 2539.565 2633.166 11790.221 6161.088 9428.675 1788.403 2025.710 2232.474 4809.227 2242.958 9488.901 3851.186 2463.014 1741.799 7107.095 6159.703 5830.396
1964.638 1375.597 402.394 10798.656 263.198 13050.420 951.797 276.932 555.313 1775.730 369.340 964.604 424.980 2649.331 823.597 11645.668 271.051 203.793 13911.975 1163.030 1159.566 896.948 1421.320 5818.106 1952.748 196.696 4450.567 308.540 286.702 7647.646 143.990 3803.009 251.092 258.389 3699.651 10833.453 142.292 289.561 12824.613 7039.517 748.608 1257.100 7843.635 7509.328 3032.258 6193.608 601.742 9800.141 7796.528 3037.181 4945.781 5264.257 2248.641 12757.960 264.787 114.571 121.235 95.880 1483.603 4438.076 999.235 7946.934 9635.253 4857.137 6298.347 593.050 9609.985 2107.677 172.216 503.438 850.323 803.940 4157.199 3647.581 478.527 4468.796 268.067 195.248 3599.997 43.635 1369.528 539.843 7928.755 370.944 1447.984 536.372 5641.448 579.711 572.449 2459.732 654.207 6321.814 13069.764 7588.156 6790.357 383.831 2684.930 187.381 5703.033 2437.596 0.000 9687.343 4486.990 4768.368 475.277 2952.294 2122.527 6577.719 2123.065 492.911 3720.614 13544.630 12539.656 2589.628 850.185 467.224 2387.878 4777.668 615.817 3088.905 3960.574 3331.749 575.796 6758.342 909.246 2253.451 3560.585 961.826 1991.544 507.983 1219.334 4423.852 247.833 5417.828 2776.417 2404.771 1463.408 4541.054 5425.014 2713.871 2781.864 739.054 2348.251 964.811 1895.966 5881.177 4154.924 4277.383 307.882 7875.210 362.146 4655.518 9868.488 366.458 4754.923 1349.928 4805.718 6550.977 1551.375 976.560 1054.034 9704.859 1593.844 5209.528 2835.881 548.449 491.289 1157.419 362.539 13910.983 6221.535 7443.367 2861.279 1018.224 348.267 5370.932 989.418 7195.496 3468.300 114.267 697.476 9366.419 8519.219 3406.425
8497.021 8471.072 9325.821 14064.799 9620.026 12941.410 10021.179 9939.301 9230.205 11267.379 9323.221 10366.455 9365.614 11588.207 8906.798 5924.142 9850.015 9487.966 14019.388 8527.876 8809.382 10460.798 10528.191 5669.413 10675.771 9655.631 5773.437 9758.879 9441.998 12228.475 9649.183 12826.204 9580.417 9855.039 6027.894 4997.128 9546.426 9438.649 20864.412 16336.783 10239.586 9722.367 17168.976 12091.917 8875.101 3935.274 10093.802 19050.100 1905.716 7180.343 5223.980 5066.232 9189.869 21064.350 9914.321 9762.955 9743.704 9622.617 10550.143 13896.955 9259.221 17330.543 14049.471 5157.596 4205.496 9192.512 14075.816 8011.384 9531.100 9202.139 9700.515 10441.805 12791.007 12476.769 9280.966 5822.725 9916.607 9494.429 12327.151 9651.230 8318.230 9465.990 17242.197 9472.350 8288.566 9450.818 4355.252 9534.280 9218.924 7318.827 10262.584 14931.841 14273.012 2280.273 5857.154 9357.932 11585.908 9571.323 9389.816 8084.168 9687.343 0.000 5812.253 9138.981 10024.796 9546.139 8170.811 8384.375 7879.197 9422.540 12493.274 20736.448 20857.940 7291.116 8840.234 9230.698 7384.017 6576.255 10228.785 7031.228 6011.086 6589.494 9766.989 15752.287 8919.286 9641.794 8023.912 8901.174 9455.160 9357.787 9552.936 5836.306 9925.860 13874.570 10839.007 7367.868 8471.134 5327.360 4659.700 10556.071 11759.704 10419.443 11356.098 10324.567 8123.956 5649.255 8874.505 13673.566 9408.772 3988.988 9686.161 5614.362 14207.097 9822.347 5540.834 8716.669 5249.854 15515.325 10660.297 10158.258 10381.001 18959.411 10697.935 4829.266 11714.358 9964.504 9921.404 10390.067 9605.675 13994.583 5718.197 17126.391 6840.174 9877.125 9342.037 5013.625 10070.685 16623.851 11915.102 9627.885 9162.623 9852.316 8540.950 12623.099
4259.965 3114.441 4229.589 12987.891 4527.221 13817.114 5157.565 4678.318 4204.827 6253.891 4178.970 5379.444 4308.485 6956.907 3667.068 7226.105 4721.275 4320.646 14840.314 3404.116 4057.669 5374.662 5717.059 1569.407 6084.452 4534.809 113.165 4442.810 4322.284 10193.803 4506.628 8193.285 4480.125 4569.985 2210.257 6372.802 4349.567 4200.192 17070.857 11524.083 4832.859 5067.596 12330.379 10040.393 5340.686 1907.889 4712.452 14285.905 3957.452 3526.192 588.375 812.408 5134.734 17079.918 4647.193 4524.338 4580.650 4400.010 5762.797 8924.994 4504.830 12433.183 12282.874 718.217 1856.037 4176.802 12280.311 3744.195 4372.178 4100.664 4208.535 5098.387 6993.980 7959.700 4222.245 18.985 4648.412 4321.693 7867.117 4444.219 3283.666 4491.551 12415.251 4414.434 3064.512 4473.299 1459.810 4581.404 4201.029 2095.472 5137.362 10639.918 14451.900 4238.065 2661.347 4267.036 6977.284 4439.048 7407.685 4140.316 4486.990 5812.253 0.000 6645.977 4682.456 5829.719 3981.164 3930.332 2381.981 4419.290 8012.898 17521.275 16862.814 1908.983 3752.346 4111.113 2166.627 4654.647 5099.218 3355.031 675.135 2905.060 4359.156 9956.944 3589.331 5513.496 2244.927 3546.768 5219.085 4349.141 4903.106 74.145 4733.194 8062.440 6620.816 2150.790 3047.868 850.524 1152.596 6409.953 7114.253 5135.377 6668.820 4850.334 2626.278 1628.596 6062.483 8761.849 4285.092 5763.797 4352.488 199.448 12497.504 4488.560 286.905 4077.073 610.888 9718.675 5861.219 4651.921 4886.057 14190.730 5905.000 993.129 7127.234 4579.336 4551.746 5497.703 4279.820 14828.205 2025.384 11658.679 2354.087 5080.168 4152.197 906.421 5210.405 10913.763 7597.339 4394.640 4211.076 10023.465 8780.368 6924.828
3019.501 5074.831 4485.098 6413.578 4506.405 8284.664 4071.588 4970.738 4327.580 4836.349 4592.374 4426.734 4401.746 4211.622 4794.103 13296.131 4627.196 4661.145 9145.396 4570.730 3815.415 4684.366 4095.696 8200.210 3706.007 4575.520 6543.353 5073.763 4546.893 3555.264 4624.987 5020.041 4518.248 5013.499 4479.424 12320.356 4738.254 4824.129 11757.531 8211.870 5455.570 3601.663 9000.505 3401.890 1750.997 7303.845 5337.070 10644.683 7669.759 3132.615 6703.829 7037.887 2521.390 12008.884 4980.681 4876.138 4688.682 4811.709 4053.412 6441.115 3778.819 9236.572 5639.030 6452.258 7723.712 4306.538 5638.110 3293.821 4646.833 4490.703 5563.024 5339.658 8794.699 4579.534 4400.676 6629.421 4983.958 4674.564 4383.731 4778.451 4434.172 4230.575 9050.095 4411.753 4808.105 4236.036 6830.680 4190.264 4311.513 5075.389 4717.611 6308.856 8357.840 6895.722 9288.319 4475.415 4168.453 4590.235 937.106 2785.126 4768.368 9138.981 6645.977 0.000 5208.321 1918.178 3094.453 10203.683 5456.528 4289.020 4533.062 11618.813 11808.787 5354.369 4466.939 4531.675 5040.020 2592.578 4718.571 3296.606 5981.884 3744.375 5327.319 11007.200 5005.792 2624.156 7286.765 5064.908 2813.087 4296.696 3579.232 6574.204 4796.378 10026.642 3104.305 5045.774 5232.803 6045.318 6835.186 2862.922 4336.171 5168.599 4193.570 5692.637 5433.695 8255.926 648.983 6151.435 4552.778 5671.697 5105.443 6687.493 5852.188 5134.820 6761.339 3630.091 6487.006 10836.490 4115.738 5741.382 5780.562 10564.837 4116.592 6662.456 4203.239 5312.032 5257.040 4225.335 5069.493 9144.001 8653.921 10320.827 4366.897 3906.646 4698.525 7144.618 4074.914 10945.083 3882.415 4838.602 4173.423 4665.583 4040.037 7832.228
2439.637 1590.670 864.132 11162.802 717.389 13492.937 1246.651 237.994 1024.888 1716.990 803.301 1097.319 899.117 2733.035 1119.281 11767.573 584.716 654.343 14345.618 1513.216 1632.143 919.591 1595.381 5936.856 2163.351 647.182 4656.289 267.672 755.838 8000.869 605.750 3799.838 717.942 218.525 4079.563 10980.169 571.215 613.015 12836.036 6898.338 273.977 1640.824 7687.749 7865.377 3483.032 6450.090 129.656 9648.482 8126.273 3494.798 5172.003 5477.240 2687.235 12738.212 228.382 360.943 526.197 479.782 1661.473 4282.722 1461.692 7774.722 9962.261 5105.244 6520.060 1061.253 9934.711 2573.922 638.970 943.876 621.497 422.045 3682.976 3697.985 946.044 4664.856 225.031 642.104 3675.317 484.895 1740.979 1001.855 7775.204 844.224 1737.688 1001.020 5905.291 1025.519 1042.369 2733.124 702.803 6331.696 13482.133 7959.163 6869.998 851.400 2776.077 662.025 6140.173 2912.478 475.277 10024.796 4682.456 5208.321 0.000 3361.962 2595.724 6478.139 2300.717 964.111 3780.126 13636.514 12519.850 2824.107 1248.118 901.741 2663.687 5248.490 673.891 3539.025 4199.813 3757.585 355.042 6293.846 1119.110 2650.998 3525.206 1149.583 2409.025 982.997 1633.963 4623.289 419.085 4943.235 3032.228 2680.405 1636.843 4812.062 5672.982 3008.901 2845.122 464.097 2437.363 493.125 2056.574 5999.211 4602.958 4148.716 770.729 8316.984 340.312 4860.104 10195.984 202.674 4958.639 1824.087 5046.190 6084.674 1702.564 544.374 582.595 9552.755 1740.129 5460.143 2921.741 154.293 144.343 1332.699 419.930 14345.133 6322.932 7104.060 3235.206 1363.037 738.921 5580.345 1269.464 6769.319 3607.059 460.958 1171.247 9823.049 8987.977 2940.367
1607.788 3552.783 2728.816 7886.455 2689.816 10167.367 2174.404 3124.539 2588.186 2939.618 2841.017 2514.347 2633.045 2477.446 3150.677 12911.799 2777.384 2877.604 10997.628 3032.114 2194.096 2773.244 2179.043 7389.457 1824.746 2755.689 5744.464 3260.792 2767.693 4774.408 2808.721 3517.758 2709.750 3182.041 3947.941 11985.148 2946.746 3058.107 11484.683 6964.532 3594.141 1724.402 7788.725 4629.562 675.608 6948.994 3487.915 9588.684 7844.692 2511.692 6048.361 6400.399 786.873 11603.515 3138.618 3052.520 2858.979 3009.387 2138.379 4851.588 2014.603 7988.841 6823.013 5841.096 7266.246 2575.917 6805.197 2091.539 2854.005 2763.829 3785.252 3451.918 6887.626 3103.705 2651.573 5811.241 3141.722 2890.337 2924.408 2969.298 2965.648 2432.394 7851.949 2620.157 3340.057 2441.400 6412.332 2375.831 2574.388 3908.849 2821.661 5388.043 10120.808 7268.840 8473.599 2711.468 2445.865 2786.892 2820.244 1705.411 2952.294 9546.139 5829.719 1918.178 3361.962 0.000 1853.204 8962.083 4099.754 2502.877 3090.812 11736.435 11392.023 4178.039 2835.408 2799.382 3854.177 3199.668 2825.781 2689.792 5159.037 3199.219 3526.060 9101.910 3364.901 718.254 5927.642 3430.210 961.800 2525.548 1733.772 5755.603 2943.549 8113.652 1432.692 3864.950 3712.246 5433.170 6328.017 1141.131 2627.881 3276.044 2390.936 3832.873 4008.511 7450.501 1413.287 4575.161 2780.923 6637.877 3306.431 5923.559 7052.911 3314.661 6012.941 2048.787 5844.523 8927.721 2204.868 3904.429 3918.736 9501.401 2208.377 6125.154 2519.485 3479.425 3427.926 2308.436 3282.997 10998.059 7842.444 8651.284 3486.918 2019.749 2947.407 6514.223 2172.990 9105.596 2453.307 3036.635 2446.585 6583.593 5914.167 5914.202
329.274 1998.585 1735.436 9470.516 1911.767 11214.745 1975.916 2391.144 1571.559 3213.422 1813.454 2376.120 1697.548 3418.132 1819.768 11112.604 2122.945 1944.927 12130.832 1519.107 963.641 2552.329 2409.179 5537.521 2504.990 1976.690 3898.221 2374.263 1839.990 6460.455 2005.379 4662.889 1896.513 2377.203 2246.075 10203.284 2029.548 2042.612 13202.354 8168.289 2869.701 1587.210 9000.106 6309.909 1452.254 5208.815 2718.499 10894.684 6360.681 1034.139 4225.269 4577.651 1167.819 13270.127 2384.775 2235.717 2099.775 2119.915 2420.112 5746.984 1254.532 9159.740 8543.885 4032.312 5483.498 1536.216 8532.146 238.375 1956.821 1678.614 2731.268 2895.183 6260.333 4332.116 1651.089 3962.574 2388.163 1957.818 4195.997 2110.834 1353.255 1646.650 9074.288 1764.632 1719.888 1640.284 4658.046 1668.038 1553.965 2079.649 2433.281 6905.855 11427.418 5944.451 6620.669 1745.136 3417.205 1939.263 4006.858 342.384 2122.527 8170.811 3981.164 3094.453 2595.724 1853.204 0.000 7193.892 2372.836 1655.694 4358.601 13554.306 13055.501 2355.264 1509.061 1723.507 2030.616 2658.219 2411.640 1154.300 3313.450 1584.402 2568.535 8872.420 2014.045 1585.083 4213.510 2063.544 1331.439 1622.008 1428.903 3907.133 2271.194 7522.111 2772.475 2039.807 2153.168 3631.447 4543.212 2520.795 3589.546 2778.831 3186.582 3075.218 2339.545 5598.751 2445.888 5513.291 1826.877 5868.871 2365.263 4080.889 8768.992 2447.938 4172.006 773.642 4027.213 8667.852 2529.681 3041.410 3162.788 10802.966 2563.399 4334.023 3548.593 2641.259 2581.898 2325.428 2303.290 12126.570 5990.003 9223.383 1657.274 1802.834 1902.918 4691.958 2017.129 9223.605 3828.490 2141.755 1425.051 7448.653 6501.193 5524.810
7374.586 5467.675 6547.208 16617.179 6759.334 17727.207 7505.820 6616.044 6620.692 8177.197 6447.484 7526.454 6652.726 9203.723 5976.127 6591.146 6847.923 6511.526 18740.389 5971.860 6814.450 7390.390 7998.723 2919.543 8522.008 6726.362 4042.706 6359.927 6579.451 13653.415 6676.028 10260.897 6715.982 6500.381 6034.313 6193.500 6488.076 6323.543 19276.233 13048.226 6459.528 7655.015 13762.098 13502.478 8646.111 4895.486 6425.654 15688.266 6921.691 7113.493 4242.460 4092.705 8181.993 19132.034 6584.077 6544.489 6698.630 6483.643 8061.285 10493.720 7134.366 13781.868 15737.761 4505.967 4415.612 6613.158 15725.806 6968.090 6559.072 6452.357 5856.705 6771.961 6626.035 10176.096 6590.924 3939.612 6583.168 6504.422 10150.753 6537.977 6004.085 6884.441 13855.707 6725.835 5638.119 6867.702 4838.272 6974.738 6627.249 5134.914 7156.778 12787.924 18289.377 7590.201 2536.611 6580.051 9244.022 6643.195 11051.760 7459.283 6577.719 8384.375 3930.332 10203.683 6478.139 8962.083 7193.892 0.000 4862.492 6798.065 10258.068 20111.754 18914.334 4855.444 6238.439 6435.282 5175.488 8517.507 7122.227 6970.219 4458.940 6615.354 6133.486 9236.912 5786.392 8439.880 3059.805 5719.469 8124.807 6741.940 7533.823 3982.154 6762.729 7190.786 9292.666 5168.280 5316.634 4768.410 4570.749 9170.186 9321.560 6905.291 8904.776 6327.136 4968.420 2911.784 9572.628 10430.551 6548.374 9518.861 6267.912 4004.282 15962.844 6359.877 3985.362 6930.859 4411.096 9005.241 8126.432 6115.748 6304.062 15592.888 8168.159 4571.995 9392.264 6326.415 6337.175 7733.705 6233.021 18729.296 2717.889 12090.405 5870.187 7520.446 6364.495 4055.389 7549.865 10657.588 10045.756 6463.452 6712.934 13920.147 12697.528 7213.099
2521.777 750.498 1912.315 11843.350 2195.432 13427.216 2885.057 2300.380 1923.872 3898.540 1844.272 3050.951 2003.818 4691.740 1321.097 9524.835 2370.377 1971.227 14378.056 1160.322 1974.709 3018.772 3436.683 3702.762 3873.251 2192.765 2355.969 2061.497 1989.991 8818.620 2158.486 5895.500 2147.699 2190.316 2301.118 8710.573 1990.159 1833.757 14873.141 9160.307 2458.805 2903.404 9961.117 8669.190 3813.422 4175.173 2333.741 11919.329 5973.773 2591.923 2877.769 3177.560 3319.753 14836.689 2268.806 2151.541 2224.073 2032.755 3489.344 6553.543 2347.621 10058.416 10894.054 2829.027 4221.757 1903.532 10879.930 2163.522 2023.600 1789.639 1854.101 2717.765 5061.214 5700.899 1922.979 2364.316 2269.895 1970.469 5629.269 2079.668 1148.615 2213.079 10046.947 2102.618 804.121 2194.717 3642.003 2306.619 1924.372 670.993 2777.161 8389.466 13746.133 5950.335 4700.591 1949.792 4719.085 2096.872 6353.570 2671.472 2123.065 7879.197 2381.981 5456.528 2300.717 4099.754 2372.836 4862.492 0.000 2132.261 5764.139 15476.928 14618.671 593.475 1481.825 1790.917 639.017 4355.657 2738.784 2510.340 1922.449 2395.509 1981.909 7975.713 1215.643 3592.366 1842.739 1168.903 3277.369 2064.824 2759.113 2322.573 2365.891 6253.305 4539.361 648.176 666.770 2571.913 3393.132 4379.436 4839.368 2753.647 4394.737 2495.147 250.156 3766.048 4810.320 6398.889 1953.115 6764.929 1970.694 2559.549 11121.127 2106.600 2657.993 2074.933 2762.780 7745.152 3578.984 2308.634 2539.620 11823.913 3623.155 3184.182 4871.134 2200.358 2171.118 3196.911 1898.582 14371.674 4115.636 9331.454 1579.965 2842.860 1801.750 3280.007 2936.244 8748.774 5419.514 2025.135 1970.597 9618.111 8548.915 4752.684
1478.666 1396.449 252.891 10375.924 256.305 12567.353 752.801 743.406 214.473 1877.933 360.788 975.350 146.471 2560.823 835.815 11628.461 474.269 375.581 13434.313 1015.183 706.395 1038.380 1307.098 5824.429 1752.910 323.022 4371.322 788.489 264.884 7237.519 358.690 3778.593 246.575 750.323 3401.047 10790.774 449.572 556.829 12741.131 7130.027 1234.646 876.295 7946.357 7096.846 2547.122 6040.273 1092.358 9892.675 7545.671 2609.253 4837.377 5168.795 1775.361 12706.678 741.550 606.727 447.140 523.810 1358.104 4561.853 511.048 8066.560 9246.465 4723.210 6185.826 244.414 9223.308 1664.704 357.820 350.709 1284.387 1239.542 4646.890 3569.949 211.963 4400.611 744.993 388.608 3497.044 495.098 1159.049 86.378 8028.706 123.486 1361.497 70.117 5482.384 178.379 219.154 2335.960 848.661 6258.850 12607.118 7283.273 6832.597 223.859 2587.276 306.660 5225.023 1960.641 492.911 9422.540 4419.290 4289.020 964.111 2502.877 1655.694 6798.065 2132.261 0.000 3632.163 13378.473 12488.757 2511.438 667.302 363.147 2263.460 4313.836 817.950 2676.497 3847.386 2962.828 1038.345 7216.770 1012.532 1822.757 3747.169 1079.021 1542.095 70.296 793.699 4352.252 615.607 5906.783 2495.491 2279.969 1524.250 4381.844 5286.723 2390.469 2710.889 1129.453 2265.327 1456.223 1937.291 5887.844 3670.563 4375.592 280.776 7465.625 816.450 4575.395 9479.010 853.865 4674.811 883.392 4681.509 7012.609 1450.422 1466.738 1545.607 9798.092 1494.563 5069.628 2739.244 1040.461 982.593 1078.586 783.886 13432.994 6243.891 7745.560 2583.300 726.835 460.049 5278.808 804.119 7600.058 3300.542 550.411 264.471 8876.337 8026.354 3870.595
4029.400 5022.923 3855.237 8617.775 3587.055 11940.666 2879.484 3647.791 3842.353 2110.908 3932.511 2756.079 3761.005 1074.616 4452.862 15238.048 3451.127 3827.621 12592.599 4632.572 3967.503 2869.587 2328.822 9452.717 1932.069 3602.917 7955.496 3907.066 3787.987 5557.042 3646.247 501.473 3634.221 3765.020 6597.204 14379.944 3830.839 3997.778 9112.468 3882.881 3817.752 2954.190 4711.643 5465.449 3750.570 9498.992 3837.005 6558.308 10711.650 5315.262 8384.662 8727.665 3305.280 9076.664 3680.315 3735.885 3603.526 3816.490 2274.973 1936.928 3511.094 4903.063 7132.289 8237.479 9711.304 3865.017 7087.149 4548.168 3776.015 3975.335 4401.623 3511.404 5914.772 105.691 3841.179 7993.992 3680.981 3831.541 167.803 3763.012 4731.390 3552.369 4778.403 3664.674 4987.223 3570.782 8940.119 3459.244 3842.985 5917.584 3107.063 2629.369 11419.908 10236.467 10464.689 3818.123 1045.121 3695.491 5167.622 4411.575 3720.614 12493.274 8012.898 4533.062 3780.126 3090.812 4358.601 10258.068 5764.139 3632.163 0.000 9857.830 8858.928 6120.352 4291.654 3976.529 5846.719 6289.311 3142.791 5469.868 7404.441 5936.784 4125.171 7233.937 4598.047 2854.080 7275.538 4658.617 3042.787 3700.124 3123.444 7943.266 3512.586 6911.329 1678.881 5862.423 5140.446 7863.356 8784.425 1972.580 939.707 3363.488 1374.784 3980.917 5563.424 9516.148 4297.110 1644.818 3823.774 9728.639 4001.326 8156.653 7358.880 3901.845 8255.082 3979.940 8210.403 7118.695 2187.988 4178.501 4022.233 6468.231 2143.954 8568.464 893.021 3932.339 3920.892 2577.378 4044.011 12601.274 9875.076 5827.486 5912.610 2937.018 3991.899 8840.382 2828.044 6759.572 656.599 3833.015 3813.310 8811.846 8473.370 4732.244
13264.142 14767.785 13620.700 8536.872 13381.120 12913.474 12641.010 13495.833 13574.719 11958.220 13711.268 12588.159 13518.781 10908.050 14214.288 24647.650 13273.597 13628.014 12741.508 14316.882 13535.395 12721.726 12124.986 19053.825 11626.761 13407.338 17443.664 13752.587 13571.959 8704.164 13455.192 9900.264 13426.479 13611.751 15672.308 23715.339 13642.961 13809.562 2374.004 8167.686 13673.492 12573.530 7922.703 8817.187 12311.074 18667.163 13694.830 7057.157 19281.902 14221.228 17777.653 18130.069 12390.749 3213.133 13527.875 13571.589 13424.644 13639.782 12064.166 10068.995 13131.732 8129.564 7460.618 17575.924 19000.799 13589.752 7403.963 13787.943 13578.325 13729.178 14257.856 13365.046 15083.605 9942.848 13590.263 17502.449 13528.753 13633.788 9961.540 13585.552 14360.564 13293.436 7844.379 13434.033 14674.521 13311.245 18139.320 13200.173 13571.488 15488.645 12955.003 7442.215 11152.675 18511.105 20116.394 13585.379 10868.048 13495.049 11365.058 13440.858 13544.630 20736.448 17521.275 11618.813 13636.514 11736.435 13554.306 20111.754 15476.928 13378.473 9857.830 0.000 3253.459 15730.704 14000.575 13738.817 15423.805 14209.915 12989.641 14402.364 16861.496 14912.902 13978.813 14964.128 14382.866 12008.388 17103.379 14447.173 12306.314 13441.075 12719.919 17447.750 13351.457 15686.576 10944.462 15437.512 14901.630 17168.999 18063.673 11129.141 10791.440 13220.542 11207.214 13828.818 15304.623 19116.377 11967.470 10018.452 13605.523 17035.963 13845.215 17630.755 7425.251 13751.881 17723.295 13480.209 17576.615 14985.879 11993.269 14030.889 13864.760 7094.918 11950.798 17861.491 10719.541 13789.224 13776.390 12387.358 13882.538 12773.304 19498.240 11361.327 15209.706 12652.721 13784.173 18244.230 12593.772 13561.987 10083.115 13658.629 13510.879 12542.981 13318.855 13947.447
12736.254 13873.532 12706.731 10472.349 12429.838 14992.708 11736.812 12427.982 12699.981 10804.108 12779.032 11581.684 12614.954 9927.946 13301.850 24088.558 12275.678 12664.457 15008.976 13491.500 12806.249 11654.704 11182.339 18311.554 10779.808 12439.705 16801.782 12688.655 12633.566 9654.816 12479.481 8736.848 12477.438 12546.343 15286.942 23216.337 12659.406 12824.555 885.717 6066.914 12493.021 11795.227 5565.398 9726.757 12041.332 18263.825 12549.774 4192.053 19223.093 13889.067 17212.013 17559.205 11904.171 218.378 12461.159 12539.655 12427.198 12634.914 11130.655 8450.261 12358.299 5690.473 9056.092 17048.760 18517.904 12723.250 8988.960 13271.186 12612.216 12829.058 13128.137 12180.289 13218.955 8918.913 12696.486 16843.859 12461.231 12667.175 8999.908 12582.993 13587.037 12409.887 5473.394 12516.269 13845.940 12428.311 17711.216 12317.037 12700.968 14769.755 11899.130 6230.083 13416.191 18581.011 19318.172 12669.340 9902.342 12534.223 11813.105 13023.250 12539.656 20857.940 16862.814 11808.787 12519.850 11392.023 13055.501 18914.334 14618.671 12488.757 8858.928 3253.459 0.000 14977.677 13150.175 12828.165 14699.511 14296.062 11936.774 14062.597 16241.796 14564.601 12874.646 12581.346 13436.292 11471.390 16043.807 13494.285 11730.904 12557.201 11960.220 16792.326 12315.162 13613.192 10290.588 14714.983 13985.159 16661.427 17581.467 10534.793 9779.309 12067.094 10224.057 12602.783 14412.342 18374.984 11995.493 8489.899 12669.974 17465.653 12784.991 17001.111 9100.747 12670.670 17098.803 12798.553 17029.508 12641.656 11039.770 12818.294 12619.253 4253.250 10995.595 17368.246 9750.693 12663.344 12664.174 11422.827 12837.769 15037.150 18732.646 8772.755 14685.758 11795.391 12831.711 17672.830 11685.003 11036.991 9272.029 12648.636 12672.125 13857.212 14367.355 12174.972
2570.344 1233.983 2320.889 11766.919 2619.356 13157.504 3253.462 2795.372 2297.064 4348.392 2272.350 3470.588 2399.530 5058.092 1766.369 9120.908 2816.983 2417.214 14127.636 1496.476 2199.662 3470.578 3812.722 3343.640 4199.457 2628.657 1865.342 2572.209 2414.887 8802.980 2602.123 6288.331 2572.424 2691.899 1773.759 8279.338 2450.232 2306.264 15204.568 9618.955 3003.352 3193.095 10427.813 8651.527 3803.831 3626.263 2869.974 12381.489 5385.429 2328.425 2356.894 2675.065 3423.889 15195.187 2765.383 2634.453 2678.951 2505.504 3859.893 7025.345 2627.571 10535.079 10890.773 2281.143 3709.179 2269.741 10880.391 2123.432 2468.272 2191.810 2421.858 3245.540 5645.911 6064.072 2313.370 1890.400 2766.885 2418.887 5977.812 2547.485 1391.750 2584.786 10512.093 2505.458 1155.823 2566.474 3083.884 2675.373 2293.676 279.485 3235.605 8749.565 13554.107 5357.622 4388.260 2358.296 5080.352 2533.183 6219.930 2606.094 2589.628 7291.116 1908.983 5354.369 2824.107 4178.039 2355.264 4855.444 593.475 2511.438 6120.352 15730.704 14977.677 0.000 1844.186 2202.782 324.842 3992.728 3197.673 2213.715 1376.511 1996.900 2524.224 8566.542 1709.331 3751.905 1987.211 1674.745 3443.069 2441.397 3034.389 1842.967 2837.104 6829.160 4790.378 315.483 1198.992 1999.081 2848.969 4602.173 5213.254 3263.861 4767.379 3057.871 833.430 3406.935 4719.369 6857.305 2377.735 6222.864 2486.482 2070.181 11114.483 2624.536 2169.725 2251.530 2223.261 8335.495 3956.789 2879.242 3107.288 12286.445 4000.716 2636.048 5231.141 2736.807 2702.240 3590.024 2410.067 14119.885 3778.011 9895.053 1161.900 3183.485 2249.891 2782.390 3306.135 9340.233 5729.327 2502.098 2309.175 9337.948 8223.415 5345.424
1466.388 774.971 495.358 10711.693 798.335 12685.223 1414.209 1114.194 453.074 2525.035 483.131 1632.601 560.125 3223.009 327.164 10961.693 1018.666 648.483 13583.494 348.566 655.479 1659.809 1971.924 5161.494 2391.624 823.231 3705.146 986.382 605.865 7609.811 811.209 4445.505 754.285 1047.747 2850.137 10123.519 711.977 635.193 13395.314 7788.915 1506.158 1432.105 8602.826 7464.912 2722.698 5391.885 1348.720 10551.907 6951.968 2288.826 4175.613 4505.002 2054.897 13367.993 1093.168 935.610 903.970 794.736 2021.174 5210.451 895.935 8718.678 9652.427 4067.454 5525.747 427.326 9632.987 1421.923 690.870 366.497 1233.813 1637.319 4799.092 4231.519 472.619 3733.686 1095.872 655.592 4153.765 816.601 523.159 742.112 8685.850 668.432 695.999 723.716 4835.704 834.017 450.418 1673.346 1439.769 6920.107 12824.170 6738.217 6176.499 530.796 3247.849 734.313 5400.661 1849.987 850.185 8840.234 3752.346 4466.939 1248.118 2835.408 1509.061 6238.439 1481.825 667.302 4291.654 14000.575 13150.175 1844.186 0.000 391.196 1600.737 4089.588 1403.750 2315.295 3185.619 2510.480 1113.510 7511.319 539.997 2229.681 3178.635 601.660 1919.642 597.355 1299.047 3685.501 1085.662 6058.036 3075.507 1617.379 922.073 3734.080 4632.765 2935.041 3375.095 1588.500 2929.215 1670.594 1304.858 5224.923 3825.067 5030.925 571.100 7075.786 943.647 3909.396 9883.204 1059.765 4008.857 836.894 4023.116 7297.329 2115.679 1591.029 1751.460 10457.161 2159.749 4415.976 3399.484 1240.960 1185.271 1745.866 868.029 13580.397 5583.627 8293.058 2011.098 1361.772 514.645 4614.581 1466.426 8017.388 3937.699 804.798 489.767 8939.595 8009.631 4160.800
1610.288 1046.401 121.435 10684.217 417.174 12792.264 1103.247 739.730 211.258 2148.625 99.497 1269.185 220.052 2902.826 477.842 11305.262 629.353 263.432 13672.832 725.895 770.581 1276.392 1647.746 5491.379 2112.188 434.523 4067.929 657.864 216.507 7556.260 420.105 4105.948 370.869 689.080 3234.682 10476.536 336.851 319.345 13088.352 7417.812 1171.252 1230.300 8229.025 7414.160 2781.101 5774.831 1014.950 10180.705 7343.001 2593.941 4547.809 4873.582 2045.351 13046.217 722.276 562.926 513.037 426.243 1702.006 4831.778 785.299 8341.282 9576.269 4446.178 5899.502 226.037 9554.171 1681.504 301.645 44.946 1040.833 1267.447 4537.174 3911.645 158.092 4092.606 725.252 272.479 3844.416 438.035 914.354 449.439 8312.687 311.981 1047.021 432.501 5219.670 540.968 225.086 2047.808 1051.548 6599.540 12872.940 7123.629 6490.205 158.876 2931.517 343.632 5468.758 2052.626 467.224 9230.698 4111.113 4531.675 901.741 2799.382 1723.507 6435.282 1790.917 363.147 3976.529 13738.817 12828.165 2202.782 391.196 0.000 1975.265 4360.962 1015.050 2637.370 3558.620 2867.209 847.222 7193.580 649.394 2141.095 3384.024 715.961 1847.293 307.675 1131.838 4045.592 696.011 5798.888 2857.751 1992.057 1167.636 4118.020 5012.581 2748.074 3048.957 1205.662 2604.867 1360.610 1586.988 5554.737 3901.371 4657.303 180.675 7418.045 641.918 4272.671 9808.377 732.631 4372.215 969.563 4399.471 6983.197 1789.275 1317.921 1446.449 10085.780 1833.415 4796.111 3083.679 924.418 865.570 1406.010 580.562 13670.765 5906.461 7904.780 2398.381 1089.339 179.915 4982.200 1152.893 7658.010 3658.708 441.949 358.929 9075.262 8187.131 3839.898
2246.396 1087.414 2089.666 11451.072 2391.959 12887.059 2994.007 2611.237 2049.401 4123.195 2052.283 3233.325 2160.742 4790.417 1568.170 9391.413 2600.082 2205.069 13850.895 1253.029 1903.064 3251.190 3553.273 3638.555 3919.803 2407.737 2112.608 2403.543 2190.788 8480.609 2385.999 6029.061 2346.049 2514.152 1667.927 8538.161 2246.255 2112.777 14917.242 9389.547 2863.015 2906.337 10202.790 8329.275 3479.777 3805.739 2721.813 12152.556 5480.127 2045.314 2574.877 2905.350 3102.264 14916.790 2582.814 2443.310 2468.631 2309.039 3597.949 6807.042 2341.813 10316.472 10567.837 2471.693 3925.313 2019.442 10557.235 1799.210 2254.586 1959.556 2319.211 3085.358 5666.423 5793.125 2073.337 2147.753 2584.620 2208.173 5701.647 2347.130 1117.391 2332.633 10286.041 2268.677 940.049 2314.556 3253.958 2420.948 2044.353 72.619 3022.009 8474.466 13260.548 5391.716 4692.674 2126.451 4810.661 2313.740 5911.334 2284.199 2387.878 7384.017 2166.627 5040.020 2663.687 3854.177 2030.616 5175.488 639.017 2263.460 5846.719 15423.805 14699.511 324.842 1600.737 1975.265 0.000 3756.661 2984.662 1942.129 1584.890 1775.508 2386.770 8560.580 1545.732 3435.686 2274.498 1521.895 3128.354 2193.164 2744.390 2097.573 2635.470 6870.834 4488.456 16.894 1093.911 2154.648 3038.841 4294.691 4948.191 3087.545 4502.983 2940.603 822.919 3701.640 4402.961 6630.818 2154.051 6131.623 2323.418 2315.643 10791.773 2461.488 2414.790 1943.842 2424.209 8332.279 3697.420 2776.118 2997.264 12057.786 3741.052 2822.825 4960.615 2590.336 2550.710 3339.200 2244.424 13843.585 4077.570 9761.840 948.216 2913.647 2041.814 3015.499 3046.948 9278.522 5441.016 2308.570 2046.963 9070.251 7973.254 5298.405
2867.477 4339.670 4384.855 8471.910 4569.965 9227.783 4547.728 5048.236 4223.785 5711.083 4455.116 4959.761 4353.116 5587.492 4362.055 10808.475 4779.342 4594.871 10228.225 3985.497 3618.326 5163.975 4875.003 6103.848 4771.739 4634.874 4542.488 5018.058 4493.110 5977.205 4663.025 6705.695 4554.558 5030.153 2483.263 9818.770 4678.905 4676.351 14288.881 10163.808 5522.210 4091.988 10987.026 5827.951 2541.223 4888.302 5369.052 12769.680 5077.709 1831.934 4547.844 4843.905 3144.325 14500.685 5041.026 4890.015 4757.847 4770.008 4866.313 7992.359 3889.785 11188.466 7992.422 4274.197 5358.904 4187.240 8002.646 2679.850 4609.930 4316.662 5320.908 5553.192 8887.580 6299.241 4302.451 4641.582 5044.394 4607.421 6122.477 4764.066 3760.643 4302.771 11049.431 4422.598 4034.873 4297.039 4475.064 4318.962 4206.372 3755.822 5070.524 8511.281 9797.392 4315.476 7152.106 4397.144 5566.181 4595.909 3044.394 2364.353 4777.668 6576.255 4654.647 2592.578 5248.490 3199.668 2658.219 8517.507 4355.657 4313.836 6289.311 14209.915 14296.062 3992.728 4089.588 4360.962 3756.661 0.000 5051.877 1866.049 4064.701 1997.713 5192.736 11530.605 4522.718 3547.333 5951.707 4556.512 3491.759 4279.900 3966.210 4591.672 4929.211 10147.319 4619.108 3753.713 4462.575 3902.269 4544.821 4324.283 5750.824 5433.925 5435.483 5721.040 4452.685 6151.836 2301.186 7726.258 4477.832 3441.294 5000.374 4638.072 8187.166 5092.550 4690.429 3431.577 4335.045 11325.992 4967.220 5670.588 5807.304 12683.669 4990.916 4406.214 5661.955 5285.083 5226.041 4860.535 4933.157 10217.931 6538.296 11685.422 2830.969 4363.459 4537.443 4938.224 4580.317 11844.188 5652.735 4790.703 4080.860 5409.816 4240.296 8182.547
2184.868 1990.656 909.198 10544.782 609.542 12991.612 651.669 506.193 999.287 1159.916 932.915 423.526 863.177 2081.643 1432.333 12261.355 385.750 780.909 13822.507 1740.417 1504.476 282.896 921.990 6433.289 1491.955 580.720 5061.152 764.314 798.663 7376.380 598.732 3200.620 650.985 622.542 4213.643 11448.970 750.103 905.344 12231.594 6425.502 820.887 1118.973 7231.294 7243.388 3042.127 6788.018 767.262 9186.806 8346.499 3402.059 5551.380 5872.689 2226.556 12155.125 538.292 603.039 518.785 707.614 988.149 3827.672 1162.388 7337.453 9317.977 5456.327 6903.919 1037.483 9289.131 2452.185 730.529 1037.256 1280.872 627.152 4080.855 3065.228 948.218 5080.950 539.133 778.863 3030.187 659.312 1925.223 792.782 7316.050 756.712 2048.074 804.507 6233.559 750.162 1011.196 3056.991 38.392 5726.188 12920.083 8098.798 7401.630 875.080 2121.831 672.291 5638.725 2687.753 615.817 10228.785 5099.218 4718.571 673.891 2825.781 2411.640 7122.227 2738.784 817.950 3142.791 12989.641 11936.774 3197.673 1403.750 1015.050 2984.662 5051.877 0.000 3479.207 4564.048 3779.191 994.140 6504.550 1524.923 2107.545 4134.302 1576.636 1907.865 877.779 1169.479 5035.523 379.026 5323.844 2367.677 3001.520 2078.963 5132.028 6023.473 2360.689 2203.446 450.519 1782.563 1051.372 2511.545 6496.328 4140.321 3663.187 834.425 8262.256 858.600 5266.124 9551.854 762.721 5365.600 1660.433 5407.456 6308.475 1029.149 1181.258 1129.174 9091.596 1067.242 5807.339 2270.104 827.077 801.891 661.372 904.048 13823.139 6835.420 6928.217 3388.911 812.083 947.800 5980.033 657.658 6812.786 2940.029 717.857 1082.416 9369.972 8596.793 3190.736
1473.025 2479.467 2686.512 9679.468 2922.165 10946.035 3107.397 3365.813 2540.167 4355.366 2736.159 3496.384 2679.182 4559.547 2554.779 10252.402 3150.006 2891.431 11913.968 2159.381 1975.218 3651.289 3560.455 4917.517 3651.263 2978.976 3254.663 3288.553 2803.436 6839.193 2995.569 5794.995 2896.530 3325.827 1271.951 9313.315 2971.383 2936.909 14171.067 9305.893 3806.963 2739.167 10138.174 6685.808 2091.470 4266.139 3649.851 12021.610 5243.668 181.574 3461.001 3806.437 2184.374 14275.370 3352.468 3194.451 3094.947 3062.219 3572.958 6900.625 2358.658 10302.500 8929.143 3227.803 4606.451 2501.038 8926.033 1039.536 2916.717 2595.686 3521.819 3890.754 7095.266 5449.741 2612.951 3338.114 3355.635 2902.616 5304.886 3067.139 1925.767 2688.701 10211.112 2766.960 2175.728 2678.424 3737.421 2729.879 2524.073 1953.597 3505.321 7971.020 11354.096 4794.443 6008.873 2706.512 4555.948 2921.125 4095.587 1060.277 3088.905 7031.228 3355.031 3296.606 3539.025 2689.792 1154.300 6970.219 2510.340 2676.497 5469.868 14402.364 14062.597 2213.715 2315.295 2637.370 1942.129 1866.049 3479.207 0.000 2687.109 510.889 3428.366 9825.016 2696.512 2633.692 4200.781 2723.975 2427.305 2627.782 2577.833 3282.572 3278.341 8348.498 3838.823 1941.928 2598.653 2815.495 3676.466 3567.147 4731.078 3800.281 4335.321 3983.573 2592.531 4974.641 2707.509 6665.372 2781.060 4789.975 3255.230 3407.174 9144.711 3363.246 3485.664 1824.337 3247.740 9611.951 3682.740 3904.860 4065.668 11930.533 3716.901 3482.477 4683.341 3550.291 3493.044 3465.059 3181.609 11906.265 5372.905 10356.416 1100.815 2940.971 2803.230 3917.515 3151.397 10275.052 4911.371 3079.076 2418.717 7128.327 6039.240 6472.598
3597.461 2610.372 3673.870 12339.423 3975.663 13268.613 4572.014 4171.054 3633.601 5707.172 3633.523 4818.187 3745.631 6357.791 3137.092 7850.607 4180.773 3783.233 14281.745 2837.862 3438.315 4833.265 5130.249 2244.473 5472.681 3989.688 585.468 3948.691 3773.490 9526.128 3966.155 7603.315 3929.488 4068.202 1588.168 6976.745 3820.118 3679.520 16436.958 10974.413 4373.851 4451.629 11787.282 9372.760 4665.783 2253.809 4243.178 13737.427 4114.556 2856.397 990.051 1324.865 4471.526 16458.499 4141.256 4008.691 4046.246 3878.154 5172.988 8389.733 3893.504 11899.556 11616.252 907.225 2340.883 3603.132 11613.077 3077.338 3833.531 3543.824 3776.549 4620.881 6797.490 7354.805 3658.225 657.261 4142.796 3785.648 7255.613 3918.892 2694.485 3915.343 11870.669 3853.529 2515.993 3897.369 1720.310 4002.677 3628.232 1512.277 4601.684 10026.519 13855.814 4231.111 3336.236 3710.776 6375.604 3895.086 6755.519 3466.662 3960.574 6011.086 675.135 5981.884 4199.813 5159.037 3313.450 4458.940 1922.449 3847.386 7404.441 16861.496 16241.796 1376.511 3185.619 3558.620 1584.890 4064.701 4564.048 2687.109 0.000 2248.865 3895.058 9752.661 3085.838 4857.184 2317.567 3050.885 4566.654 3777.109 4284.327 601.260 4208.371 7920.852 5979.302 1568.239 2568.482 690.033 1473.675 5761.888 6518.152 4640.347 6074.286 4417.337 2172.603 2303.729 5393.460 8215.346 3736.593 5497.664 3862.703 769.518 11831.718 4000.674 863.607 3444.323 846.755 9517.104 5274.218 4230.743 4462.025 13642.646 5317.571 1262.578 6524.230 4109.813 4076.535 4921.152 3786.482 14270.551 2700.399 11253.840 1679.448 4483.355 3617.670 1436.756 4625.019 10621.264 6970.687 3875.592 3625.839 9461.579 8242.171 6619.863
1912.733 2518.772 2933.698 10091.056 3195.267 11198.319 3469.824 3606.643 2802.230 4723.544 2966.612 3842.109 2943.132 5002.003 2703.186 9743.521 3427.948 3129.066 12183.931 2293.234 2285.945 3974.665 3952.840 4455.839 4087.548 3245.709 2800.940 3496.861 3053.197 7297.199 3254.712 6247.158 3164.168 3552.401 765.010 8803.067 3203.940 3145.315 14677.931 9752.359 4016.487 3138.790 10584.055 7143.752 2601.849 3755.274 3859.117 12478.648 4777.028 691.700 2974.345 3316.341 2672.560 14777.689 3589.472 3430.123 3354.447 3292.297 3970.891 7314.045 2708.241 10742.167 9383.314 2734.364 4098.756 2762.694 9381.973 1423.211 3160.902 2828.900 3658.497 4134.554 7207.408 5912.813 2868.618 2888.866 3592.436 3138.963 5773.037 3304.878 2053.678 2987.540 10658.439 3039.737 2228.415 2975.135 3227.441 3040.354 2787.566 1768.237 3808.321 8458.462 11677.188 4377.352 5544.396 2958.474 5001.498 3177.539 4506.677 1546.175 3331.749 6589.494 2905.060 3744.375 3757.585 3199.219 1584.402 6615.354 2395.509 2962.828 5936.784 14912.902 14564.601 1996.900 2510.480 2867.209 1775.508 1997.713 3779.191 510.889 2248.865 0.000 3603.567 9999.607 2813.045 3118.179 3956.138 2828.942 2896.493 2906.973 2971.509 2834.066 3540.888 8448.573 4322.347 1770.961 2614.262 2322.667 3171.335 4055.478 5173.344 4062.573 4766.732 4172.978 2523.213 4511.629 3175.831 7086.311 3026.538 4573.503 3451.294 2943.121 9596.494 3570.152 3017.451 2162.686 2759.298 9781.320 4081.156 4070.667 4250.425 12387.017 4117.491 2979.888 5132.962 3749.127 3694.415 3834.963 3373.677 12174.930 4909.688 10696.167 835.430 3313.600 3019.589 3426.255 3516.767 10524.710 5390.875 3305.915 2698.947 7376.445 6235.055 6658.543
2454.846 1300.752 858.819 11373.798 836.614 13604.269 1495.770 493.341 1024.822 2071.244 763.699 1410.806 930.371 3071.695 905.544 11421.230 796.936 667.795 14472.647 1316.169 1617.533 1257.093 1902.572 5591.836 2460.840 772.205 4336.686 271.182 782.537 8221.250 718.201 4152.683 816.684 387.971 3869.340 10638.803 589.137 528.411 13189.245 7246.072 479.127 1831.861 8032.681 8083.338 3583.937 6148.443 354.216 9993.620 7864.668 3401.614 4859.233 5158.774 2812.485 13093.011 464.043 486.100 680.039 517.885 1967.945 4629.819 1548.681 8116.346 10203.509 4802.065 6203.489 1053.852 10177.620 2514.380 680.528 892.134 290.938 743.995 3696.411 4044.421 946.108 4341.798 462.402 654.244 4017.383 556.781 1554.049 1099.700 8120.532 915.910 1486.188 1092.980 5608.030 1150.472 1042.227 2454.112 1027.084 6684.367 13640.639 7730.558 6518.727 861.498 3113.229 740.810 6263.367 2899.421 575.796 9766.989 4359.156 5327.319 355.042 3526.060 2568.535 6133.486 1981.909 1038.345 4125.171 13978.813 12874.646 2524.224 1113.510 847.222 2386.770 5192.736 994.140 3428.366 3895.058 3603.567 0.000 6401.646 849.725 2829.074 3171.073 865.870 2564.622 1032.872 1794.333 4301.499 664.076 4957.503 3312.442 2403.211 1326.641 4520.823 5368.619 3267.668 3188.081 815.895 2773.988 574.585 1734.330 5654.016 4707.449 4499.636 780.622 8176.163 221.899 4539.658 10436.901 238.707 4637.689 1816.298 4739.709 6186.327 2018.393 478.382 647.859 9897.833 2057.809 5157.383 3260.389 222.848 210.754 1636.284 267.383 14471.312 5974.754 7376.622 3024.880 1582.956 667.316 5260.401 1526.811 6956.848 3933.852 490.694 1181.844 9904.447 9030.655 3055.294
8677.805 7543.848 7156.630 15842.099 6960.653 19051.784 7080.588 6485.041 7313.648 6171.373 7096.095 6679.037 7181.121 6966.488 7296.768 15783.886 6752.948 6947.546 19765.366 7706.376 7914.802 6441.209 6930.479 10560.280 7303.990 6895.959 9986.991 6538.088 7044.606 12786.836 6868.842 6795.456 6976.564 6510.558 10188.262 15267.381 6864.964 6888.756 13253.551 6806.220 6022.474 7567.052 7077.924 12690.934 9474.284 11862.672 6178.638 8489.229 13864.792 9787.405 10541.734 10739.550 8666.439 12771.460 6493.830 6647.743 6773.278 6773.536 6966.848 5657.090 7655.172 6911.467 14315.645 10594.861 11722.156 7351.210 14266.079 8865.935 6928.352 7236.509 6344.459 5977.533 2963.008 7135.995 7236.322 9945.034 6490.506 6935.543 7295.092 6774.790 7945.940 7229.237 7163.341 7108.619 7805.322 7234.459 11402.505 7217.628 7330.790 8613.067 6490.801 8171.686 18642.126 13921.818 11062.211 7141.434 7020.963 6937.418 11861.915 9172.676 6758.342 15752.287 9956.944 11007.200 6293.846 9101.910 8872.420 9236.912 7975.713 7216.770 7233.937 14964.128 12581.346 8566.542 7511.319 7193.580 8560.580 11530.605 6504.550 9825.016 9752.661 9999.607 6401.646 0.000 7192.116 8429.357 7839.427 7182.232 8317.564 7251.372 7654.156 9926.916 6601.463 2050.106 8011.499 8574.437 7489.758 10441.926 11105.515 8198.926 6895.601 6101.398 6893.542 5841.484 7750.008 10607.566 10506.295 5877.958 7062.484 14572.774 6569.796 10156.321 14536.411 6463.250 10236.758 8099.340 10503.631 240.561 6897.140 5930.011 5759.879 8411.348 6893.734 10927.023 7046.961 6274.997 6332.533 6841.637 6643.768 19771.869 10763.766 3894.174 9361.164 7264.918 7023.764 10810.447 7060.522 1711.847 7674.673 6754.704 7452.494 15648.743 15011.726 3353.688
1998.424 476.464 764.073 11246.457 1011.153 13214.042 1742.154 1089.437 837.236 2684.788 671.760 1854.822 868.276 3523.485 214.859 10736.443 1163.768 771.983 14116.678 538.144 1195.319 1806.144 2273.053 4909.078 2756.601 996.902 3557.140 863.198 813.016 8137.963 956.931 4702.391 964.190 983.355 3029.824 9925.979 780.221 619.702 13709.746 7944.680 1320.390 1872.777 8746.037 7993.796 3262.556 5333.247 1176.660 10703.930 7017.906 2696.817 4063.543 4375.042 2588.422 13654.517 1058.668 936.260 1014.372 817.737 2330.384 5338.751 1383.676 8845.020 10173.864 3989.623 5414.413 833.574 10153.464 1898.482 824.141 666.108 847.695 1541.137 4403.671 4529.412 804.532 3571.346 1060.000 769.118 4470.486 865.681 771.261 1098.833 8831.714 948.938 637.255 1081.856 4787.118 1190.120 845.191 1614.691 1563.315 7212.480 13363.366 6882.134 5886.282 798.515 3555.081 903.095 5938.880 2356.421 909.246 8919.286 3589.331 5005.792 1119.110 3364.901 2014.045 5786.392 1215.643 1012.532 4598.047 14382.866 13436.292 1709.331 539.997 649.394 1545.732 4522.718 1524.923 2696.512 3085.838 2813.045 849.725 7192.116 0.000 2740.241 2734.684 67.719 2435.173 955.552 1762.598 3527.694 1150.483 5653.603 3506.297 1562.385 554.225 3693.045 4557.707 3391.218 3663.851 1554.560 3223.371 1418.449 986.737 4972.174 4363.058 5183.261 778.480 7382.531 779.397 3761.797 10405.151 917.681 3860.917 1375.882 3932.591 6971.936 2411.541 1280.322 1484.289 10608.537 2455.350 4344.132 3707.105 1045.962 1005.152 2020.670 701.680 14113.352 5313.926 8217.034 2187.829 1738.065 606.162 4480.057 1790.028 7797.366 4300.505 809.576 945.734 9459.818 8510.577 3864.692
1271.567 2981.670 2059.752 8553.522 1992.958 10884.993 1456.252 2414.338 1930.875 2298.515 2172.414 1802.579 1959.463 2044.671 2529.628 12685.973 2067.376 2193.275 11715.715 2469.481 1625.441 2060.357 1499.551 7048.119 1242.133 2056.888 5437.345 2561.087 2086.816 5416.379 2110.933 3216.446 2016.193 2476.270 3819.790 11782.942 2258.112 2379.460 11618.295 6723.985 2879.101 1010.433 7555.455 5275.043 1083.184 6793.730 2775.895 9412.262 7875.458 2472.231 5792.741 6144.471 451.974 11685.841 2429.617 2350.159 2155.556 2315.603 1466.346 4449.544 1360.430 7735.224 7436.931 5608.299 7065.419 1923.677 7415.580 1806.127 2165.794 2109.086 3095.348 2733.677 6173.003 2842.998 1987.693 5494.642 2432.656 2205.545 2687.225 2273.074 2443.756 1747.364 7624.733 1935.484 2802.722 1758.017 6243.119 1683.590 1918.643 3497.274 2103.591 5340.285 10831.631 7382.535 8117.897 2038.881 2026.759 2094.783 3535.178 1574.170 2253.451 9641.794 5513.496 2624.156 2650.998 718.254 1585.083 8439.880 3592.366 1822.757 2854.080 12008.388 11471.390 3751.905 2229.681 2141.095 3435.686 3547.333 2107.545 2633.692 4857.184 3118.179 2829.074 8429.357 2740.241 0.000 5385.587 2807.183 315.239 1852.741 1035.872 5440.102 2232.002 7402.579 1205.163 3448.401 3137.689 5210.875 6125.549 939.165 2210.788 2557.845 1889.568 3117.865 3471.615 7110.433 2080.313 4188.124 2103.348 6974.805 2611.665 5626.680 7668.745 2612.102 5720.421 1519.015 5598.952 8250.536 1545.145 3194.664 3203.242 9322.273 1555.534 5915.246 2132.404 2772.108 2721.887 1604.710 2593.336 11716.192 7495.008 8158.448 3232.112 1302.194 2277.188 6258.860 1455.520 8494.758 2278.548 2342.764 1800.123 7288.171 6583.215 5212.609
4362.785 2408.456 3498.221 13683.029 3724.133 15141.837 4468.064 3631.962 3565.135 5242.180 3401.710 4522.173 3602.877 6207.865 2919.699 8444.834 3831.560 3476.644 16114.402 2916.113 3760.817 4411.441 4978.487 2769.823 5485.215 3696.309 2307.228 3371.302 3537.439 10660.575 3648.209 7322.894 3679.382 3513.898 3577.433 7749.626 3460.418 3293.855 16359.533 10334.699 3557.286 4597.697 11095.267 10511.330 5656.158 4089.524 3494.375 13050.893 6193.467 4314.535 2825.319 2957.738 5143.091 16262.148 3599.071 3539.906 3679.943 3465.083 5039.213 7727.661 4074.566 11152.042 12734.022 2952.828 3894.319 3556.413 12719.281 3999.859 3525.858 3399.171 2916.069 3868.247 4895.238 7199.225 3538.225 2237.953 3598.630 3470.524 7158.604 3519.177 2962.063 3833.431 11185.988 3680.323 2589.765 3816.364 3694.905 3924.797 3571.162 2253.117 4170.631 9853.964 15535.034 6470.384 3500.206 3532.020 6244.601 3609.426 8172.988 4505.053 3560.585 8023.912 2244.927 7286.765 3525.206 5927.642 4213.510 3059.805 1842.739 3747.169 7275.538 17103.379 16043.807 1987.211 3178.635 3384.024 2274.498 5951.707 4134.302 4200.781 2317.567 3956.138 3171.073 7839.427 2734.684 5385.587 0.000 2668.467 5070.933 3689.237 4474.599 2237.149 3762.957 5886.350 6238.168 2271.905 2256.862 2946.888 3380.663 6111.226 6335.831 3976.782 5906.974 3471.130 1919.763 2823.446 6642.974 7624.962 3505.057 7807.861 3276.122 2434.725 12961.544 3382.215 2497.362 3884.710 2848.282 7599.202 5111.090 3252.804 3469.345 12954.886 5153.851 3236.244 6395.105 3380.598 3381.025 4716.854 3231.588 16106.545 3052.416 9926.017 3131.465 4472.502 3323.493 3013.834 4513.914 8928.302 7021.762 3446.966 3654.205 11321.169 10191.019 5029.492
2054.731 441.097 829.844 11310.855 1072.502 13267.975 1806.205 1131.922 904.831 2736.001 735.929 1912.606 934.421 3584.165 279.534 10685.264 1219.732 831.279 14172.340 571.497 1257.096 1858.554 2334.898 4856.655 2821.318 1056.216 3516.208 898.757 876.041 8203.618 1014.973 4759.455 1025.796 1023.299 3028.773 9877.482 835.755 672.885 13769.791 7992.290 1341.125 1940.307 8792.319 8059.342 3323.010 5300.521 1200.856 10750.744 6998.800 2728.361 4025.931 4335.221 2652.924 13712.530 1100.587 983.439 1069.376 869.027 2392.610 5384.678 1451.067 8889.681 10240.302 3955.862 5375.881 901.285 10219.987 1942.881 883.177 733.303 840.768 1571.348 4382.233 4589.445 871.530 3528.874 1101.761 827.864 4531.765 918.193 798.569 1165.358 8878.229 1013.731 631.629 1148.462 4755.902 1256.398 912.849 1589.881 1615.010 7271.475 13422.681 6872.773 5830.145 863.966 3616.169 963.135 5997.449 2405.793 961.826 8901.174 3546.768 5064.908 1149.583 3430.210 2063.544 5719.469 1168.903 1079.021 4658.617 14447.173 13494.285 1674.745 601.660 715.961 1521.895 4556.512 1576.636 2723.975 3050.885 2828.942 865.870 7182.232 67.719 2807.183 2668.467 0.000 2501.777 1022.509 1830.316 3485.753 1200.455 5629.847 3573.290 1538.418 503.650 3663.812 4523.713 3458.778 3723.685 1591.661 3283.849 1428.648 935.799 4919.692 4421.549 5231.474 841.925 7395.168 811.822 3720.675 10471.544 949.807 3819.654 1435.709 3897.481 6961.145 2472.901 1282.251 1491.624 10655.303 2516.640 4310.684 3768.135 1068.838 1030.733 2081.390 736.069 14168.914 5259.764 8240.027 2188.975 1804.066 667.150 4439.666 1853.792 7801.928 4364.512 859.483 1013.319 9511.054 8556.822 3860.434
1006.948 2668.053 1771.712 8837.978 1728.757 11093.742 1267.258 2171.089 1636.196 2251.012 1884.253 1646.884 1674.181 2160.240 2223.339 12404.335 1824.568 1916.319 11938.271 2154.909 1310.442 1897.060 1421.707 6747.844 1289.035 1795.098 5144.760 2300.084 1806.979 5709.990 1847.795 3374.625 1748.127 2224.317 3577.198 11506.842 1985.015 2098.157 11890.445 6887.608 2648.386 789.177 7719.951 5567.420 1157.084 6533.564 2536.268 9595.334 7669.087 2274.835 5510.139 5861.239 358.703 11945.958 2183.761 2092.989 1900.238 2047.698 1401.336 4549.375 1062.572 7891.108 7738.894 5331.179 6793.407 1626.628 7718.327 1540.793 1892.283 1813.545 2823.558 2526.803 5988.240 3022.607 1696.531 5200.189 2186.928 1928.988 2878.142 2007.936 2128.755 1470.794 7791.478 1658.693 2487.502 1480.001 5980.337 1414.219 1623.186 3190.764 1908.616 5574.482 11078.858 7206.521 7814.822 1753.040 2150.238 1825.136 3738.524 1371.011 1991.544 9455.160 5219.085 2813.087 2409.025 961.800 1331.439 8124.807 3277.369 1542.095 3042.787 12306.314 11730.904 3443.069 1919.642 1847.293 3128.354 3491.759 1907.865 2427.305 4566.654 2896.493 2564.622 8317.564 2435.173 315.239 5070.933 2501.777 0.000 1566.787 775.599 5145.930 1992.411 7227.890 1442.230 3141.305 2824.490 4937.119 5854.640 1200.395 2330.581 2356.991 1968.535 2886.552 3156.481 6810.316 2233.853 4297.435 1821.028 6893.396 2344.766 5335.789 7970.320 2354.971 5430.248 1204.809 5318.930 8133.150 1494.505 2949.295 2973.606 9504.470 1513.400 5642.933 2269.571 2522.490 2470.090 1476.324 2321.257 11938.049 7193.493 8193.668 2958.147 1096.082 1990.139 5975.581 1276.462 8444.779 2498.166 2074.947 1500.341 7462.418 6712.671 5062.446
1456.678 1331.077 208.112 10403.845 295.025 12571.564 820.644 769.853 144.334 1946.976 320.313 1045.084 107.500 2629.263 773.869 11558.791 522.996 365.111 13442.001 945.060 664.924 1103.916 1376.061 5755.580 1816.787 356.092 4301.085 791.956 250.455 7268.983 383.533 3848.294 274.842 766.296 3337.808 10720.722 445.096 533.472 12808.344 7200.143 1255.674 923.361 8016.349 7127.778 2551.414 5970.585 1109.719 9962.817 7479.901 2563.914 4767.104 5098.499 1788.786 12775.103 765.124 622.550 478.099 526.274 1426.609 4631.269 519.138 8136.286 9282.279 4653.133 6115.601 174.284 9259.552 1622.437 357.139 290.114 1269.082 1276.557 4665.122 3638.314 151.049 4330.459 768.545 378.642 3564.484 504.127 1089.197 148.578 8098.736 142.756 1291.999 130.377 5412.779 242.352 148.887 2265.666 909.428 6327.218 12622.098 7221.447 6764.850 186.331 2655.381 320.985 5233.267 1932.261 507.983 9357.787 4349.141 4296.696 982.997 2525.548 1622.008 6741.940 2064.824 70.296 3700.124 13441.075 12557.201 2441.397 597.355 307.675 2193.164 4279.900 877.779 2627.782 3777.109 2906.973 1032.872 7251.372 955.552 1852.741 3689.237 1022.509 1566.787 0.000 830.984 4282.072 654.551 5925.806 2550.782 2209.674 1460.753 4312.144 5216.735 2440.597 2779.792 1173.634 2334.132 1472.508 1871.631 5818.999 3674.865 4445.476 257.238 7417.628 811.726 4505.147 9514.656 860.202 4604.560 848.386 4611.330 7046.122 1519.524 1472.697 1561.621 9868.226 1563.648 4999.651 2807.294 1050.025 991.375 1148.648 772.802 13440.489 6175.495 7805.993 2518.031 788.402 424.449 5208.513 872.242 7647.437 3364.715 551.879 209.323 8874.031 8015.386 3902.808
1135.729 2073.964 1039.027 9588.058 957.762 11863.191 583.387 1395.974 928.253 1786.675 1150.747 995.646 935.248 2097.835 1562.269 12128.362 1049.992 1159.371 12712.006 1598.999 846.219 1215.954 983.321 6377.951 1192.361 1022.638 4841.572 1527.622 1055.256 6445.545 1076.194 3355.873 980.340 1448.952 3549.540 11261.071 1222.632 1348.053 12172.867 6822.265 1876.598 172.777 7650.724 6305.384 1876.547 6385.113 1761.595 9570.119 7714.178 2463.034 5261.977 5605.984 1064.765 12177.212 1408.284 1318.751 1125.315 1279.841 999.410 4344.377 411.821 7796.427 8452.804 5114.334 6588.180 929.160 8429.727 1550.621 1130.508 1105.218 2059.481 1772.307 5242.433 3077.973 974.411 4884.140 1411.462 1171.404 2972.467 1237.825 1646.713 714.912 7728.199 902.250 1955.443 726.744 5825.370 647.907 918.801 2813.589 1176.530 5742.223 11853.704 7348.681 7417.808 1014.716 2109.094 1058.920 4508.616 1635.179 1219.334 9552.936 4903.106 3579.232 1633.963 1733.772 1428.903 7533.823 2759.113 793.699 3123.444 12719.919 11960.220 3034.389 1299.047 1131.838 2744.390 3966.210 1169.479 2577.833 4284.327 2971.509 1794.333 7654.156 1762.598 1035.872 4474.599 1830.316 775.599 830.984 0.000 4832.380 1218.488 6489.834 1780.668 2759.474 2220.140 4742.636 5663.019 1636.728 2264.719 1610.136 1832.985 2114.119 2598.930 6441.224 2984.767 4121.860 1074.105 7275.515 1576.167 5041.138 8685.330 1580.898 5139.008 864.299 5086.968 7462.228 1109.666 2173.713 2201.735 9477.036 1146.078 5446.719 2253.809 1746.969 1694.789 904.415 1557.540 12711.620 6811.681 7799.126 2811.073 397.879 1252.899 5718.989 614.157 7880.470 2696.629 1307.021 821.521 8214.113 7427.576 4356.962
4186.178 3052.362 4163.843 12918.399 4461.929 13759.944 5089.561 4616.943 4137.780 6189.439 4114.071 5313.547 4242.167 6887.989 3603.227 7296.368 4656.997 4256.490 14781.994 3337.147 3986.772 5310.494 5649.042 1643.215 6014.408 4470.071 72.757 4382.498 4257.157 10121.529 4442.279 8125.245 4414.896 4509.050 2142.623 6440.985 4286.109 4137.428 16999.292 11459.865 4775.918 4997.109 12266.811 9968.124 5266.659 1942.744 4654.513 14221.913 3975.233 3453.463 614.838 862.190 5060.929 17009.399 4585.923 4462.158 4516.853 4337.233 5694.533 8861.927 4434.625 12370.507 12210.780 716.610 1907.985 4109.544 12208.120 3670.194 4307.937 4034.775 4153.712 5039.867 6963.919 7890.365 4155.801 56.002 4587.171 4257.655 7797.222 4381.158 3214.842 4424.175 12351.549 4348.314 2998.751 4405.942 1481.358 4513.844 4133.851 2026.238 5073.633 10569.974 14389.062 4238.003 2735.050 4201.258 6908.152 4374.375 7337.581 4066.187 4423.852 5836.306 74.145 6574.204 4623.289 5755.603 3907.133 3982.154 2322.573 4352.252 7943.266 17447.750 16792.326 1842.967 3685.501 4045.592 2097.573 4591.672 5035.523 3282.572 601.260 2834.066 4301.499 9926.916 3527.694 5440.102 2237.149 3485.753 5145.930 4282.072 4832.380 0.000 4670.289 8038.516 6548.480 2081.662 2987.804 812.371 1178.853 6337.137 7045.604 5075.276 6600.264 4795.810 2567.808 1702.495 5989.948 8697.735 4219.975 5736.764 4292.517 240.973 12425.542 4428.829 336.801 4005.195 611.259 9688.882 5793.205 4598.388 4832.390 14126.771 5836.956 1010.051 7058.003 4521.307 4493.188 5430.519 4219.495 14769.993 2099.155 11608.434 2280.031 5011.220 4088.217 959.952 5142.424 10874.772 7526.191 4332.106 4142.885 9964.503 8724.036 6883.657
2085.631 1620.282 610.554 10747.765 360.305 13080.891 839.273 184.999 740.383 1535.837 602.649 763.725 600.044 2446.275 1071.330 11885.702 169.508 438.547 13930.335 1406.577 1319.162 661.900 1245.242 6056.627 1798.132 299.571 4697.367 407.167 491.049 7587.803 286.239 3578.648 381.983 276.105 3929.588 11076.414 389.235 533.174 12607.607 6794.960 660.090 1221.757 7597.993 7451.674 3078.434 6441.209 544.385 9555.014 8036.824 3217.589 5193.429 5511.523 2276.863 12533.506 206.437 224.656 186.745 333.452 1309.894 4191.824 1078.809 7700.257 9556.434 5104.947 6545.973 779.868 9529.581 2276.983 394.815 727.129 954.881 623.992 4059.863 3436.774 672.271 4715.034 208.921 432.945 3396.593 289.623 1607.878 630.875 7683.298 512.835 1695.671 634.637 5888.854 634.481 755.831 2707.367 417.085 6102.718 13063.331 7818.634 7022.851 583.356 2484.423 363.906 5726.817 2573.503 247.833 9925.860 4733.194 4796.378 419.085 2943.549 2271.194 6762.729 2365.891 615.607 3512.586 13351.457 12315.162 2837.104 1085.662 696.011 2635.470 4929.211 379.026 3278.341 4208.371 3540.888 664.076 6601.463 1150.483 2232.002 3762.957 1200.455 1992.411 654.551 1218.488 4670.289 0.000 5316.389 2648.905 2652.362 1703.669 4788.303 5672.809 2610.050 2572.881 522.756 2145.828 896.299 2136.134 6119.617 4195.490 4033.157 521.332 8068.168 495.677 4902.301 9790.038 425.402 5001.680 1498.954 5053.547 6397.772 1366.748 963.294 984.471 9459.689 1407.603 5457.297 2634.101 548.659 505.352 978.417 531.756 13929.999 6457.551 7208.844 3094.301 945.995 594.465 5618.063 866.922 6997.244 3286.948 341.033 861.554 9420.211 8601.218 3256.903
7382.343 5933.967 5789.957 15438.569 5656.053 18261.990 5961.025 5165.704 5955.881 5343.360 5708.736 5600.138 5838.259 6355.579 5795.727 13733.858 5482.602 5582.228 19053.427 6189.437 6562.317 5342.277 5962.242 8565.506 6440.500 5586.542 8102.020 5149.596 5691.241 12292.162 5548.095 6563.141 5660.252 5159.524 8533.453 13222.118 5497.453 5480.211 14202.284 7591.104 4672.193 6441.195 8050.442 12178.468 8365.536 9955.347 4816.088 9713.775 12006.675 8339.490 8650.627 8824.786 7550.370 13815.972 5165.598 5303.258 5463.024 5408.629 6012.554 5773.852 6394.569 7948.325 14018.591 8726.820 9780.660 5989.587 13976.555 7471.433 5575.567 5843.730 4830.264 4720.604 1261.803 6806.125 5875.823 8051.871 5162.155 5569.021 6925.915 5423.504 6424.821 5939.448 8143.456 5787.451 6220.270 5940.256 9519.857 5950.774 5973.586 6915.217 5320.789 8466.256 18053.019 12138.105 9030.033 5783.335 6413.896 5605.019 10933.110 7847.710 5417.828 13874.570 8062.440 10026.642 4943.235 8113.652 7522.111 7190.786 6253.305 5906.783 6911.329 15686.576 13613.192 6829.160 6058.036 5798.888 6870.834 10147.319 5323.844 8348.498 7920.852 8448.573 4957.503 2050.106 5653.603 7402.579 5886.350 5629.847 7227.890 5925.806 6489.834 8038.516 5316.389 0.000 7263.581 6883.077 5852.584 8609.891 9215.036 7389.725 6333.564 4879.701 6200.660 4453.801 6048.000 8610.657 9461.739 5914.531 5700.743 12983.828 5156.982 8260.617 14248.098 5076.695 8335.837 6758.490 8630.882 1815.762 5969.537 4481.622 4365.012 9626.998 5978.710 9047.057 6482.059 4883.490 4942.876 5806.907 5220.417 19056.299 8750.519 5368.046 7738.189 6132.793 5619.888 8888.845 5954.567 3537.886 7201.416 5385.459 6107.944 14688.177 13913.554 2248.236
2449.146 3849.818 2747.382 8259.753 2559.155 11057.641 1824.726 2826.546 2673.034 1920.228 2849.934 1950.836 2641.379 1107.317 3318.528 13827.326 2521.705 2802.961 11810.760 3379.539 2591.859 2180.828 1460.004 8126.503 890.212 2602.825 6551.410 3048.145 2723.845 5087.086 2656.823 2087.552 2598.764 2924.772 5016.459 12937.556 2839.792 2996.601 10460.418 5561.755 3183.934 1643.918 6390.393 4962.609 2077.902 7975.235 3133.765 8225.316 9079.795 3676.703 6935.337 7285.133 1655.239 10505.901 2852.808 2838.346 2657.169 2863.295 1395.021 3425.995 2191.788 6581.228 6972.753 6763.296 8229.348 2682.247 6941.435 2982.862 2759.438 2840.312 3602.680 2941.005 6104.204 1682.058 2701.774 6601.845 2854.890 2811.742 1511.112 2810.605 3416.129 2409.140 6456.764 2573.372 3735.385 2425.643 7421.406 2319.925 2667.100 4555.020 2344.787 4137.003 10789.775 8574.704 9178.619 2715.492 1064.728 2675.919 3885.015 2779.292 2776.417 10839.007 6620.816 3104.305 3032.228 1432.692 2772.475 9292.666 4539.361 2495.491 1678.881 10944.462 10290.588 4790.378 3075.507 2857.751 4488.456 4619.108 2367.677 3838.823 5979.302 4322.347 3312.442 8011.499 3506.297 1205.163 6238.168 3573.290 1442.230 2550.782 1780.668 6548.480 2648.905 7263.581 0.000 4502.680 3992.346 6372.613 7291.764 294.895 1236.125 2758.258 1119.121 3405.867 4378.580 8189.498 2745.736 3146.677 2752.741 8060.295 3126.176 6746.079 7206.652 3074.050 6841.973 2547.191 6747.775 7856.811 1388.566 3548.512 3476.493 8136.161 1363.491 7079.139 1110.974 3180.798 3146.215 1708.233 3138.468 11815.005 8565.928 7257.535 4395.426 1779.791 2938.344 7399.289 1788.961 7851.192 1076.142 2887.226 2589.662 7658.275 7140.005 5016.564
2257.164 1103.704 2106.418 11457.188 2408.734 12887.320 3010.227 2628.103 2065.932 4139.948 2069.125 3249.959 2177.402 4806.344 1585.054 9375.757 2616.927 2221.943 13851.778 1269.720 1917.840 3268.006 3569.468 3624.149 3935.319 2424.561 2096.514 2420.316 2207.598 8488.471 2402.853 6045.206 2362.835 2530.988 1656.826 8522.151 2263.147 2129.662 14932.294 9406.217 2879.530 2921.579 10219.506 8337.091 3488.436 3788.847 2738.411 12169.224 5463.915 2046.375 2558.242 2888.863 3113.889 14932.251 2599.674 2460.195 2485.507 2325.930 3614.078 6823.833 2357.149 10333.249 10575.930 2454.843 3908.611 2035.928 10565.425 1807.980 2271.454 1976.305 2335.069 3102.091 5679.347 5808.925 2089.986 2131.911 2601.479 2225.051 5717.260 2364.023 1133.422 2349.058 10302.746 2285.356 956.943 2330.987 3237.066 2437.319 2060.855 55.993 3038.863 8490.087 13263.270 5376.689 4678.912 2143.194 4826.522 2330.577 5916.071 2291.822 2404.771 7367.868 2150.790 5045.774 2680.405 3864.950 2039.807 5168.280 648.176 2279.969 5862.423 15437.512 14714.983 315.483 1617.379 1992.057 16.894 3753.713 3001.520 1941.928 1568.239 1770.961 2403.211 8574.437 1562.385 3448.401 2271.905 1538.418 3141.305 2209.674 2759.474 2081.662 2652.362 6883.077 4502.680 0.000 1109.377 2137.769 3021.978 4308.436 4964.193 3104.386 4519.015 2956.793 835.078 3687.219 4409.134 6647.534 2170.865 6120.721 2340.142 2299.484 10799.772 2478.219 2398.613 1957.716 2407.422 8346.049 3713.612 2792.046 3013.337 12074.457 3757.236 2805.954 4976.445 2606.907 2567.335 3355.600 2261.165 13844.424 4063.454 9778.392 942.290 2929.573 2058.702 2999.052 3063.172 9293.846 5456.087 2325.458 2063.180 9070.209 7971.656 5313.286
2219.669 160.280 1288.016 11554.742 1555.528 13353.392 2270.883 1633.901 1327.326 3238.723 1207.967 2405.558 1386.634 4065.975 689.812 10182.416 1717.031 1322.029 14278.513 680.997 1521.176 2360.341 2812.230 4354.860 3277.147 1546.212 3019.891 1394.998 1352.794 8479.051 1508.338 5253.427 1508.005 1523.560 2700.238 9373.835 1334.004 1173.896 14252.912 8495.873 1805.594 2348.595 9295.501 8332.294 3521.685 4821.803 1675.159 11254.116 6566.031 2636.239 3535.849 3840.494 2925.578 14203.335 1602.233 1487.087 1568.252 1371.512 2867.777 5887.761 1817.937 9391.933 10535.124 3475.435 4883.243 1313.827 10517.443 1986.079 1374.431 1173.999 1229.533 2055.808 4626.324 5073.649 1312.286 3030.113 1603.295 1320.017 5010.199 1419.826 800.429 1608.729 9381.505 1477.902 442.452 1590.805 4281.971 1702.244 1331.136 1155.581 2117.353 7759.248 13578.799 6484.173 5334.851 1324.584 4096.041 1451.254 6154.086 2485.149 1463.408 8471.134 3047.868 5232.803 1636.843 3712.246 2153.168 5316.634 666.770 1524.250 5140.446 14901.630 13985.159 1198.992 922.073 1167.636 1093.911 4462.575 2078.963 2598.653 2568.482 2614.262 1326.641 7489.758 554.225 3137.689 2256.862 503.650 2824.490 1460.753 2220.140 2987.804 1703.669 5852.584 3992.346 1109.377 0.000 3197.700 4042.106 3856.680 4209.014 2087.525 3766.743 1860.579 432.583 4417.960 4584.172 5735.122 1316.800 7132.073 1304.713 3223.933 10764.813 1441.154 3322.637 1665.605 3413.512 7263.752 2952.478 1687.455 1912.508 11158.658 2996.497 3830.747 4248.199 1541.724 1509.844 2564.403 1232.032 14273.814 4760.353 8696.433 1886.928 2248.954 1153.851 3943.881 2320.445 8184.806 4824.752 1362.636 1402.821 9569.112 8563.320 4208.548
3939.307 3223.274 4228.631 12314.724 4531.894 13008.048 5082.109 4765.759 4171.184 6257.143 4199.280 5357.193 4291.785 6836.740 3722.775 7483.387 4746.435 4355.280 14037.936 3392.125 3905.685 5393.443 5634.541 2203.736 5934.771 4552.388 743.509 4554.759 4334.481 9600.334 4533.634 8091.647 4487.101 4667.823 1567.801 6572.264 4399.120 4267.363 16827.306 11507.407 4999.759 4913.714 12326.397 9447.009 4884.916 1658.451 4863.704 14268.544 3427.858 2995.519 660.143 994.328 4798.956 16877.118 4737.198 4597.907 4618.801 4463.257 5672.684 8942.665 4369.780 12448.402 11679.501 412.317 1856.736 4138.087 11680.438 3405.184 4403.946 4098.791 4419.903 5234.107 7487.367 7820.115 4203.985 844.748 4738.975 4358.952 7709.572 4500.670 3223.116 4443.753 12408.078 4400.786 3094.253 4426.314 1101.677 4526.986 4163.970 2083.503 5168.929 10469.305 13685.014 3551.105 3268.725 4264.574 6850.295 4459.783 6757.329 3728.178 4541.054 5327.360 850.524 6045.318 4812.062 5433.170 3631.447 4768.410 2571.913 4381.844 7863.356 17168.999 16661.427 1999.081 3734.080 4118.020 2154.648 3902.269 5132.028 2815.495 690.033 2322.667 4520.823 10441.926 3693.045 5210.875 2946.888 3663.812 4937.119 4312.144 4742.636 812.371 4788.303 8609.891 6372.613 2137.769 3197.700 0.000 921.507 6137.349 7001.172 5241.337 6561.796 5056.891 2820.724 2253.378 5493.836 8756.999 4298.247 4932.952 4472.427 766.305 11889.272 4610.707 800.082 3883.418 442.874 10206.521 5777.321 4876.709 5105.658 14174.293 5819.792 706.907 6996.049 4730.984 4694.384 5440.770 4394.323 14025.149 2644.520 11894.078 1979.259 4977.698 4193.988 1103.634 5134.923 11299.150 7395.452 4463.076 4145.584 9227.009 7968.365 7297.685
4854.310 4082.902 5125.429 13012.402 5428.417 13458.267 5994.773 5640.620 5074.692 7157.796 5090.899 6261.478 5192.248 7755.906 4602.652 6583.983 5638.716 5243.829 14505.692 4287.719 4824.625 6288.965 6548.934 1717.760 6855.297 5445.927 1118.682 5420.848 5228.582 10381.241 5424.776 9009.908 5382.949 5539.023 2406.326 5661.808 5283.815 5146.489 17743.538 12416.071 5847.328 5833.871 13233.080 10228.406 5762.583 783.360 5716.852 15178.186 2812.804 3857.948 564.607 492.912 5709.392 17797.053 5611.154 5476.419 5507.353 5344.313 6588.050 9843.145 5288.040 13351.329 12447.510 568.233 940.437 5042.466 12451.378 4319.428 5293.420 4995.320 5246.495 6094.236 8142.549 8740.790 5104.485 1163.275 5612.761 5246.824 8630.842 5383.813 4127.865 5350.692 13315.380 5300.951 3977.390 5333.063 317.370 5435.281 5068.116 2966.571 6060.784 11390.797 14237.901 3175.655 2657.897 5161.839 7769.946 5352.242 7499.152 4626.252 5425.014 4659.700 1152.596 6835.186 5672.982 6328.017 4543.212 4570.749 3393.132 5286.723 8784.425 18063.673 17581.467 2848.969 4632.765 5012.581 3038.841 4544.821 6023.473 3676.466 1473.675 3171.335 5368.619 11105.515 4557.707 6125.549 3380.663 4523.713 5854.640 5216.735 5663.019 1178.853 5672.809 9215.036 7291.764 3021.978 4042.106 921.507 0.000 7054.447 7919.875 6111.767 7479.715 5888.120 3643.161 1748.222 6310.260 9662.000 5191.989 4948.203 5335.437 954.745 12652.731 5473.504 884.200 4804.539 630.880 10867.557 6692.057 5699.108 5931.233 15083.755 6734.736 217.244 7916.026 5583.489 5550.128 6351.274 5258.882 14490.993 2089.744 12721.996 2896.645 5893.605 5079.999 515.387 6047.678 12040.153 8316.642 5342.612 5054.715 9725.926 8428.932 8043.867
2202.071 3709.519 2643.316 8202.129 2481.742 10896.781 1772.086 2792.215 2554.004 2058.481 2750.044 1958.029 2536.910 1363.232 3195.656 13603.652 2470.947 2719.332 11666.991 3224.276 2413.421 2202.856 1489.788 7927.980 953.586 2531.303 6337.759 2998.898 2632.044 5029.256 2586.387 2382.017 2518.125 2883.162 4758.853 12707.219 2763.756 2914.097 10690.077 5855.380 3181.575 1518.535 6683.631 4899.803 1783.063 7729.133 3117.684 8514.312 8803.967 3402.580 6709.563 7060.399 1383.274 10749.504 2816.232 2785.485 2597.657 2796.105 1428.702 3712.252 2040.915 6875.382 6957.339 6531.561 7993.470 2559.221 6928.689 2737.292 2679.062 2726.674 3555.150 2958.780 6211.214 1976.800 2590.299 6391.015 2818.586 2729.130 1804.880 2745.050 3243.281 2304.940 6749.660 2478.553 3576.038 2320.377 7177.237 2219.813 2546.382 4359.717 2341.832 4403.955 10675.296 8289.598 8987.348 2613.654 1325.642 2597.134 3671.264 2509.852 2713.871 10556.071 6409.953 2862.922 3008.901 1141.131 2520.795 9170.186 4379.436 2390.469 1972.580 11129.141 10534.793 4602.173 2935.041 2748.074 4294.691 4324.283 2360.689 3567.147 5761.888 4055.478 3267.668 8198.926 3391.218 939.165 6111.226 3458.778 1200.395 2440.597 1636.728 6337.137 2610.050 7389.725 294.895 4308.436 3856.680 6137.349 7054.447 0.000 1503.208 2774.518 1331.577 3410.495 4229.909 7990.752 2476.598 3434.668 2658.349 7765.500 3071.207 6530.351 7191.206 3031.412 6625.400 2351.098 6519.011 8039.028 1444.949 3538.612 3485.560 8425.407 1427.831 6842.996 1386.190 3152.850 3113.922 1715.710 3076.013 11670.430 8370.498 7531.149 4158.224 1698.534 2843.903 7174.709 1743.160 8082.466 1361.220 2821.229 2457.253 7454.201 6902.806 5148.048
3262.723 4094.761 2927.523 9105.403 2653.844 12158.664 1961.020 2708.795 2923.219 1214.721 3001.398 1817.267 2835.738 171.533 3523.452 14334.158 2512.854 2892.407 12871.987 3719.435 3095.487 1931.469 1403.794 8535.317 1087.916 2667.486 7060.528 2967.760 2856.278 5968.368 2709.864 1091.290 2701.242 2825.839 5796.857 13486.344 2893.590 3060.337 10046.138 4579.115 2893.578 2092.205 5410.716 5859.528 3229.644 8647.899 2905.850 7314.235 9946.123 4588.695 7503.452 7842.971 2641.627 9997.336 2741.243 2796.225 2665.259 2877.743 1354.010 2241.580 2631.905 5571.487 7700.280 7366.586 8839.475 2947.768 7660.733 3758.793 2840.563 3049.783 3466.419 2591.475 5253.940 866.051 2917.636 7095.421 2741.946 2895.972 830.463 2824.399 3830.809 2633.279 5485.312 2737.020 4071.014 2651.699 8087.957 2541.079 2924.894 5019.773 2167.875 3550.745 11781.182 9524.189 9539.155 2890.168 184.667 2760.779 5092.467 3690.256 2781.864 11759.704 7114.253 4336.171 2845.122 2627.881 3589.546 9321.560 4839.368 2710.889 939.707 10791.440 9779.309 5213.254 3375.095 3048.957 4948.191 5750.824 2203.446 4731.078 6518.152 5173.344 3188.081 6895.601 3663.851 2210.788 6335.831 3723.685 2330.581 2779.792 2264.719 7045.604 2572.881 6333.564 1236.125 4964.193 4209.014 7001.172 7919.875 1503.208 0.000 2437.266 445.956 3066.355 4634.307 8598.732 3978.608 1977.410 2892.422 9184.142 3061.871 7263.035 7931.520 2963.369 7361.954 3128.996 7334.872 6755.003 1260.729 3258.360 3112.685 7221.755 1216.557 7703.078 151.896 2998.002 2984.989 1644.661 3104.311 12878.108 8953.937 6028.290 5075.281 2035.265 3057.811 7954.868 1908.691 6642.800 889.019 2894.010 2904.266 8844.624 8366.116 4100.288
2576.446 2030.575 1129.518 10971.461 878.664 13442.120 1101.667 480.433 1263.129 1272.955 1108.331 816.731 1122.783 2337.299 1522.799 12231.334 656.561 942.521 14272.270 1891.566 1835.791 577.594 1298.254 6400.386 1870.040 821.459 5106.823 693.065 1009.832 7800.515 808.267 3358.660 903.876 573.520 4438.493 11442.286 876.669 982.277 12391.036 6434.445 457.068 1567.823 7224.693 7669.073 3486.130 6886.193 483.170 9185.302 8525.870 3737.485 5617.449 5926.530 2671.835 12285.428 506.631 656.602 708.441 797.299 1363.328 3819.059 1554.870 7313.204 9725.948 5543.594 6967.539 1302.606 9695.823 2794.143 905.503 1240.318 1061.245 184.336 3633.658 3277.695 1194.355 5117.633 504.565 934.294 3266.785 771.920 2105.151 1132.207 7311.996 1033.427 2151.146 1138.945 6338.260 1116.315 1278.585 3158.211 455.121 5889.702 13365.209 8326.711 7333.788 1104.110 2383.949 885.091 6089.200 3072.199 739.054 10419.443 5135.377 5168.599 464.097 3276.044 2778.831 6905.291 2753.647 1129.453 3363.488 13220.542 12067.094 3263.861 1588.500 1205.662 3087.545 5433.925 450.519 3800.281 4640.347 4062.573 815.895 6101.398 1554.560 2557.845 3976.782 1591.661 2356.991 1173.634 1610.136 5075.276 522.756 4879.701 2758.258 3104.386 2087.525 5241.337 6111.767 2774.518 2437.266 0.000 2049.174 653.864 2511.877 6462.783 4588.129 3684.731 1037.780 8590.239 782.958 5311.070 9959.883 647.893 5409.884 2010.390 5487.103 5901.001 1380.266 826.133 719.447 9089.599 1412.038 5897.852 2524.923 598.090 606.218 1058.831 856.019 14272.969 6787.000 6708.178 3599.312 1261.955 1078.676 6030.600 1105.445 6474.902 3234.682 791.558 1382.060 9818.188 9036.338 2769.009
2862.775 3651.041 2483.455 9256.124 2212.520 12168.346 1515.090 2288.735 2477.465 910.101 2558.807 1384.820 2390.937 301.084 3080.138 13888.270 2078.082 2452.839 12910.144 3273.480 2656.723 1518.233 958.360 8089.711 686.166 2228.152 6615.457 2545.449 2413.996 6096.853 2271.670 1530.406 2259.756 2404.537 5376.008 13041.128 2456.637 2623.670 10486.603 4993.515 2506.005 1660.208 5823.526 5980.547 2947.658 8210.556 2506.060 7737.701 9532.910 4198.421 7060.224 7399.148 2298.566 10442.043 2320.710 2367.638 2230.393 2444.070 908.077 2581.814 2192.039 5976.247 7896.641 6925.263 8397.682 2501.889 7860.097 3346.830 2401.245 2605.100 3056.551 2212.555 5076.002 1307.004 2472.478 6649.997 2321.610 2456.780 1251.808 2390.361 3385.595 2187.481 5899.842 2292.886 3625.159 2205.903 7650.530 2095.207 2479.062 4574.632 1748.190 3994.775 11861.813 9129.602 9094.939 2446.175 339.296 2320.717 4997.844 3307.070 2348.251 11356.098 6668.820 4193.570 2437.363 2390.936 3186.582 8904.776 4394.737 2265.327 1374.784 11207.214 10224.057 4767.379 2929.215 2604.867 4502.983 5435.483 1782.563 4335.321 6074.286 4766.732 2773.988 6893.542 3223.371 1889.568 5906.974 3283.849 1968.535 2334.132 1832.985 6600.264 2145.828 6200.660 1119.121 4519.015 3766.743 6561.796 7479.715 1331.577 445.956 2049.174 0.000 2691.885 4191.004 8153.129 3782.990 2334.824 2449.943 8855.395 2638.369 6818.095 8129.375 2545.117 6917.061 2696.647 6892.668 6740.491 815.754 2875.051 2744.565 7644.752 771.585 7262.796 488.282 2591.296 2574.585 1202.779 2677.529 12915.005 8508.805 6276.820 4643.674 1590.944 2617.211 7510.910 1462.792 6751.524 1190.372 2461.192 2458.486 8775.559 8233.606 3953.511
2928.652 1853.548 1339.793 11595.253 1210.511 13977.074 1683.200 725.890 1504.417 1871.567 1265.925 1456.300 1384.550 2974.951 1479.652 11830.224 1065.624 1130.581 14824.784 1889.789 2112.292 1228.759 1946.909 6015.442 2519.956 1140.307 4834.968 702.996 1238.036 8427.511 1098.406 3940.788 1210.508 706.445 4443.352 11070.481 1045.851 1049.161 12950.148 6868.366 238.765 2108.478 7638.114 8294.250 3972.632 6670.314 364.007 9597.416 8420.696 3948.971 5367.658 5656.993 3173.045 12820.886 720.400 850.304 1019.027 956.019 2012.505 4257.557 1954.748 7706.578 10366.949 5324.140 6703.150 1539.165 10337.622 3042.028 1122.007 1404.681 642.519 480.097 3192.783 3891.524 1424.577 4833.510 716.994 1117.582 3892.079 969.704 2126.959 1494.980 7727.814 1335.410 2055.687 1494.090 6135.897 1517.301 1522.084 3006.252 1068.797 6462.294 13948.126 8300.434 6902.531 1331.176 3023.402 1152.185 6622.729 3396.357 964.811 10324.567 4850.334 5692.637 493.125 3832.873 3075.218 6327.136 2495.147 1456.223 3980.917 13828.818 12602.783 3057.871 1670.594 1360.610 2940.603 5721.040 1051.372 3983.573 4417.337 4172.978 574.585 5841.484 1418.449 3117.865 3471.130 1428.648 2886.552 1472.508 2114.119 4795.810 896.299 4453.801 3405.867 2956.793 1860.579 5056.891 5888.120 3410.495 3066.355 653.864 2691.885 0.000 2245.037 6076.649 5091.064 4154.817 1248.920 8743.772 728.364 5035.799 10600.857 628.501 5132.611 2306.848 5257.571 5628.594 2033.157 218.349 89.472 9501.437 2065.464 5679.322 3161.197 436.217 495.068 1699.539 802.584 14824.593 6381.078 6837.915 3599.113 1818.525 1186.221 5755.697 1697.972 6382.526 3880.647 933.628 1654.910 10313.737 9481.074 2490.207
2458.007 541.024 1708.216 11799.385 1982.877 13466.981 2688.284 2063.646 1733.819 3671.301 1633.312 2835.382 1803.747 4489.472 1110.883 9749.835 2148.700 1752.345 14408.479 1007.708 1846.341 2792.881 3234.602 3922.488 3687.233 1975.894 2602.412 1821.080 1778.789 8752.525 1939.086 5682.856 1935.215 1952.041 2489.275 8942.210 1766.098 1606.436 14675.336 8927.236 2210.437 2736.337 9725.893 8604.120 3760.088 4425.278 2086.873 11684.875 6218.337 2658.815 3126.613 3424.446 3223.486 14630.471 2031.714 1918.991 2000.367 1804.087 3288.985 6318.060 2189.991 9820.832 10820.765 3079.169 4469.241 1716.630 10805.140 2144.084 1804.787 1589.644 1603.946 2472.136 4846.120 5497.983 1725.979 2608.765 2032.681 1750.709 5431.299 1852.389 1043.020 2020.197 9812.080 1898.760 670.352 2002.004 3892.097 2113.973 1735.901 868.239 2549.935 8185.026 13750.631 6182.512 4906.223 1745.303 4518.469 1880.537 6341.432 2653.324 1895.966 8123.956 2626.278 5433.695 2056.574 4008.511 2339.545 4968.420 250.156 1937.291 5563.424 15304.623 14412.342 833.430 1304.858 1586.988 822.919 4452.685 2511.545 2592.531 2172.603 2523.213 1734.330 7750.008 986.737 3471.615 1919.763 935.799 3156.481 1871.631 2598.930 2567.808 2136.134 6048.000 4378.580 835.078 432.583 2820.724 3643.161 4229.909 4634.307 2511.877 4191.004 2245.037 0.000 3985.609 4785.334 6166.891 1742.369 6951.351 1729.179 2805.554 11049.010 1864.163 2903.734 1965.184 3012.739 7520.435 3375.776 2058.598 2289.487 11589.382 3419.881 3434.313 4670.636 1953.601 1925.478 2989.824 1658.483 14402.726 4329.124 9081.318 1730.639 2656.685 1583.558 3526.243 2738.641 8507.001 5235.164 1795.110 1794.112 9665.525 8618.709 4513.413
5869.367 4516.144 5675.910 14563.222 5961.422 15184.638 6638.786 6036.616 5675.783 7655.450 5610.191 6816.981 5764.575 8447.803 5087.137 5769.048 6133.920 5736.151 16226.512 4883.728 5603.781 6778.109 7194.940 63.431 7603.009 5958.451 1723.157 5785.052 5755.883 11808.449 5923.269 9660.647 5913.692 5921.696 3787.303 4994.287 5751.678 5591.756 18610.521 12896.862 6105.085 6599.933 13686.551 11655.002 6968.818 1983.702 6005.658 15647.427 4048.390 5147.996 1604.305 1332.578 6743.702 18592.765 6003.991 5900.059 5985.946 5788.716 7245.464 10281.841 6034.407 13769.196 13894.926 1879.624 1516.948 5652.009 13893.576 5360.908 5788.578 5551.236 5454.994 6396.074 7690.586 9456.440 5681.685 1646.495 6004.644 5734.990 9376.674 5837.567 4797.674 5965.851 13774.222 5865.602 4529.066 5947.425 1974.197 6058.456 5674.483 3634.585 6534.702 12144.969 15917.694 4679.014 1034.335 5713.497 8472.746 5862.645 8995.745 5766.565 5881.177 5649.255 1628.596 8255.926 5999.211 7450.501 5598.751 2911.784 3766.048 5887.844 9516.148 19116.377 18374.984 3406.935 5224.923 5554.737 3701.640 6151.836 6496.328 4974.641 2303.729 4511.629 5654.016 10607.566 4972.174 7110.433 2823.446 4919.692 6810.316 5818.999 6441.224 1702.495 6119.617 8610.657 8189.498 3687.219 4417.960 2253.378 1748.222 7990.752 8598.732 6462.783 8153.129 6076.649 3985.609 0.000 7681.185 10141.892 5718.954 6652.020 5690.051 1568.703 14107.844 5819.247 1495.263 5642.948 1816.901 10367.015 7338.161 5863.927 6095.452 15551.666 7382.318 1811.321 8624.326 5876.688 5859.481 6960.070 5625.237 16212.494 398.285 12726.732 3982.088 6580.885 5566.850 1257.808 6690.790 11746.033 9136.112 5778.914 5703.604 11431.558 10148.533 7849.513
2372.721 4426.331 3859.202 7048.136 3894.545 8896.867 3500.862 4366.352 3699.544 4351.410 3965.011 3871.929 3778.763 3839.677 4152.158 12821.239 4025.986 4039.933 9771.466 3923.266 3175.727 4126.126 3576.275 7624.361 3237.601 3964.221 5962.134 4458.015 3925.320 4133.440 4012.356 4764.576 3904.026 4403.653 3926.349 11855.231 4118.501 4198.438 11989.974 8084.936 4855.580 3021.490 8891.257 3980.165 1123.520 6815.410 4732.287 10602.461 7324.330 2537.088 6148.737 6488.154 1920.213 12199.846 4374.692 4264.421 4079.854 4194.283 3539.463 6155.543 3159.520 9113.543 6224.948 5903.930 7214.643 3677.170 6220.704 2646.980 4027.864 3859.749 4936.960 4754.941 8221.175 4330.295 3773.924 6045.529 4378.018 4053.439 4138.607 4163.007 3785.336 3615.451 8946.531 3793.815 4159.136 3619.981 6324.793 3579.847 3683.187 4440.035 4141.942 6293.519 9002.734 6606.818 8715.184 3851.052 3802.147 3974.221 1575.913 2138.978 4154.924 8874.505 6062.483 648.983 4602.958 1413.287 2445.888 9572.628 4810.320 3670.563 4297.110 11967.470 11995.493 4719.369 3825.067 3901.371 4402.961 2301.186 4140.321 2707.509 5393.460 3175.831 4707.449 10506.295 4363.058 2080.313 6642.974 4421.549 2233.853 3674.865 2984.767 5989.948 4195.490 9461.739 2745.736 4409.134 4584.172 5493.836 6310.260 2476.598 3978.608 4588.129 3782.990 5091.064 4785.334 7681.185 0.000 5870.770 3929.601 5593.637 4485.866 6112.924 6442.272 4520.895 6189.848 2988.274 5932.967 10329.217 3611.003 5130.649 5179.645 10519.504 3616.551 6130.169 3856.634 4701.325 4645.400 3682.960 4447.083 9769.399 8079.470 10003.194 3756.831 3329.435 4070.606 6596.840 3508.554 10516.085 3640.571 4220.955 3544.250 5230.185 4505.612 7288.213
5192.394 5652.950 4541.506 10015.360 4240.131 13520.651 3689.144 4106.079 4587.315 2509.040 4585.111 3400.540 4470.855 2143.871 5094.839 15910.848 4040.770 4441.249 14138.259 5377.882 4898.647 3387.240 3155.785 10079.225 3020.975 4228.713 8722.299 4356.853 4443.367 7055.438 4255.541 1144.055 4286.580 4220.420 7667.492 15108.954 4413.264 4565.948 8893.964 2762.327 4074.661 3951.672 3571.972 6977.472 5197.360 10415.270 4154.782 5524.244 11834.902 6531.266 9204.897 9530.621 4616.385 8707.049 4138.547 4248.036 4181.399 4366.507 3128.910 292.161 4436.669 3692.652 8455.344 9097.722 10556.098 4619.702 8403.842 5663.213 4389.805 4671.530 4725.584 3769.029 5123.608 1582.715 4558.501 8743.531 4137.819 4440.156 1778.953 4320.530 5534.641 4313.306 3655.393 4362.520 5703.119 4330.709 9856.867 4230.841 4593.986 6703.433 3624.957 2603.586 12913.655 11457.619 11018.348 4504.573 2161.691 4324.126 6809.648 5641.811 4277.383 13673.566 8761.849 6151.435 4148.716 4575.161 5513.291 10430.551 6398.889 4375.592 1644.818 10018.452 8489.899 6857.305 5030.925 4657.303 6630.818 7726.258 3663.187 6665.372 8215.346 7086.311 4499.636 5877.958 5183.261 4188.124 7624.962 5231.474 4297.435 4445.476 4121.860 8697.735 4033.157 5914.531 3146.677 6647.534 5735.122 8756.999 9662.000 3434.668 1977.410 3684.731 2334.824 4154.817 6166.891 10141.892 5870.770 0.000 4480.426 11161.240 4451.962 8927.228 8672.924 4323.781 9026.754 4969.767 9054.041 5795.005 3019.377 4372.944 4161.597 5429.163 2980.263 9444.968 2065.038 4278.997 4290.797 3323.576 4516.767 14148.435 10470.327 4183.910 6901.443 3815.251 4609.658 9638.912 3637.222 5209.781 2275.314 4373.766 4612.676 10451.555 10115.240 3955.265
1685.814 1204.383 94.613 10656.257 243.013 12825.879 964.547 584.814 255.500 1971.420 109.065 1099.213 151.037 2749.241 632.426 11473.338 448.701 118.515 13697.901 906.202 863.493 1097.143 1496.268 5655.642 1980.747 254.145 4243.077 552.455 37.212 7518.294 240.485 3942.530 195.468 552.633 3408.451 10647.871 203.295 277.188 12936.229 7241.537 1044.378 1150.863 8051.836 7377.605 2806.354 5954.843 891.849 10004.280 7521.955 2730.174 4725.430 5050.196 2046.023 12888.102 571.729 415.084 335.918 293.054 1552.799 4653.267 776.287 8162.990 9526.591 4625.382 6077.403 290.820 9503.293 1803.801 135.667 206.683 1011.926 1111.332 4439.145 3756.864 175.789 4266.636 574.938 131.770 3694.365 287.770 1094.106 360.247 8135.697 179.884 1222.723 347.518 5399.872 439.324 273.164 2226.547 870.991 6442.954 12879.336 7297.482 6648.440 82.761 2779.648 163.214 5489.491 2147.612 307.882 9408.772 4285.092 4552.778 770.729 2780.923 1826.877 6548.374 1953.115 280.776 3823.774 13605.523 12669.974 2377.735 571.100 180.675 2154.051 4477.832 834.425 2781.060 3736.593 3026.538 780.622 7062.484 778.480 2103.348 3505.057 841.925 1821.028 257.238 1074.105 4219.975 521.332 5700.743 2752.741 2170.865 1316.800 4298.247 5191.989 2658.349 2892.422 1037.780 2449.943 1248.920 1742.369 5718.954 3929.601 4480.426 0.000 7567.416 561.299 4447.909 9759.186 624.360 4547.454 1058.075 4578.138 6854.219 1635.926 1231.553 1336.950 9909.300 1679.901 4975.599 2931.781 817.333 757.976 1247.762 517.548 13696.318 6068.137 7729.267 2574.187 973.696 185.812 5158.534 1011.892 7502.472 3522.671 315.403 407.986 9123.860 8255.964 3709.629
6140.906 7056.903 7473.086 10078.630 7712.114 9197.052 7840.491 8152.064 7329.286 9057.030 7517.398 8244.213 7468.690 9019.112 7276.688 9476.950 7939.514 7675.727 10278.372 6866.607 6761.929 8419.216 8229.489 6632.181 8181.857 7768.880 5665.188 8060.411 7590.881 8393.289 7784.898 10146.988 7686.439 8107.003 4464.080 8477.203 7754.096 7707.920 17378.403 13598.073 8580.568 7419.299 14418.720 8265.284 5982.472 4729.822 8423.022 16178.611 3398.590 4860.197 5321.554 5429.906 6556.881 17663.077 8137.553 7978.788 7884.408 7844.209 8228.628 11424.304 7119.881 14624.134 10123.540 5083.514 5268.513 7290.042 10153.712 5810.158 7703.032 7377.552 8229.589 8678.477 11756.733 9739.821 7401.207 5761.542 8140.661 7686.509 9562.082 7851.883 6627.082 7475.228 14479.587 7556.934 6780.476 7465.551 4685.549 7512.111 7313.343 6094.222 8286.922 11885.315 10382.837 2372.155 7398.681 7494.234 8999.692 7710.004 5699.475 5640.778 7875.210 3988.988 5763.797 5671.697 8316.984 6637.877 5868.871 9518.861 6764.929 7465.625 9728.639 17035.963 17465.653 6222.864 7075.786 7418.045 6131.623 3441.294 8262.256 4789.975 5497.664 4573.503 8176.163 14572.774 7382.531 6974.805 7807.861 7395.168 6893.396 7417.628 7275.515 5736.764 8068.168 12983.828 8060.295 6120.721 7132.073 4932.952 4948.203 7765.500 9184.142 8590.239 8855.395 8743.772 6951.351 6652.020 5593.637 11161.240 7567.416 0.000 8019.153 5630.582 10271.162 8134.437 5620.348 6601.954 5188.227 14353.861 8333.916 8644.160 8822.236 16094.030 8361.532 4958.777 9098.798 8316.696 8261.029 8179.888 7942.538 10256.903 6937.925 15065.204 5245.676 7663.019 7578.216 5463.590 7879.519 15065.016 9088.932 7859.786 7208.638 5893.286 4565.443 11231.448
2241.886 1252.547 642.521 11159.613 618.780 13382.721 1302.884 357.131 809.310 1985.278 552.918 1258.912 710.108 2938.288 783.927 11459.088 604.536 446.929 14250.759 1184.710 1408.520 1135.548 1739.896 5627.431 2287.699 556.447 4324.387 96.459 561.668 8009.504 501.594 4052.272 596.693 238.715 3751.082 10664.141 367.382 324.062 13086.799 7207.709 569.203 1618.757 8001.830 7871.049 3362.347 6111.847 414.311 9961.876 7787.077 3221.259 4837.051 5144.513 2590.719 13003.366 323.992 287.924 474.008 297.086 1804.207 4594.541 1326.874 8093.375 9997.180 4767.524 6186.267 839.907 9971.820 2320.530 458.632 686.749 488.191 762.015 3895.258 3923.799 729.861 4334.760 323.830 433.338 3887.804 338.786 1416.905 878.171 8088.637 694.029 1398.146 871.261 5566.325 930.604 826.874 2392.914 894.651 6580.938 13419.601 7626.349 6574.430 642.972 2977.350 519.908 6041.472 2693.112 362.146 9686.161 4352.488 5105.443 340.312 3306.431 2365.263 6267.912 1970.694 816.450 4001.326 13845.215 12784.991 2486.482 943.647 641.918 2323.418 5000.374 858.600 3255.230 3862.703 3451.294 221.899 6569.796 779.397 2611.665 3276.122 811.822 2344.766 811.726 1576.167 4292.517 495.677 5156.982 3126.176 2340.142 1304.713 4472.427 5335.437 3071.207 3061.871 782.958 2638.369 728.364 1729.179 5690.051 4485.866 4451.962 561.299 8019.153 0.000 4528.534 10230.437 138.285 4627.287 1606.501 4709.302 6356.942 1862.376 676.701 811.312 9866.257 1903.276 5122.265 3126.463 297.833 244.177 1473.162 80.827 14249.430 6019.397 7443.724 2906.096 1378.631 463.378 5248.283 1337.247 7085.481 3782.623 269.838 965.715 9684.715 8815.661 3217.974
4366.627 3285.974 4390.366 13007.746 4689.423 13770.807 5309.576 4851.222 4360.960 6418.448 4342.493 5539.469 4467.272 7104.435 3833.847 7088.141 4886.564 4486.367 14798.699 3560.848 4194.971 5540.171 5868.893 1512.718 6226.248 4698.748 204.972 4618.123 4485.057 10239.752 4671.746 8344.689 4642.539 4743.912 2225.582 6223.913 4517.254 4369.756 17201.709 11689.042 5014.569 5207.061 12497.211 10086.305 5419.882 1708.511 4892.423 14451.465 3762.799 3581.430 391.890 621.487 5240.452 17218.009 4820.344 4695.327 4747.350 4569.505 5913.549 9093.327 4646.165 12602.452 12326.422 554.142 1667.541 4332.132 12324.961 3845.290 4537.639 4260.997 4393.595 5277.255 7193.368 8105.020 4380.606 212.254 4821.630 4487.755 8009.453 4612.961 3432.732 4646.323 12581.697 4573.889 3225.659 4628.149 1263.949 4735.408 4356.661 2243.743 5304.167 10781.716 14431.184 4060.023 2602.310 4427.696 7123.758 4603.207 7433.650 4226.881 4655.518 5614.362 199.448 6687.493 4860.104 5923.559 4080.889 4004.282 2559.549 4575.395 8156.653 17630.755 17001.111 2070.181 3909.396 4272.671 2315.643 4638.072 5266.124 3407.174 769.518 2943.121 4539.658 10156.321 3761.797 5626.680 2434.725 3720.675 5335.789 4505.147 5041.138 240.973 4902.301 8260.617 6746.079 2299.484 3223.933 766.305 954.745 6530.351 7263.035 5311.070 6818.095 5035.799 2805.554 1568.703 6112.924 8927.228 4447.909 5630.582 4528.534 0.000 12539.564 4665.087 99.546 4207.271 446.610 9918.034 6013.044 4838.754 5072.705 14356.390 6056.688 801.597 7273.188 4759.154 4730.583 5652.993 4455.124 14786.130 1966.908 11849.384 2438.531 5227.920 4318.463 720.764 5362.503 11112.040 7731.941 4564.760 4362.552 9985.376 8731.636 7122.215
8599.362 10605.159 9722.667 1515.426 9619.635 5960.578 8951.278 9974.096 9598.853 9035.320 9834.957 9145.690 9620.018 7930.451 10192.619 18987.965 9642.458 9839.928 6160.244 10084.249 9246.771 9383.902 8663.527 14052.263 8096.764 9676.961 12395.264 10165.858 9739.266 2312.914 9732.423 7759.536 9649.774 10058.797 10327.111 17992.881 9896.854 10031.422 8630.713 9004.162 10372.736 8617.545 9460.135 2465.313 7316.864 13064.787 10307.209 10202.909 13073.386 8977.172 12548.977 12878.942 7839.297 9234.407 9996.397 9950.913 9758.038 9942.670 8599.358 8914.562 9029.137 9761.298 233.935 12293.350 13515.416 9592.323 271.760 8995.181 9806.749 9777.229 10718.523 10143.576 13185.103 7462.353 9653.565 12480.856 9998.932 9851.359 7329.645 9894.964 10007.310 9399.270 9450.991 9585.168 10384.823 9411.671 12623.161 9326.400 9586.913 10835.815 9532.647 6847.155 4654.203 12154.097 15139.804 9699.570 7872.084 9729.762 5158.886 8508.684 9868.488 14207.097 12497.504 5852.188 10195.984 7052.911 8768.992 15962.844 11121.127 9479.010 7358.880 7425.251 9100.747 11114.483 9883.204 9808.377 10791.773 8187.166 9551.854 9144.711 11831.718 9596.494 10436.901 14536.411 10405.151 7668.745 12961.544 10471.544 7970.320 9514.656 8685.330 12425.542 9790.038 14248.098 7206.652 10799.772 10764.813 11889.272 12652.731 7191.206 7931.520 9959.883 8129.375 10600.857 11049.010 14107.844 6442.272 8672.924 9759.186 10271.162 10230.437 12539.564 0.000 10204.868 12612.986 9099.908 12331.818 14438.771 8595.067 10729.141 10674.780 10164.399 8569.104 12488.830 7787.134 10336.976 10295.386 8902.536 10224.734 6182.514 14505.749 12299.983 10197.930 8853.945 9937.994 12983.985 8926.668 13820.959 7051.626 9969.091 9468.697 5152.536 6072.829 12028.769
2309.589 1390.655 713.329 11149.343 629.063 13416.688 1259.328 257.468 879.217 1867.523 637.452 1175.418 765.643 2843.848 917.650 11588.246 562.473 505.901 14278.388 1314.406 1485.991 1032.311 1665.276 5756.716 2222.359 560.898 4461.031 74.876 616.886 7993.955 510.080 3941.529 616.921 149.312 3881.241 10795.863 421.266 426.819 12977.738 7077.734 446.400 1608.837 7870.348 7856.667 3398.002 6250.031 288.965 9830.666 7923.683 3324.452 4974.535 5281.410 2615.025 12889.047 226.844 262.161 456.558 334.501 1730.498 4463.595 1363.423 7960.435 9971.393 4905.619 6323.468 912.966 9945.151 2413.711 503.607 776.495 529.611 623.874 3815.019 3822.595 799.145 4470.870 225.470 492.590 3791.457 358.819 1544.223 905.450 7957.367 730.486 1535.024 901.212 5704.591 945.715 896.924 2531.044 796.941 6471.952 13433.796 7758.978 6698.825 707.077 2884.407 547.684 6069.483 2771.141 366.458 9822.347 4488.560 5134.820 202.674 3314.661 2447.938 6359.877 2106.600 853.865 3901.845 13751.881 12670.670 2624.536 1059.765 732.631 2461.488 5092.550 762.721 3363.246 4000.674 3570.152 238.707 6463.250 917.681 2612.102 3382.215 949.807 2354.971 860.202 1580.898 4428.829 425.402 5076.695 3074.050 2478.219 1441.154 4610.707 5473.504 3031.412 2963.369 647.893 2545.117 628.501 1864.163 5819.247 4520.895 4323.781 624.360 8134.437 138.285 4665.087 10204.868 0.000 4763.779 1681.798 4847.236 6251.975 1782.546 613.012 715.231 9735.009 1822.350 5260.389 3032.405 193.349 133.966 1398.762 217.295 14277.409 6146.620 7306.719 3036.529 1351.839 560.514 5384.995 1289.461 6960.897 3699.933 309.976 1032.200 9730.141 8875.412 3109.898
4459.202 3385.156 4489.904 13073.142 4788.969 13807.970 5408.766 4950.327 4460.381 6517.982 4442.034 5638.990 4566.775 7203.248 3933.313 6990.824 4986.081 4585.872 14838.012 3660.305 4292.811 5639.687 5968.060 1440.682 6324.509 4798.286 304.464 4716.969 4584.602 10314.649 4771.266 8443.796 4742.085 4842.916 2293.037 6125.248 4616.695 4469.102 17298.316 11788.578 5112.361 5305.095 12596.710 10161.202 5505.552 1626.075 4990.566 14550.993 3696.492 3660.770 331.913 526.209 5332.679 17315.673 4919.426 4794.586 4846.829 4668.858 6012.642 9192.767 4744.443 12701.857 12400.364 536.866 1571.403 4431.520 12399.277 3936.777 4637.150 4360.529 4490.512 5375.604 7273.996 8203.610 4480.099 302.061 4920.705 4587.251 8107.729 4712.355 3531.788 4745.679 12681.206 4673.405 3325.203 4727.509 1197.547 4834.725 4456.061 2342.851 5403.648 10879.891 14479.983 4014.510 2526.999 4527.232 7222.476 4702.742 7501.885 4314.786 4754.923 5540.834 286.905 6761.339 4958.639 6012.941 4172.006 3985.362 2657.993 4674.811 8255.082 17723.295 17098.803 2169.725 4008.857 4372.215 2414.790 4690.429 5365.600 3485.664 863.607 3017.451 4637.689 10236.758 3860.917 5720.421 2497.362 3819.654 5430.248 4604.560 5139.008 336.801 5001.680 8335.837 6841.973 2398.613 3322.637 800.082 884.200 6625.400 7361.954 5409.884 6917.061 5132.611 2903.734 1495.263 6189.848 9026.754 4547.454 5620.348 4627.287 99.546 12612.986 4763.779 0.000 4304.146 433.425 9998.282 6112.209 4935.114 5169.134 14455.917 6155.842 745.684 7371.854 4857.322 4828.924 5752.359 4553.967 14825.230 1892.857 11944.168 2526.811 5326.797 4417.952 623.181 5461.697 11199.545 7829.246 4664.075 4461.732 10026.755 8768.193 7211.344
643.957 1505.656 968.565 9896.897 1139.006 11855.849 1309.039 1617.578 802.701 2562.287 1053.787 1680.713 925.086 2961.919 1164.049 11294.627 1353.830 1176.545 12749.723 984.644 199.165 1827.103 1814.808 5580.019 2053.059 1203.384 4010.379 1608.978 1069.256 6813.556 1231.737 4220.099 1122.982 1605.682 2698.112 10417.916 1261.334 1287.890 12994.683 7682.361 2097.975 1036.931 8509.813 6666.944 1887.535 5522.403 1947.979 10432.534 6866.531 1741.839 4414.302 4760.780 1261.982 13015.099 1611.496 1463.527 1326.271 1350.831 1840.981 5184.541 545.948 8651.979 8870.460 4259.398 5732.863 768.967 8853.211 791.797 1185.831 924.793 2001.778 2122.766 5496.794 3937.324 882.719 4058.090 1614.891 1189.674 3826.415 1339.483 927.322 879.566 8587.913 991.045 1294.953 871.851 4962.861 910.479 785.005 2009.380 1684.977 6590.377 11987.509 6531.915 6636.472 975.689 2972.506 1165.937 4563.790 1089.539 1349.928 8716.669 4077.073 3630.091 1824.087 2048.787 773.642 6930.859 2074.933 883.392 3979.940 13480.209 12798.553 2251.530 836.894 969.563 1943.842 3431.577 1660.433 1824.337 3444.323 2162.686 1816.298 8099.340 1375.882 1519.015 3884.710 1435.709 1204.809 848.386 864.299 4005.195 1498.954 6758.490 2547.191 1957.716 1665.605 3883.418 4804.539 2351.098 3128.996 2010.390 2696.647 2306.848 1965.184 5642.948 2988.274 4969.767 1058.075 6601.954 1606.501 4207.271 9099.908 1681.798 4304.146 0.000 4235.106 7894.416 1950.396 2282.964 2394.994 10339.316 1989.750 4588.686 3116.334 1875.038 1815.645 1676.342 1549.119 12746.832 6020.851 8540.260 1947.030 1160.458 1149.243 4874.335 1357.097 8470.646 3526.701 1373.478 652.849 8121.273 7219.041 4751.194
4328.642 3457.066 4513.691 12756.196 4816.136 13410.796 5398.320 5017.612 4468.448 6547.178 4475.879 5654.660 4583.199 7172.576 3982.479 7087.094 5023.513 4626.938 14444.935 3676.426 4243.804 5675.231 5954.841 1768.866 6278.740 4831.672 541.136 4795.411 4614.916 10042.161 4809.118 8422.954 4770.256 4914.926 2008.260 6189.802 4664.984 4525.424 17207.537 11811.232 5218.214 5256.426 12625.928 9888.818 5307.426 1414.107 5088.590 14574.047 3376.350 3426.927 217.271 559.217 5194.738 17245.672 4987.868 4854.833 4890.203 4723.840 5995.765 9231.250 4704.254 12740.647 12121.883 107.962 1505.801 4437.095 12122.690 3797.194 4676.969 4383.559 4615.830 5467.084 7541.628 8163.852 4495.579 614.994 4989.418 4629.577 8059.017 4764.190 3524.528 4747.541 12708.862 4691.527 3359.619 4729.726 902.675 4833.563 4462.483 2351.664 5444.972 10825.440 14108.843 3627.936 2827.486 4550.388 7188.452 4737.427 7200.124 4139.251 4805.718 5249.854 610.888 6487.006 5046.190 5844.523 4027.213 4411.096 2762.780 4681.509 8210.403 17576.615 17029.508 2223.261 4023.116 4399.471 2424.209 4335.045 5407.456 3247.740 846.755 2759.298 4739.709 10503.631 3932.591 5598.952 2848.282 3897.481 5318.930 4611.330 5086.968 611.259 5053.547 8630.882 6747.775 2407.422 3413.512 442.874 630.880 6519.011 7334.872 5487.103 6892.668 5257.571 3012.739 1816.901 5932.967 9054.041 4578.138 5188.227 4709.302 446.610 12331.818 4847.236 433.425 4235.106 0.000 10266.339 6098.466 5068.278 5300.460 14479.411 6141.503 428.677 7335.846 4955.179 4922.382 5751.347 4633.168 14431.721 2205.587 12091.120 2369.988 5303.141 4462.001 671.616 5451.309 11419.050 7758.388 4721.531 4454.538 9638.880 8370.853 7420.750
8477.232 7319.564 6948.189 15733.274 6756.356 18905.273 6890.925 6278.565 7106.147 6003.214 6886.056 6491.539 6974.460 6821.454 7079.202 15548.493 6550.722 6738.796 19626.972 7488.294 7708.716 6251.359 6752.960 10319.722 7136.745 6691.164 9749.104 6326.844 6836.911 12665.558 6663.155 6687.878 6771.436 6301.880 9963.066 15029.572 6655.889 6676.833 13303.315 6820.784 5812.618 7378.058 7119.353 12567.711 9290.202 11624.124 5968.344 8570.707 13628.620 9576.424 10303.679 10500.625 8480.442 12833.705 6286.737 6439.846 6568.145 6564.456 6790.634 5581.896 7455.628 6961.445 14216.849 10357.791 11482.449 7143.496 14168.044 8658.004 6720.464 7026.339 6124.486 5774.159 2725.047 7019.621 7028.479 9706.815 6283.396 6726.682 7175.273 6566.686 7727.865 7026.616 7206.131 6903.409 7582.877 7031.516 11164.912 7016.721 7123.361 8384.319 6295.512 8128.889 18515.716 13689.718 10822.751 6933.585 6876.500 6731.027 11696.944 8970.447 6550.977 15515.325 9718.675 10836.490 6084.674 8927.721 8667.852 9005.241 7745.152 7012.609 7118.695 14985.879 12641.656 8335.495 7297.329 6983.197 8332.279 11325.992 6308.475 9611.951 9517.104 9781.320 6186.327 240.561 6971.936 8250.536 7599.202 6961.145 8133.150 7046.122 7462.228 9688.882 6397.772 1815.762 7856.811 8346.049 7263.752 10206.521 10867.557 8039.028 6755.003 5901.001 6740.491 5628.594 7520.435 10367.015 10329.217 5795.005 6854.219 14353.861 6356.942 9918.034 14438.771 6251.975 9998.282 7894.416 10266.339 0.000 6723.005 5713.362 5546.286 8491.356 6720.677 10689.483 6906.664 6062.948 6120.745 6658.254 6430.344 19633.111 10523.435 3998.095 9137.560 7074.704 6812.422 10571.295 6871.910 1869.008 7545.613 6545.276 7246.216 15483.881 14833.742 3144.620
2222.402 2835.579 1667.886 9639.010 1400.450 12294.756 703.654 1525.440 1663.219 757.832 1744.590 607.691 1575.193 1113.708 2265.025 13076.877 1280.364 1643.383 13085.111 2461.225 1885.243 804.862 144.165 7274.750 499.627 1419.662 5809.813 1773.171 1600.261 6465.441 1465.307 2332.066 1447.352 1636.400 4648.209 12234.019 1652.149 1819.223 11300.440 5740.845 1820.449 944.113 6565.842 6338.198 2619.563 7431.152 1789.796 8497.211 8816.095 3562.089 6262.216 6598.727 1852.883 11257.765 1555.704 1582.252 1431.408 1646.519 110.271 3236.773 1420.573 6703.630 8361.178 6134.095 7604.238 1688.483 8329.653 2659.978 1592.350 1789.346 2307.419 1560.558 4775.635 2122.370 1656.910 5842.443 1557.089 1647.991 2058.945 1592.301 2580.927 1373.574 6645.126 1477.301 2811.298 1391.976 6871.254 1281.945 1665.277 3769.406 999.795 4810.521 12114.830 8458.346 8279.213 1630.655 1143.755 1510.640 4992.818 2704.984 1551.375 10660.297 5861.219 4115.738 1702.564 2204.868 2529.681 8126.432 3578.984 1450.422 2187.988 11993.269 11039.770 3956.789 2115.679 1789.275 3697.420 4967.220 1029.149 3682.740 5274.218 4081.156 2018.393 6897.140 2411.541 1545.145 5111.090 2472.901 1494.505 1519.524 1109.666 5793.205 1366.748 5969.537 1388.566 3713.612 2952.478 5777.321 6692.057 1444.949 1260.729 1380.266 815.754 2033.157 3375.776 7338.161 3611.003 3019.377 1635.926 8333.916 1862.376 6013.044 8595.067 1782.546 6112.209 1950.396 6098.466 6723.005 0.000 2190.400 2099.593 8403.435 44.176 6474.877 1295.871 1856.097 1830.634 394.241 1893.762 13087.718 7693.234 6731.644 3887.015 801.618 1805.759 6709.923 650.828 6956.506 1920.417 1665.419 1650.509 8774.396 8116.382 3740.683
2916.631 1693.157 1316.678 11704.622 1236.109 14024.929 1786.398 780.327 1483.619 2072.732 1229.605 1598.922 1376.334 3161.961 1367.544 11615.219 1127.383 1114.042 14882.425 1778.113 2085.154 1386.849 2095.691 5802.861 2668.634 1166.513 4638.767 680.933 1227.085 8541.075 1118.426 4148.299 1227.646 727.896 4309.873 10858.080 1030.395 998.837 13163.007 7086.445 371.230 2184.783 7855.520 8406.156 4008.401 6481.939 424.036 9814.617 8253.330 3879.621 5174.558 5460.191 3220.176 13036.426 765.847 866.234 1052.851 946.441 2161.783 4475.869 1975.567 7923.064 10495.326 5136.637 6506.293 1515.299 10467.074 2991.662 1115.650 1362.831 457.975 667.276 3220.124 4090.410 1403.725 4635.269 762.729 1100.506 4086.287 971.642 2017.443 1516.380 7945.302 1343.421 1913.747 1512.847 5950.610 1551.420 1501.275 2840.154 1203.742 6672.440 14025.099 8151.662 6686.004 1314.166 3209.172 1160.290 6674.864 3369.801 976.560 10158.258 4651.921 5741.382 544.374 3904.429 3041.410 6115.748 2308.634 1466.738 4178.501 14030.889 12818.294 2879.242 1591.029 1317.921 2776.118 5670.588 1181.258 3904.860 4230.743 4070.667 478.382 5930.011 1280.322 3194.664 3252.804 1282.251 2949.295 1472.697 2173.713 4598.388 963.294 4481.622 3548.512 2792.046 1687.455 4876.709 5699.108 3538.612 3258.360 826.133 2875.051 218.349 2058.598 5863.927 5130.649 4372.944 1231.553 8644.160 676.701 4838.754 10729.141 613.012 4935.114 2282.964 5068.278 5713.362 2190.400 0.000 234.401 9718.633 2224.756 5491.514 3349.171 429.432 485.380 1840.611 738.805 14881.710 6166.469 7023.241 3468.146 1907.016 1138.540 5557.917 1806.650 6519.895 4060.766 921.072 1638.955 10342.706 9486.896 2589.567
3017.587 1911.479 1427.483 11673.952 1299.979 14064.870 1765.374 815.042 1592.419 1911.419 1352.327 1529.128 1473.251 3024.905 1553.209 11844.344 1153.893 1218.536 14911.681 1963.981 2200.137 1296.732 2016.691 6034.492 2589.093 1229.777 4872.575 789.448 1326.475 8505.401 1187.850 3971.836 1299.942 795.701 4512.368 11089.719 1133.768 1133.505 12972.178 6866.116 325.230 2194.362 7631.896 8372.537 4061.489 6713.899 453.463 9590.246 8476.559 4032.568 5407.751 5694.117 3261.331 12837.276 809.793 939.557 1108.458 1044.206 2082.012 4258.504 2044.201 7696.944 10440.857 5368.272 6740.245 1626.963 10411.223 3127.949 1210.602 1490.668 685.906 540.068 3103.873 3931.722 1512.514 4869.384 806.385 1205.482 3936.240 1058.559 2201.902 1584.449 7721.966 1424.710 2120.978 1583.561 6181.544 1606.582 1610.097 3062.175 1145.170 6489.159 14032.681 8364.392 6912.779 1419.308 3074.142 1241.414 6710.329 3484.531 1054.034 10381.001 4886.057 5780.562 582.595 3918.736 3162.788 6304.062 2539.620 1545.607 4022.233 13864.760 12619.253 3107.288 1751.460 1446.449 2997.264 5807.304 1129.174 4065.668 4462.025 4250.425 647.859 5759.879 1484.289 3203.242 3469.345 1491.624 2973.606 1561.621 2201.735 4832.390 984.471 4365.012 3476.493 3013.337 1912.508 5105.658 5931.233 3485.560 3112.685 719.447 2744.565 89.472 2289.487 6095.452 5179.645 4161.597 1336.950 8822.236 811.312 5072.705 10674.780 715.231 5169.134 2394.994 5300.460 5546.286 2099.593 234.401 0.000 9494.249 2131.012 5723.262 3210.361 522.277 581.442 1772.339 884.059 14911.543 6396.233 6791.834 3668.747 1902.990 1271.199 5791.988 1779.066 6313.553 3934.402 1021.570 1743.324 10402.732 9570.545 2410.063
10474.317 11079.969 9969.453 11678.670 9668.628 16020.291 9093.245 9525.886 10010.976 7938.083 10014.183 8824.882 9897.073 7392.088 10523.664 21318.894 9469.895 9870.296 16317.621 10804.784 10287.608 8816.327 8544.819 15489.398 8309.522 9657.814 14151.461 9772.281 9872.214 9708.564 9684.683 6140.309 9715.212 9638.444 13018.516 20530.277 9841.484 9992.820 5021.659 2668.246 9452.364 9304.321 1865.164 9715.615 10174.977 15831.014 9546.933 96.009 17163.613 11779.271 14632.508 14959.353 9773.504 4425.154 9557.958 9672.390 9610.088 9793.140 8510.143 5271.792 9822.081 1811.390 10027.172 14521.136 15982.883 10042.494 9958.389 10978.793 9818.901 10099.364 10105.041 9156.873 9416.714 6482.741 9984.544 14172.437 9557.056 9869.119 6635.057 9747.858 10956.275 9733.176 1777.643 9789.117 11132.023 9750.852 15271.550 9648.496 10017.036 12130.403 9053.424 4261.060 14816.177 16704.686 16402.889 9932.399 7389.138 9753.263 10905.547 10875.356 9704.859 18959.411 14190.730 10564.837 9552.755 9501.401 10802.966 15592.888 11823.913 9798.092 6468.231 7094.918 4253.250 12286.445 10457.161 10085.780 12057.786 12683.669 9091.596 11930.533 13642.646 12387.017 9897.833 8411.348 10608.537 9322.273 12954.886 10655.303 9504.470 9868.226 9477.036 14126.771 9459.689 9626.998 8136.161 12074.457 11158.658 14174.293 15083.755 8425.407 7221.755 9089.599 7644.752 9501.437 11589.382 15551.666 10519.504 5429.163 9909.300 16094.030 9866.257 14356.390 10164.399 9735.009 14455.917 10339.316 14479.411 8491.356 8403.435 9718.633 9494.249 0.000 8361.820 14866.556 7254.946 9675.277 9692.199 8733.523 9933.728 16338.719 15870.851 4548.695 12285.271 9205.047 10038.574 15067.827 9040.567 6817.454 7065.286 9799.688 10029.309 13892.740 14005.430 8499.412
2254.687 2879.706 1712.022 9617.539 1444.229 12287.286 747.454 1565.103 1707.324 743.587 1788.587 647.024 1619.366 1069.621 2309.115 13120.875 1322.804 1686.947 13075.113 2505.225 1926.361 838.256 187.996 7318.907 477.645 1463.113 5853.487 1813.734 1644.208 6444.022 1508.575 2288.292 1491.165 1676.546 4687.231 12277.802 1695.288 1862.385 11256.416 5699.621 1854.412 979.350 6524.909 6317.302 2632.616 7473.383 1826.033 8455.559 8854.835 3595.186 6305.471 6642.122 1871.311 11213.590 1595.534 1623.773 1474.019 1689.073 148.876 3199.020 1461.404 6663.403 8335.237 6176.960 7647.259 1732.536 8303.446 2695.770 1635.859 1833.517 2346.513 1591.484 4788.118 2078.232 1701.084 5886.222 1596.881 1691.497 2015.150 1634.883 2624.458 1417.650 6604.060 1521.439 2855.394 1436.054 6913.463 1325.973 1709.353 3813.021 1037.348 4766.355 12100.555 8494.479 8323.375 1674.785 1099.841 1554.245 4990.416 2735.294 1593.844 10697.935 5905.000 4116.592 1740.129 2208.377 2563.399 8168.159 3623.155 1494.563 2143.954 11950.798 10995.595 4000.716 2159.749 1833.415 3741.052 4990.916 1067.242 3716.901 5317.571 4117.491 2057.809 6893.734 2455.350 1555.534 5153.851 2516.640 1513.400 1563.648 1146.078 5836.956 1407.603 5978.710 1363.491 3757.236 2996.497 5819.792 6734.736 1427.831 1216.557 1412.038 771.585 2065.464 3419.881 7382.318 3616.551 2980.263 1679.901 8361.532 1903.276 6056.688 8569.104 1822.350 6155.842 1989.750 6141.503 6720.677 44.176 2224.756 2131.012 8361.820 0.000 6517.566 1251.939 1893.847 1869.031 437.180 1935.284 13077.841 7737.409 6704.670 3927.679 843.319 1849.509 6753.350 694.665 6942.401 1879.348 1707.832 1694.189 8773.257 8121.412 3747.242
4643.780 3869.734 4908.802 12865.997 5211.830 13374.372 5777.538 5426.124 4857.654 6940.989 4874.673 6044.435 4975.382 7539.205 4387.444 6786.916 5422.482 5027.887 14417.804 4071.106 4607.929 6072.503 6331.741 1774.494 6639.037 5229.573 945.205 5207.325 5012.166 10212.166 5208.622 8793.026 5166.410 5324.925 2215.497 5869.467 5068.239 4931.455 17532.642 12198.891 5636.258 5617.480 13015.983 10059.162 5565.013 991.234 5505.012 14960.981 2965.333 3663.740 413.803 486.841 5500.860 17583.914 5396.755 5261.500 5291.437 5129.109 6370.903 9626.402 5071.208 13134.449 12282.345 355.356 1150.477 4825.386 12285.420 4109.182 5077.399 4778.703 5038.114 5881.581 7964.523 8524.581 4887.611 1001.576 5398.381 5030.943 8415.074 5168.403 3910.737 5133.521 13098.256 5084.108 3761.738 5115.897 475.702 5218.073 4851.047 2750.615 5844.617 11175.785 14128.756 3271.632 2762.076 4945.181 7553.364 5135.969 7339.340 4421.970 5209.528 4829.266 993.129 6662.456 5460.143 6125.154 4334.023 4571.995 3184.182 5069.628 8568.464 17861.491 17368.246 2636.048 4415.976 4796.111 2822.825 4406.214 5807.339 3482.477 1262.578 2979.888 5157.383 10927.023 4344.132 5915.246 3236.244 4310.684 5642.933 4999.651 5446.719 1010.051 5457.297 9047.057 7079.139 2805.954 3830.747 706.907 217.244 6842.996 7703.078 5897.852 7262.796 5679.322 3434.313 1811.321 6130.169 9444.968 4975.599 4958.777 5122.265 801.597 12488.830 5260.389 745.684 4588.686 428.677 10689.483 6474.877 5491.514 5723.262 14866.556 6517.566 0.000 7699.541 5371.698 5337.912 6134.035 5045.506 14403.573 2172.462 12514.736 2684.792 5676.502 4864.272 553.717 5830.444 11847.563 8102.295 5127.565 4837.487 9628.345 8339.759 7849.404
3220.349 4130.048 2962.421 8956.584 2695.953 12007.847 1986.656 2776.296 2949.681 1327.561 3040.406 1872.935 2868.003 188.730 3560.227 14350.808 2565.485 2937.698 12720.310 3741.233 3092.443 2003.701 1436.120 8560.896 1063.957 2713.311 7071.396 3033.400 2896.132 5817.886 2757.538 1114.680 2742.977 2892.325 5768.256 13497.095 2943.074 3110.179 10004.875 4622.555 2981.960 2082.380 5454.851 5708.689 3132.795 8638.622 2987.503 7346.882 9908.870 4537.535 7507.196 7848.519 2570.163 9968.509 2808.359 2855.904 2717.715 2931.662 1381.965 2335.841 2631.886 5622.238 7555.684 7365.421 8839.048 2972.625 7516.493 3724.461 2886.317 3082.334 3541.855 2683.785 5397.969 832.932 2948.166 7108.356 2809.227 2941.912 764.318 2877.872 3844.061 2659.645 5527.840 2771.879 4095.262 2678.062 8078.972 2566.612 2950.456 5031.794 2235.487 3520.644 11629.417 9472.919 9571.699 2925.344 152.171 2805.258 4951.652 3636.170 2835.881 11714.358 7127.234 4203.239 2921.741 2519.485 3548.593 9392.264 4871.134 2739.244 893.021 10719.541 9750.693 5231.141 3399.484 3083.679 4960.615 5661.955 2270.104 4683.341 6524.230 5132.962 3260.389 7046.961 3707.105 2132.404 6395.105 3768.135 2269.571 2807.294 2253.809 7058.003 2634.101 6482.059 1110.974 4976.445 4248.199 6996.049 7916.026 1386.190 151.896 2524.923 488.282 3161.197 4670.636 8624.326 3856.634 2065.038 2931.781 9098.798 3126.463 7273.188 7787.134 3032.405 7371.854 3116.334 7335.846 6906.664 1295.871 3349.171 3210.361 7254.946 1251.939 7699.541 0.000 3075.393 3059.878 1686.862 3165.809 12726.456 8982.543 6146.899 5059.167 2047.903 3101.106 7960.852 1935.130 6786.400 754.979 2948.973 2922.740 8699.735 8229.548 4247.054
2501.894 1508.024 906.638 11296.137 806.796 13595.500 1385.744 363.718 1072.392 1863.009 830.051 1250.221 957.290 2886.704 1074.161 11643.702 706.355 698.827 14453.533 1479.074 1679.326 1073.748 1747.827 5814.527 2314.645 737.121 4555.943 267.209 808.991 8136.462 689.425 3947.503 799.291 298.779 4043.728 10861.651 614.091 613.888 12982.903 7024.066 276.311 1763.913 7810.118 8000.307 3579.235 6362.502 133.462 9771.072 8063.614 3513.777 5076.653 5377.814 2790.911 12881.693 344.189 437.071 623.842 526.168 1813.859 4407.722 1547.641 7893.521 10103.319 5016.468 6422.098 1106.269 10076.166 2605.885 694.654 968.537 470.052 521.357 3621.848 3849.737 992.338 4561.918 341.345 685.578 3828.312 546.295 1712.807 1087.842 7898.024 917.570 1676.948 1084.743 5820.533 1121.989 1090.096 2658.602 856.511 6479.367 13600.173 7914.884 6739.642 899.995 2929.925 733.819 6245.670 2964.429 548.449 9964.504 4579.336 5312.032 154.293 3479.425 2641.259 6326.415 2200.358 1040.461 3932.339 13789.224 12663.344 2736.807 1240.960 924.418 2590.336 5285.083 827.077 3550.291 4109.813 3749.127 222.848 6274.997 1045.962 2772.108 3380.598 1068.838 2522.490 1050.025 1746.969 4521.307 548.659 4883.490 3180.798 2606.907 1541.724 4730.984 5583.489 3152.850 2998.002 598.090 2591.296 436.217 1953.601 5876.688 4701.325 4278.997 817.333 8316.696 297.833 4759.154 10336.976 193.349 4857.322 1875.038 4955.179 6062.948 1856.097 429.432 522.277 9675.277 1893.847 5371.698 3075.393 0.000 59.398 1484.388 376.217 14452.765 6196.895 7171.551 3198.623 1494.105 750.238 5479.832 1410.849 6789.208 3761.351 502.336 1224.963 9914.752 9065.271 2922.318
2442.697 1471.131 847.240 11250.180 750.973 13540.115 1344.402 321.742 1013.006 1861.155 770.946 1223.478 898.209 2871.148 1025.380 11627.414 658.773 639.475 14399.219 1428.297 1619.930 1056.366 1719.591 5797.199 2283.991 681.579 4527.084 208.013 749.800 8091.720 633.077 3943.555 742.338 245.885 3994.122 10842.159 554.752 556.231 12979.904 7038.963 325.244 1714.805 7827.106 7955.225 3523.050 6328.438 172.589 9787.954 8021.159 3455.800 5045.655 5348.600 2736.183 12882.537 299.094 381.044 570.194 467.020 1785.453 4422.997 1490.485 7912.591 10061.779 4982.788 6392.292 1046.871 10034.898 2546.960 635.667 909.615 481.991 546.682 3681.227 3839.290 932.949 4534.243 296.506 626.216 3814.903 487.980 1660.983 1031.042 7914.742 859.546 1632.970 1027.654 5785.363 1066.779 1030.711 2619.388 832.871 6475.370 13548.431 7867.472 6727.621 840.649 2913.582 675.937 6190.991 2905.032 491.289 9921.404 4551.746 5257.040 144.343 3427.926 2581.898 6337.175 2171.118 982.593 3920.892 13776.390 12664.174 2702.240 1185.271 865.570 2550.710 5226.041 801.891 3493.044 4076.535 3694.415 210.754 6332.533 1005.152 2721.887 3381.025 1030.733 2470.090 991.375 1694.789 4493.188 505.352 4942.876 3146.215 2567.335 1509.844 4694.384 5550.128 3113.922 2984.989 606.218 2574.585 495.068 1925.478 5859.481 4645.400 4290.797 757.976 8261.029 244.177 4730.583 10295.386 133.966 4828.924 1815.645 4922.382 6120.745 1830.634 485.380 581.442 9692.199 1869.031 5337.912 3059.878 59.398 0.000 1454.913 323.986 14398.390 6181.920 7211.992 3149.057 1448.415 691.951 5451.110 1370.963 6841.308 3740.484 443.062 1165.652 9857.685 9006.731 2979.584
2039.487 2450.706 1284.642 9914.597 1009.741 12461.299 369.093 1143.069 1292.982 890.506 1356.745 243.258 1195.864 1502.822 1879.083 12705.861 886.495 1250.848 13271.742 2093.699 1583.397 490.688 266.826 6896.691 830.827 1026.598 5449.097 1385.569 1211.629 6742.869 1071.583 2701.690 1056.991 1251.094 4365.190 11869.360 1258.141 1425.252 11689.371 6066.853 1475.782 768.569 6887.376 6612.048 2632.666 7097.752 1428.634 8827.784 8532.558 3357.791 5910.675 6244.116 1828.148 11640.921 1172.301 1190.803 1037.288 1252.445 331.747 3524.776 1131.418 7015.828 8668.609 5790.214 7256.786 1320.991 8638.895 2428.242 1199.529 1408.849 1926.630 1243.074 4588.249 2509.366 1279.855 5479.011 1173.898 1255.143 2450.805 1198.201 2227.219 1006.705 6968.394 1094.575 2438.898 1024.856 6538.502 918.486 1296.679 3411.553 637.008 5195.245 12335.534 8207.938 7895.346 1247.135 1534.988 1118.403 5126.412 2539.565 1157.419 10390.067 5497.703 4225.335 1332.699 2308.436 2325.428 7733.705 3196.911 1078.586 2577.378 12387.358 11422.827 3590.024 1745.866 1406.010 3339.200 4860.535 661.372 3465.059 4921.152 3834.963 1636.284 6841.637 2020.670 1604.710 4716.854 2081.390 1476.324 1148.648 904.415 5430.519 978.417 5806.907 1708.233 3355.600 2564.403 5440.770 6351.274 1715.710 1644.661 1058.831 1202.779 1699.539 2989.824 6960.070 3682.960 3323.576 1247.762 8179.888 1473.162 5652.993 8902.536 1398.762 5752.359 1676.342 5751.347 6658.254 394.241 1840.611 1772.339 8733.523 437.180 6134.035 1686.862 1484.388 1454.913 0.000 1502.125 13273.376 7312.468 6898.074 3582.071 524.089 1414.532 6354.561 319.458 6998.275 2312.184 1271.537 1296.916 8890.777 8180.163 3608.069
2187.464 1176.110 592.706 11144.897 605.457 13343.425 1313.742 412.951 758.133 2042.385 496.324 1294.379 668.319 2978.019 703.107 11394.103 622.010 408.883 14214.802 1104.377 1350.452 1184.161 1768.241 5562.532 2309.163 548.175 4250.842 163.004 522.684 7998.152 492.672 4103.065 577.983 296.569 3670.543 10596.557 336.255 261.327 13135.532 7274.000 649.222 1608.449 8069.584 7859.037 3323.771 6034.822 494.852 10029.307 7706.742 3149.613 4761.974 5070.517 2559.001 13056.136 379.942 311.514 481.323 282.121 1831.827 4661.940 1291.193 8162.650 9991.626 4690.878 6111.708 786.702 9966.792 2253.634 429.003 625.505 502.400 840.984 3958.928 3967.727 679.829 4262.037 380.349 395.617 3928.348 331.322 1337.071 850.804 8156.173 663.724 1317.911 842.418 5488.786 909.760 775.466 2314.076 940.977 6629.978 13390.972 7545.542 6514.088 597.114 3016.036 498.770 6006.030 2633.166 362.539 9605.675 4279.820 5069.493 419.930 3282.997 2303.290 6233.021 1898.582 783.886 4044.011 13882.538 12837.769 2410.067 868.029 580.562 2244.424 4933.157 904.048 3181.609 3786.482 3373.677 267.383 6643.768 701.680 2593.336 3231.588 736.069 2321.257 772.802 1557.540 4219.495 531.756 5220.417 3138.468 2261.165 1232.032 4394.323 5258.882 3076.013 3104.311 856.019 2677.529 802.584 1658.483 5625.237 4447.083 4516.767 517.548 7942.538 80.827 4455.124 10224.734 217.295 4553.967 1549.119 4633.168 6430.344 1893.762 738.805 884.059 9933.728 1935.284 5045.506 3165.809 376.217 323.986 1502.125 0.000 14213.285 5956.476 7523.852 2825.530 1379.163 400.693 5174.591 1350.475 7165.053 3813.975 255.945 915.282 9639.633 8763.381 3292.785
12115.083 14122.058 13627.553 4678.586 13648.532 1059.889 13171.484 14107.168 13468.657 13726.639 13733.971 13494.399 13545.309 12814.498 13906.126 19726.493 13761.609 13805.071 36.969 13643.487 12938.294 13754.199 13100.641 16172.570 12616.509 13717.316 14715.057 14217.057 13690.761 7109.295 13767.360 13077.713 13661.305 14154.006 12699.155 18730.495 13882.255 13966.756 14448.647 15002.787 14586.352 12719.353 15533.633 7176.878 10890.959 14580.982 14473.113 16379.245 13647.795 11798.385 14631.497 14879.967 11662.436 15143.334 14118.443 14017.866 13828.952 13955.488 13048.179 14423.581 12922.808 15832.384 6312.003 14353.882 15118.972 13446.524 6380.968 12287.956 13790.811 13629.095 14705.569 14449.736 17858.080 12691.573 13542.631 14816.786 14121.674 13818.500 12517.522 13921.770 13477.357 13374.038 15533.387 13555.671 13834.306 13379.706 14328.959 13332.036 13452.368 13858.581 13818.057 12786.814 1627.361 12617.555 17146.756 13618.555 12758.818 13733.778 8208.160 11790.221 13910.983 13994.583 14828.205 9144.001 14345.133 10998.059 12126.570 18729.296 14371.674 13432.994 12601.274 12773.304 15037.150 14119.885 13580.397 13670.765 13843.585 10217.931 13823.139 11906.265 14270.551 12174.930 14471.312 19771.869 14113.352 11716.192 16106.545 14168.914 11938.049 13440.489 12711.620 14769.993 13929.999 19056.299 11815.005 13844.424 14273.814 14025.149 14490.993 11670.430 12878.108 14272.969 12915.005 14824.593 14402.726 16212.494 9769.399 14148.435 13696.318 10256.903 14249.430 14786.130 6182.514 14277.409 14825.230 12746.832 14431.721 19633.111 13087.718 14881.710 14911.543 16338.719 13077.841 14403.573 12726.456 14452.765 14398.390 13273.376 14213.285 0.000 16575.181 18110.276 12981.800 13017.578 13839.743 14957.016 13168.080 19350.168 12107.342 13982.413 13313.568 4809.313 6063.963 16818.155
6258.037 4863.879 6027.828 14957.429 6309.961 15544.653 6996.006 6368.901 6032.879 7992.800 5959.167 7164.127 6118.295 8804.712 5435.739 5449.654 6477.379 6081.448 16589.541 5244.938 5977.253 7117.837 7550.452 456.055 7967.465 6304.761 2120.866 6114.963 6104.897 12206.614 6268.208 10010.628 6262.232 6253.030 4183.974 4707.795 6094.134 5932.607 18975.811 13220.793 6419.019 6968.841 14005.763 12053.167 7364.499 2224.170 6324.427 15966.706 4203.801 5546.198 1991.082 1703.667 7131.890 18950.569 6336.080 6236.488 6328.296 6128.253 7601.994 10604.572 6403.496 14083.354 14292.941 2264.116 1714.087 6010.065 14291.658 5751.970 6133.891 5904.413 5766.920 6714.192 7869.684 9813.806 6036.339 2043.157 6336.612 6079.831 9737.281 6177.900 5166.038 6322.943 14094.065 6218.005 4888.656 6304.523 2289.541 6415.931 6032.110 4011.494 6873.738 12502.712 16294.824 4896.849 636.269 6065.334 8830.726 6209.235 9391.896 6161.088 6221.535 5718.197 2025.384 8653.921 6322.932 7842.444 5990.003 2717.889 4115.636 6243.891 9875.076 19498.240 18732.646 3778.011 5583.627 5906.461 4077.570 6538.296 6835.420 5372.905 2700.399 4909.688 5974.754 10763.766 5313.926 7495.008 3052.416 5259.764 7193.493 6175.495 6811.681 2099.155 6457.551 8750.519 8565.928 4063.454 4760.353 2644.520 2089.744 8370.498 8953.937 6787.000 8508.805 6381.078 4329.124 398.285 8079.470 10470.327 6068.137 6937.925 6019.397 1966.908 14505.749 6146.620 1892.857 6020.851 2205.587 10523.435 7693.234 6166.469 6396.233 15870.851 7737.409 2172.462 8982.543 6196.895 6181.920 7312.468 5956.476 16575.181 0.000 12977.177 4377.875 6942.587 5912.544 1620.176 7047.728 11942.230 9504.244 6117.564 6065.216 11800.504 10511.630 8079.578
8934.409 8677.316 7815.551 13747.045 7529.588 17551.468 7250.196 7187.842 7924.275 6012.678 7810.185 6860.935 7785.378 6174.438 8220.280 18336.623 7296.675 7644.592 18097.142 8599.310 8410.223 6721.775 6836.022 12669.520 6919.708 7488.230 11652.070 7368.931 7697.412 11008.669 7490.003 5327.651 7566.295 7271.354 11136.814 17673.404 7583.316 7687.924 9490.802 3490.665 6899.082 7649.974 3467.986 10951.714 9224.437 13505.003 7040.385 4622.057 15229.842 10254.607 12193.541 12470.348 8542.810 8954.323 7212.461 7364.767 7393.352 7505.451 6836.621 3891.850 7999.318 3237.565 12104.133 12159.879 13514.531 7963.098 12044.172 9316.934 7603.249 7935.673 7477.480 6685.426 5502.329 5766.596 7867.137 11642.653 7210.142 7637.508 5962.756 7478.412 8812.603 7713.695 3537.734 7681.809 8841.742 7727.044 12973.315 7657.011 7937.063 9829.891 6896.935 5464.669 16779.565 15025.069 13411.803 7785.254 6207.959 7568.317 10993.527 9428.675 7443.367 17126.391 11658.679 10320.827 7104.060 8651.284 9223.383 12090.405 9331.454 7745.560 5827.486 11361.327 8772.755 9895.053 8293.058 7904.780 9761.840 11685.422 6928.217 10356.416 11253.840 10696.167 7376.622 3894.174 8217.034 8158.448 9926.017 8240.027 8193.668 7805.993 7799.126 11608.434 7208.844 5368.046 7257.535 9778.392 8696.433 11894.078 12721.996 7531.149 6028.290 6708.178 6276.820 6837.915 9081.318 12726.732 10003.194 4183.910 7729.267 15065.204 7443.724 11849.384 12299.983 7306.719 11944.168 8540.260 12091.120 3998.095 6731.644 7023.241 6791.834 4548.695 6704.670 12514.736 6146.899 7171.551 7211.992 6898.074 7523.852 18110.276 12977.177 0.000 10303.144 7420.674 7786.641 12564.673 7207.408 2268.803 6457.461 7499.515 8009.793 14614.588 14299.032 4930.940
1960.658 1818.811 2489.044 10767.443 2780.709 12012.233 3214.164 3122.831 2390.061 4443.057 2493.352 3537.548 2525.854 4907.596 2124.592 9456.153 3011.637 2659.142 12990.179 1722.148 2002.929 3621.662 3747.911 3922.344 3995.217 2818.023 2264.013 2967.692 2606.470 7886.954 2813.945 6166.021 2741.765 3048.471 845.105 8550.872 2722.645 2629.809 14848.070 9626.236 3474.065 2983.801 10452.397 7733.937 2986.730 3588.746 3320.378 12378.615 4962.892 1244.773 2568.337 2920.760 2824.757 14901.189 3100.278 2944.532 2910.034 2803.417 3778.875 7106.791 2466.483 10590.103 9979.394 2376.532 3835.269 2352.339 9973.824 1427.654 2699.957 2367.638 3029.468 3640.117 6513.119 5874.371 2441.670 2335.995 3102.828 2666.541 5755.762 2827.431 1496.567 2629.193 10531.218 2632.311 1559.063 2613.598 3031.471 2700.680 2378.750 935.752 3422.544 8504.398 12450.611 4727.840 5012.984 2520.310 4916.867 2735.743 5188.029 1788.403 2861.279 6840.174 2354.087 4366.897 3235.206 3486.918 1657.274 5870.187 1579.965 2583.300 5912.610 15209.706 14685.758 1161.900 2011.098 2398.381 948.216 2830.969 3388.911 1100.815 1679.448 835.430 3024.880 9361.164 2187.829 3232.112 3131.465 2188.975 2958.147 2518.031 2811.073 2280.031 3094.301 7738.189 4395.426 942.290 1886.928 1979.259 2896.645 4158.224 5075.281 3599.312 4643.674 3599.113 1730.639 3982.088 3756.831 6901.443 2574.187 5245.676 2906.096 2438.531 10197.930 3036.529 2526.811 1947.030 2369.988 9137.560 3887.015 3468.146 3668.747 12285.271 3927.679 2684.792 5059.167 3198.623 3149.057 3582.071 2825.530 12981.800 4377.875 10303.144 0.000 3087.118 2521.839 3035.022 3265.577 9981.638 5426.341 2811.494 2325.058 8190.881 7064.191 6049.077
1522.432 2117.217 974.286 9802.046 783.602 12181.899 185.953 1130.896 923.056 1414.517 1073.023 597.827 869.817 1876.771 1562.074 12302.937 790.512 1024.289 13017.232 1697.663 1084.395 823.744 661.033 6517.460 1030.821 832.924 5025.573 1311.949 944.246 6643.480 888.121 3120.340 821.153 1207.388 3856.713 11451.514 1065.593 1218.609 12034.310 6542.309 1579.977 308.709 7366.918 6506.835 2237.419 6630.510 1484.252 9298.814 8025.346 2834.326 5469.583 5808.219 1420.908 12013.026 1150.114 1097.028 904.920 1098.255 695.390 4025.925 621.465 7502.993 8620.553 5337.101 6808.588 940.399 8594.707 1904.345 982.202 1077.270 1865.861 1434.358 4892.166 2880.798 938.076 5061.310 1152.889 1033.482 2795.885 1047.852 1796.543 641.195 7446.402 795.019 2054.314 658.833 6070.546 548.523 920.789 2985.062 812.564 5566.364 12129.706 7688.550 7537.687 940.744 1897.459 899.535 4827.942 2025.710 1018.224 9877.125 5080.168 3906.646 1363.037 2019.749 1802.834 7520.446 2842.860 726.835 2937.018 12652.721 11795.391 3183.485 1361.772 1089.339 2913.647 4363.459 812.083 2940.971 4483.355 3313.600 1582.956 7264.918 1738.065 1302.194 4472.502 1804.066 1096.082 788.402 397.879 5011.220 945.995 6132.793 1779.791 2929.573 2248.954 4977.698 5893.605 1698.534 2035.265 1261.955 1590.944 1818.525 2656.685 6580.885 3329.435 3815.251 973.696 7663.019 1378.631 5227.920 8853.945 1351.839 5326.797 1160.458 5303.141 7074.704 801.618 1907.016 1902.990 9205.047 843.319 5676.502 2047.903 1494.105 1448.415 524.089 1379.163 13017.578 6942.587 7420.674 3087.118 0.000 1159.004 5919.967 217.439 7482.641 2578.523 1123.685 877.409 8558.488 7796.155 3979.837
1789.273 1051.260 218.591 10827.795 405.363 12963.833 1144.602 601.006 371.087 2102.463 106.887 1251.881 318.105 2917.354 485.277 11326.340 570.017 169.530 13841.643 815.505 950.343 1222.609 1667.831 5503.623 2161.723 392.401 4113.494 485.678 215.057 7693.421 356.803 4099.644 358.803 533.740 3362.780 10507.130 205.988 139.704 13103.607 7371.924 1003.923 1334.655 8178.785 7552.226 2948.940 5847.420 846.670 10133.732 7450.110 2764.009 4604.248 4924.933 2202.584 13049.908 579.019 422.724 429.063 281.629 1725.800 4775.462 934.570 8285.197 9705.531 4512.345 5956.851 394.573 9682.572 1857.617 221.856 224.844 867.182 1122.676 4358.237 3923.295 298.798 4133.887 581.664 169.596 3864.650 309.918 1026.559 542.651 8263.389 365.668 1102.649 528.806 5294.695 624.358 387.430 2113.844 985.773 6606.907 13034.422 7249.666 6488.688 238.543 2949.113 297.488 5635.613 2232.474 348.267 9342.037 4152.197 4698.525 738.921 2947.407 1902.918 6364.495 1801.750 460.049 3991.899 13784.173 12831.711 2249.891 514.645 179.915 2041.814 4537.443 947.800 2803.230 3617.670 3019.589 667.316 7023.764 606.162 2277.188 3323.493 667.150 1990.139 424.449 1252.899 4088.217 594.465 5619.888 2938.344 2058.702 1153.851 4193.988 5079.999 2843.903 3057.811 1078.676 2617.211 1186.221 1583.558 5566.850 4070.606 4609.658 185.812 7578.216 463.378 4318.463 9937.994 560.514 4417.952 1149.243 4462.001 6812.422 1805.759 1138.540 1271.199 10038.574 1849.509 4864.272 3101.106 750.238 691.951 1414.532 400.693 13839.743 5912.544 7786.641 2521.839 1159.004 0.000 5032.235 1190.836 7505.692 3701.058 290.299 526.794 9250.716 8366.031 3670.376
4990.182 4003.898 5099.024 13386.006 5399.300 13928.039 6007.272 5569.458 5064.619 7129.871 5053.850 6246.596 5173.784 7794.545 4548.299 6428.959 5599.228 5199.597 14971.206 4266.135 4873.395 6252.769 6565.889 1221.841 6908.423 5410.280 924.063 5337.572 5195.616 10698.831 5384.361 9039.706 5352.653 5462.708 2670.493 5543.587 5232.077 5086.021 17859.648 12399.974 5735.325 5886.888 13209.921 10545.580 5979.030 1078.923 5613.116 15162.794 3217.243 4097.065 466.692 114.391 5858.721 17889.323 5538.722 5412.448 5461.284 5285.654 6609.063 9807.695 5329.768 13317.340 12775.364 692.958 949.862 5034.894 12777.030 4460.517 5250.619 4969.305 5113.642 5997.768 7849.799 8791.210 5086.732 922.818 5540.044 5201.273 8691.024 5328.549 4129.323 5348.098 13294.030 5281.029 3935.813 5330.034 800.354 5436.165 5059.747 2943.080 6017.979 11461.051 14676.918 3655.982 2217.159 5136.206 7812.301 5314.994 7843.556 4809.227 5370.932 5013.625 906.421 7144.618 5580.345 6514.223 4691.958 4055.389 3280.007 5278.808 8840.382 18244.230 17672.830 2782.390 4614.581 4982.200 3015.499 4938.224 5980.033 3917.515 1436.756 3426.255 5260.401 10810.447 4480.057 6258.860 3013.834 4439.666 5975.581 5208.513 5718.989 959.952 5618.063 8888.845 7399.289 2999.052 3943.881 1103.634 515.387 7174.709 7954.868 6030.600 7510.910 5755.697 3526.243 1257.808 6596.840 9638.912 5158.534 5463.590 5248.283 720.764 12983.985 5384.995 623.181 4874.335 671.616 10571.295 6709.923 5557.917 5791.988 15067.827 6753.350 553.717 7960.852 5479.832 5451.110 6354.561 5174.591 14957.016 1620.176 12564.673 3035.022 5919.967 5032.235 0.000 6060.265 11799.604 8400.828 5281.344 5060.596 10180.364 8893.141 7817.470
1739.322 2197.633 1032.459 9899.812 790.725 12340.334 53.007 1049.221 1015.043 1207.028 1118.309 384.262 934.921 1757.114 1630.718 12426.547 732.898 1038.602 13167.290 1811.031 1265.073 622.443 506.684 6627.367 972.259 824.908 5159.188 1260.260 978.188 6734.730 876.859 2982.886 834.774 1140.738 4046.159 11583.202 1063.741 1226.736 11937.636 6375.136 1462.029 506.703 7197.303 6600.221 2428.101 6790.683 1382.965 9134.642 8213.837 3047.201 5613.558 5949.244 1612.869 11902.896 1073.073 1049.483 869.291 1078.597 554.756 3841.445 811.976 7328.492 8692.967 5488.251 6957.095 1039.104 8665.591 2113.241 990.793 1149.009 1815.965 1284.503 4719.786 2766.097 1013.582 5191.632 1075.430 1045.499 2693.362 1025.126 1930.961 724.951 7277.757 843.090 2162.389 743.377 6231.089 632.438 1016.364 3118.996 650.324 5454.993 12262.498 7888.899 7636.689 996.061 1783.179 906.675 4990.271 2242.958 989.418 10070.685 5210.405 4074.914 1269.464 2172.990 2017.129 7549.865 2936.244 804.119 2828.044 12593.772 11685.003 3306.135 1466.426 1152.893 3046.948 4580.317 657.658 3151.397 4625.019 3516.767 1526.811 7060.522 1790.028 1455.520 4513.914 1853.792 1276.462 872.242 614.157 5142.424 866.922 5954.567 1788.961 3063.172 2320.445 5134.923 6047.678 1743.160 1908.691 1105.445 1462.792 1697.972 2738.641 6690.790 3508.554 3637.222 1011.892 7879.519 1337.247 5362.503 8926.668 1289.461 5461.697 1357.097 5451.309 6871.910 650.828 1806.650 1779.066 9040.567 694.665 5830.444 1935.130 1410.849 1370.963 319.458 1350.475 13168.080 7047.728 7207.408 3265.577 217.439 1190.836 6060.265 0.000 7266.610 2510.801 1101.619 999.994 8733.678 7987.142 3787.109
8982.717 8207.763 7596.323 15200.713 7352.902 18700.228 7297.646 6919.466 7736.914 6199.008 7558.538 6885.306 7597.083 6750.069 7859.763 17123.801 7125.917 7397.112 19340.604 8267.661 8305.114 6681.597 7023.078 11694.207 7282.223 7296.346 10928.672 7032.943 7477.673 12264.793 7281.267 6275.424 7378.772 6972.434 10825.744 16549.534 7321.166 7382.332 11744.609 5499.870 6516.490 7762.822 5639.370 12185.352 9574.831 12815.881 6672.778 6890.521 14719.747 10208.711 11484.780 11718.105 8803.265 11220.134 6935.826 7095.150 7181.595 7232.495 7044.933 4943.383 7970.305 5438.413 13610.101 11501.895 12736.385 7776.271 13555.366 9261.014 7367.231 7696.955 6969.631 6391.622 4091.444 6673.730 7666.079 10899.953 6932.824 7386.899 6855.449 7220.987 8502.014 7593.055 5717.749 7508.101 8433.044 7602.105 12321.167 7560.811 7752.668 9338.899 6790.468 7163.166 18123.102 14667.670 12298.221 7573.820 6797.667 7356.769 11732.609 9488.901 7195.496 16623.851 10913.763 10945.083 6769.319 9105.596 9223.605 10657.588 8748.774 7600.058 6759.572 13561.987 11036.991 9340.233 8017.388 7658.010 9278.522 11844.188 6812.786 10275.052 10621.264 10524.710 6956.848 1711.847 7797.366 8494.758 8928.302 7801.928 8444.779 7647.437 7880.470 10874.772 6997.244 3537.886 7851.192 9293.846 8184.806 11299.150 12040.153 8082.466 6642.800 6474.902 6751.524 6382.526 8507.001 11746.033 10516.085 5209.781 7502.472 15065.016 7085.481 11112.040 13820.959 6960.897 11199.545 8470.646 11419.050 1869.008 6956.506 6519.895 6313.553 6817.454 6942.401 11847.563 6786.400 6789.208 6841.308 6998.275 7165.053 19350.168 11942.230 2268.803 9981.638 7482.641 7505.692 11799.604 7266.610 0.000 7299.552 7218.799 7856.385 15485.308 14985.119 4001.545
3501.600 4695.361 3539.740 8246.469 3298.219 11418.454 2558.355 3442.472 3501.373 2076.453 3628.758 2525.008 3438.912 925.049 4135.612 14820.061 3197.879 3545.358 12099.934 4266.498 3540.147 2688.979 2047.058 9072.788 1548.008 3325.558 7533.714 3692.881 3488.966 5129.895 3374.168 1137.767 3343.456 3555.060 6074.543 13944.308 3562.179 3728.319 9476.243 4511.226 3690.551 2536.235 5335.888 5027.221 3120.120 9013.987 3682.923 7153.949 10153.966 4750.764 7940.049 8287.184 2729.820 9488.495 3473.344 3502.499 3347.563 3562.711 1984.769 2566.760 3101.755 5535.806 6821.044 7779.231 9250.493 3518.859 6780.485 4030.876 3495.940 3650.796 4220.808 3400.832 6137.479 697.120 3512.499 7578.360 3474.586 3551.318 501.568 3508.379 4338.604 3216.390 5399.786 3352.114 4624.911 3234.427 8457.593 3122.738 3499.301 5510.149 2907.957 3079.843 10970.270 9650.162 10106.051 3504.059 870.674 3412.471 4537.643 3851.186 3468.300 11915.102 7597.339 3882.415 3607.059 2453.307 3828.490 10045.756 5419.514 3300.542 656.599 10083.115 9272.029 5729.327 3937.699 3658.708 5441.016 5652.735 2940.029 4911.371 6970.687 5390.875 3933.852 7674.673 4300.505 2278.548 7021.762 4364.512 2498.166 3364.715 2696.629 7526.191 3286.948 7201.416 1076.142 5456.087 4824.752 7395.452 8316.642 1361.220 889.019 3234.682 1190.372 3880.647 5235.164 9136.112 3640.571 2275.314 3522.671 9088.932 3782.623 7731.941 7051.626 3699.933 7829.246 3526.701 7758.388 7545.613 1920.417 4060.766 3934.402 7065.286 1879.348 8102.295 754.979 3761.351 3740.484 2312.184 3813.975 12107.342 9504.244 6457.461 5426.341 2578.523 3701.058 8400.828 2510.801 7299.552 0.000 3582.555 3449.269 8216.679 7842.271 4977.149
1999.690 1280.664 406.409 10892.334 350.977 13117.710 1063.146 311.814 570.849 1876.582 342.923 1076.953 455.768 2762.253 740.496 11544.747 385.059 196.967 13983.641 1100.009 1178.664 1000.417 1535.559 5715.905 2066.404 292.257 4359.878 240.152 306.910 7744.022 236.757 3911.803 326.982 247.217 3652.848 10735.555 112.224 196.129 12935.617 7135.365 732.831 1353.585 7937.625 7605.170 3097.529 6113.241 578.419 9895.044 7734.530 3033.876 4858.972 5175.237 2322.234 12866.955 288.845 135.616 235.339 27.249 1597.867 4530.895 1061.457 8038.544 9735.960 4774.491 6211.263 605.571 9711.053 2114.199 194.749 483.403 753.554 832.632 4123.908 3759.539 490.958 4376.530 291.447 183.958 3712.989 76.622 1315.517 609.187 8023.093 427.155 1368.866 602.859 5562.441 660.840 588.529 2380.019 756.174 6432.223 13150.007 7539.324 6684.378 397.892 2798.134 250.157 5774.286 2463.014 114.267 9627.885 4394.640 4838.602 460.958 3036.635 2141.755 6463.452 2025.135 550.411 3833.015 13658.629 12648.636 2502.098 804.798 441.949 2308.570 4790.703 717.857 3079.076 3875.592 3305.915 490.694 6754.704 809.576 2342.764 3446.966 859.483 2074.947 551.879 1307.021 4332.106 341.033 5385.459 2887.226 2325.458 1362.636 4463.076 5342.612 2821.229 2894.010 791.558 2461.192 933.628 1795.110 5778.914 4220.955 4373.766 315.403 7859.786 269.838 4564.760 9969.091 309.976 4664.075 1373.478 4721.531 6545.276 1665.419 921.072 1021.570 9799.688 1707.832 5127.565 2948.973 502.336 443.062 1271.537 255.945 13982.413 6117.564 7499.515 2811.494 1123.685 290.299 5281.344 1101.619 7218.799 3582.555 0.000 722.653 9425.102 8566.082 3401.143
1277.899 1260.786 323.250 10332.847 503.507 12437.042 947.047 967.654 157.210 2125.010 422.353 1218.884 272.499 2748.964 741.586 11430.025 732.308 526.324 13315.540 820.278 462.567 1298.668 1506.352 5640.177 1904.595 562.095 4159.304 960.441 416.875 7210.161 584.341 3982.411 479.863 952.833 3139.152 10583.832 610.940 658.404 12911.327 7362.013 1445.156 945.796 8180.887 7067.330 2423.174 5803.351 1295.255 10123.671 7287.948 2356.049 4614.877 4949.717 1687.775 12889.809 960.184 810.801 681.709 699.315 1551.739 4804.350 439.837 8305.100 9236.964 4493.329 5960.084 133.133 9215.700 1416.814 533.174 319.747 1393.960 1481.317 4846.466 3755.587 235.888 4192.282 963.557 539.687 3673.071 686.660 931.368 304.366 8262.497 348.805 1177.382 288.551 5244.565 381.924 140.070 2119.002 1113.013 6442.635 12514.030 7019.862 6661.067 325.225 2771.679 515.193 5110.526 1741.799 697.476 9162.623 4211.076 4173.423 1171.247 2446.585 1425.051 6712.934 1970.597 264.471 3813.310 13510.879 12672.125 2309.175 489.767 358.929 2046.963 4080.860 1082.416 2418.717 3625.839 2698.947 1181.844 7452.494 945.734 1800.123 3654.205 1013.319 1500.341 209.323 821.521 4142.885 861.554 6107.944 2589.662 2063.180 1402.821 4145.584 5054.715 2457.253 2904.266 1382.060 2458.486 1654.910 1794.112 5703.604 3544.250 4612.676 407.986 7208.638 965.715 4362.552 9468.697 1032.200 4461.732 652.849 4454.538 7246.216 1650.509 1638.955 1743.324 10029.309 1694.189 4837.487 2922.740 1224.963 1165.652 1296.916 915.282 13313.568 6065.216 8009.793 2325.058 877.409 526.794 5060.596 999.994 7856.385 3449.269 722.653 0.000 8725.695 7849.947 4102.055
7478.598 9422.410 9047.097 4467.702 9109.316 3821.890 8727.936 9587.924 8882.828 9481.198 9147.783 9090.236 8974.609 8744.365 9259.861 15293.111 9250.790 9237.915 4820.251 8965.446 8318.206 9347.000 8759.090 11389.802 8347.488 9179.445 9910.368 9664.458 9123.275 4266.072 9225.610 9312.910 9115.465 9619.189 7890.054 14285.410 9319.087 9384.091 13516.479 11972.853 10079.878 8251.001 12659.169 4227.230 6341.824 9868.189 9952.669 13955.426 9168.762 7030.029 9841.509 10099.655 7149.353 14018.528 9594.702 9477.959 9297.657 9398.979 8715.433 10742.494 8367.201 12936.227 5091.140 9563.718 10397.534 8856.571 5144.853 7589.439 9230.553 9031.789 10115.980 9985.071 13450.653 8883.470 8960.212 10011.790 9598.068 9251.521 8691.042 9371.323 8783.133 8826.954 12684.959 8999.783 9126.846 8830.049 9580.533 8797.614 8865.764 9081.603 9371.034 9796.368 4561.795 8150.109 12383.691 9043.019 8694.660 9182.511 3786.971 7107.095 9366.419 9852.316 10023.465 4665.583 9823.049 6583.593 7448.653 13920.147 9618.111 8876.337 8811.846 12542.981 13857.212 9337.948 8939.595 9075.262 9070.251 5409.816 9369.972 7128.327 9461.579 7376.445 9904.447 15648.743 9459.818 7288.171 11321.169 9511.054 7462.418 8874.031 8214.113 9964.503 9420.211 14688.177 7658.275 9070.209 9569.112 9227.009 9725.926 7454.201 8844.624 9818.188 8775.559 10313.737 9665.525 11431.558 5230.185 10451.555 9123.860 5893.286 9684.715 9985.376 5152.536 9730.141 10026.755 8121.273 9638.880 15483.881 8774.396 10342.706 10402.732 13892.740 8773.257 9628.345 8699.735 9914.752 9857.685 8890.777 9639.633 4809.313 11800.504 14614.588 8190.881 8558.488 9250.716 10180.364 8733.678 15485.308 8216.679 9425.102 8725.695 0.000 1349.286 12497.778
6576.843 8423.846 8173.161 5614.860 8270.683 5040.033 7974.387 8758.602 8006.496 8853.551 8267.154 8359.495 8110.572 8246.514 8320.324 13944.478 8433.676 8373.026 6078.068 7996.027 7418.165 8609.058 8081.327 10108.677 7731.324 8340.838 8667.230 8806.103 8259.811 4721.773 8382.969 8971.991 8271.046 8776.498 6692.193 12936.637 8456.509 8503.300 14100.130 11902.572 9253.839 7487.833 12636.364 4642.445 5559.313 8544.356 9117.124 14074.810 7820.364 5960.633 8569.297 8816.015 6375.552 14540.965 8761.573 8633.053 8462.754 8541.033 8045.007 10407.233 7527.086 12899.382 5971.768 8291.840 9077.297 7976.842 6016.355 6614.816 8371.835 8142.616 9219.731 9193.093 12660.229 8532.528 8085.810 8769.551 8765.001 8386.587 8336.305 8519.012 7797.597 7986.192 12671.778 8148.472 8122.050 7986.986 8272.599 7968.323 7988.983 7977.981 8602.572 9801.239 5907.725 6802.960 11085.929 8173.586 8201.914 8332.352 3305.762 6159.703 8519.219 8540.950 8780.368 4040.037 8987.977 5914.167 6501.193 12697.528 8548.915 8026.354 8473.370 13318.855 14367.355 8223.415 8009.631 8187.131 7973.254 4240.296 8596.793 6039.240 8242.171 6235.055 9030.655 15011.726 8510.577 6583.215 10191.019 8556.822 6712.671 8015.386 7427.576 8724.036 8601.218 13913.554 7140.005 7971.656 8563.320 7968.365 8428.932 6902.806 8366.116 9036.338 8233.606 9481.074 8618.709 10148.533 4505.612 10115.240 8255.964 4565.443 8815.661 8731.636 6072.829 8875.412 8768.193 7219.041 8370.853 14833.742 8116.382 9486.896 9570.545 14005.430 8121.412 8339.759 8229.548 9065.271 9006.731 8180.163 8763.381 6063.963 10511.630 14299.032 7064.191 7796.155 8366.031 8893.141 7987.142 14985.119 7842.271 8566.082 7849.947 1349.286 0.000 11774.242
5340.614 4244.946 3803.635 13199.642 3614.292 16034.274 3800.241 3134.439 3961.550 3096.673 3742.414 3416.987 3830.127 4114.900 3956.452 13408.264 3412.528 3594.327 16814.850 4367.339 4564.609 3165.432 3743.411 7794.470 4202.473 3548.485 6935.969 3184.707 3692.299 10047.948 3519.544 4427.007 3628.341 3157.370 6886.301 12759.162 3511.556 3535.787 12674.360 6119.568 2668.795 4287.500 6736.129 9933.104 6215.040 8821.804 2824.964 8592.946 10719.576 6433.763 7491.075 7732.868 5399.151 12386.737 3142.289 3295.227 3425.127 3420.122 3790.398 3880.209 4322.645 6708.227 11798.107 7502.492 8759.996 3998.879 11757.634 5513.396 3575.844 3882.822 3019.703 2634.628 1189.516 4626.553 3883.859 6910.556 3138.942 3582.255 4731.554 3422.073 4606.459 3887.104 6831.481 3760.181 4490.148 3891.411 8322.252 3880.917 3978.775 5356.382 3181.240 6558.751 15805.294 10689.577 8493.283 3788.965 4173.346 3586.873 8725.892 5830.396 3406.425 12623.099 6924.828 7832.228 2940.367 5914.202 5524.810 7213.099 4752.684 3870.595 4732.244 13947.447 12174.972 5345.424 4160.800 3839.898 5298.405 8182.547 3190.736 6472.598 6619.863 6658.543 3055.294 3353.688 3864.692 5212.609 5029.492 3860.434 5062.446 3902.808 4356.962 6883.657 3256.903 2248.236 5016.564 5313.286 4208.548 7297.685 8043.867 5148.048 4100.288 2769.009 3953.511 2490.207 4513.413 7849.513 7288.213 3955.265 3709.629 11231.448 3217.974 7122.215 12028.769 3109.898 7211.344 4751.194 7420.750 3144.620 3740.683 2589.567 2410.063 8499.412 3747.242 7849.404 4247.054 2922.318 2979.584 3608.069 3292.785 16818.155 8079.578 4930.940 6049.077 3979.837 3670.376 7817.470 3787.109 4001.545 4977.149 3401.143 4102.055 12497.778 11774.242 0.000
NODE_COORD_SECTION
1 -534.872430 -1144.475237
2 -176.923345 -3173.572590
3 584.221036 -2287.989579
4 -1143.745369 8179.862979
5 863.084836 -2168.808606
6 -5615.117149 8858.239590
7 1134.565931 -1473.359338
8 1232.316100 -2491.563428
9 467.746692 -2168.375089
10 2380.638254 -1335.030605
11 598.360783 -2399.775129
12 1520.099002 -1619.724372
13 607.757738 -2184.204855
14 2403.319670 -183.840541
15 224.963818 -2766.591220
16 -8167.688192 -9633.201813
17 1096.593482 -2172.027313
18 764.255104 -2396.131674
19 -5458.075645 9928.753596
20 -169.979396 -2652.604886
21 -29.704437 -1818.713034
22 1659.142605 -1839.236554
23 1571.333890 -1123.689550
24 -3498.969340 -6138.734951
25 1562.295041 -550.414064
26 907.862558 -2222.966611
27 -2919.495291 -4577.975364
28 1074.755238 -2699.703534
29 703.450798 -2298.805077
30 -214.703337 5145.323579
31 909.922955 -2278.431760
32 3507.265064 420.286273
33 828.268769 -2201.465844
34 1158.661007 -2584.287557
35 -2731.348487 -2485.057010
36 -7876.485947 -8667.125298
37 830.582547 -2448.953311
38 739.936471 -2589.379979
39 8795.498860 7748.051123
40 6876.075528 1416.374097
41 1572.210028 -2851.746767
42 750.750735 -1172.123375
43 7671.636911 1661.197345
44 -258.319685 4998.205104
45 -648.916073 155.081616
46 -4805.357887 -4654.120547
47 1421.715954 -2805.135700
48 9266.145811 2802.676667
49 -6724.730126 -3681.098919
50 -1866.057739 -1317.160684
51 -3476.241336 -4581.442897
52 -3691.976435 -4860.128031
53 -59.557441 -410.027474
54 9401.443194 7162.227546
55 1210.219189 -2516.326774
56 1053.825850 -2485.772373
57 1008.166087 -2296.159421
58 912.749372 -2489.064416
59 1576.963508 -1057.727489
60 4808.659653 -187.241085
61 381.873599 -1600.785439
62 7903.465980 1468.634573
63 207.447301 7194.837007
64 -3504.784684 -4305.122480
65 -4685.837135 -5186.789530
66 428.572131 -2162.974930
67 274.167017 7174.549910
68 -933.945567 -1501.199503
69 802.721777 -2360.483708
70 468.139397 -2346.822879
71 1059.165639 -3255.761163
72 1750.247596 -2593.969804
73 4079.881215 -5166.415860
74 3088.151272 557.421264
75 528.064781 -2221.067205
76 -2884.859338 -4675.137170
77 1212.801640 -2518.605342
78 772.327908 -2407.092527
79 2903.545676 624.722501
80 935.063085 -2439.521132
81 -393.165026 -2565.521633
82 669.719154 -1960.134950
83 7721.832543 1742.299207
84 709.254730 -2144.148112
85 -378.363583 -2944.408450
86 656.758914 -1973.232888
87 -4322.425248 -4370.518909
88 724.554756 -1884.062148
89 454.314228 -2156.836117
90 -1323.162849 -3306.448354
91 1488.901608 -2015.195043
92 4936.972743 2509.876118
93 -3873.089881 9729.914339
94 -6616.617691 -2656.428213
95 -3884.667260 -7160.645495
96 612.891793 -2263.605883
97 2383.119070 -128.938952
98 831.619006 -2281.411690
99 -1713.198186 2623.316407
100 -1019.927827 -999.071352
101 967.548472 -2410.387923
102 -8629.890298 -3727.117941
103 -2897.788356 -4689.038847
104 -1328.223036 1768.938520
105 1342.412065 -2702.561568
106 -10.205570 375.296669
107 -832.402396 -1285.533882
108 -1687.588217 -8428.414043
109 -751.005926 -3656.973317
110 640.647440 -2041.474217
111 3067.369062 661.048735
112 7278.496950 9574.140485
113 9261.328136 6994.726738
114 -1340.151327 -3585.416708
115 118.652651 -2457.181913
116 501.525045 -2376.915346
117 -1259.997983 -3270.619237
118 -3182.399644 -43.101328
119 1458.592522 -2038.760707
120 -1972.817181 -1464.033528
121 -2628.585155 -4069.896990
122 -2315.520922 -1842.929078
123 1107.622874 -2968.886490
124 7034.592274 -5387.999650
125 257.957228 -2978.901541
126 359.434757 -240.540350
127 -804.049545 -5498.948550
128 245.139931 -3045.396080
129 273.277091 -543.777098
130 581.777664 -2079.891463
131 596.033752 -1249.030134
132 -2862.853022 -4623.640455
133 1194.360102 -2310.499700
134 5064.574506 -5955.418557
135 1421.726256 328.629399
136 -1275.811196 -3276.563724
137 -167.901306 -3333.598629
138 -3306.921315 -3943.383523
139 -4035.926836 -4507.055617
140 1128.352616 298.715292
141 2567.692855 -134.798365
142 1706.589321 -2414.878887
143 2238.861835 -436.040951
144 1673.610352 -3067.910577
145 -506.892411 -3602.323309
146 -3543.038501 -6184.357074
147 -1203.856991 1131.983552
148 4543.830283 -63.856540
149 673.121753 -2320.365542
150 -6615.232748 -284.273285
151 1008.883020 -2770.167022
152 -3097.048336 -4680.388407
153 170.800461 7425.884139
154 1141.986105 -2732.665553
155 -3181.222828 -4733.529849
156 -159.919883 -1668.012405
157 -3419.750981 -4371.643929
158 6794.558709 -5403.922817
159 1684.820863 -1034.784382
160 1515.633570 -3218.640301
161 1734.141561 -3133.797876
162 9191.702443 2742.046868
163 1715.363704 -1002.868151
164 -3847.565660 -4398.818867
165 2479.465050 -11.152867
166 1295.906597 -2849.679275
167 1249.299346 -2812.856901
168 1491.178719 -1378.191513
169 928.058284 -2770.769503
170 -5490.370972 9910.761704
171 -3664.785259 -6563.577792
172 8380.088204 -1733.655401
173 -1889.726756 -2561.708180
174 967.275747 -1392.164164
175 631.391599 -2501.430552
176 -3766.840264 -4946.619441
177 1178.514110 -1443.722418
178 7992.199959 -3969.054208
179 2415.671911 741.126392
180 921.377639 -2514.911374
181 376.178211 -2040.585343
182 -4480.304490 5208.713014
183 -4766.589917 3890.147968
184 3990.670496 -3980.249435
DEMAND_SECTION
1 0
2 99
3 43
4 42
5 45
6 6
7 53
8 32
9 11
10 70
11 29
12 10
13 36
14 87
15 80
16 98
17 2
18 22
19 45
20 67
21 82
22 8
23 90
24 92
25 84
26 7
27 88
28 24
29 7
30 33
31 6
32 53
33 31
34 5
35 83
36 70
37 13
38 14
39 87
40 75
41 26
42 74
43 75
44 20
45 13
46 100
47 9
48 54
49 89
50 42
51 72
52 61
53 38
54 84
55 34
56 47
57 10
58 24
59 69
60 79
61 40
62 77
63 31
64 59
65 93
66 12
67 28
68 62
69 4
70 43
71 47
72 47
73 9
74 80
75 18
76 56
77 23
78 13
79 75
80 39
81 69
82 12
83 67
84 47
85 87
86 48
87 74
88 47
89 37
90 79
91 16
92 61
93 16
94 52
95 88
96 46
97 72
98 46
99 50
100 33
101 40
102 70
103 93
104 11
105 2
106 29
107 22
108 95
109 63
110 20
111 92
112 53
113 82
114 71
115 51
116 32
117 78
118 22
119 13
120 22
121 54
122 86
123 5
124 47
125 78
126 29
127 80
128 59
129 44
130 6
131 61
132 82
133 40
134 25
135 56
136 80
137 74
138 86
139 53
140 79
141 76
142 46
143 55
144 35
145 79
146 69
147 42
148 70
149 6
150 37
151 10
152 66
153 9
154 48
155 54
156 94
157 74
158 41
159 97
160 33
161 10
162 90
163 88
164 95
165 71
166 42
167 41
168 97
169 39
170 5
171 51
172 10
173 66
174 84
175 42
176 81
177 80
178 40
179 78
180 7
181 15
182 40
183 23
184 20
DEPOT_SECTION
1
-1
EOF
